108
#Comment!
LJ  0.07545642286009363   -0.13466453865781308   0.11267792990469284
LJ  -0.16120956041422427   -0.14986211223012988   -0.38184322379684743
LJ  0.028360607781375731   -0.37089756150328906   0.23391983390182658
LJ  -0.36318248057634772   0.1922505473061738   -0.089923005725354596
LJ  0.23403716483339404   -0.49229704926742357   -0.32971134343908304
LJ  -0.30461631665550487   -0.26711419907753969   -0.020007568540163747
LJ  -0.074871815195868621   0.43591626897024749   -0.11825722741705243
LJ  -0.19245452788115333   -0.10529617724703412   0.063444378743487836
LJ  0.045965117039133731   0.2938450431750565   -0.46476933321796199
LJ  -0.1208711315489109   0.22210657414366486   -0.40890359276675986
LJ  -0.44001816464636057   0.15136305886471091   -0.045659811589112823
LJ  0.32816449181384183   -0.39842330310661905   -0.052020398981033424
LJ  -0.48856222145581157   0.14563710677104294   0.4493020428793032
LJ  -0.38769129327448199   -0.30023485353967022   -0.065826317479764682
LJ  -0.40588353008746114   0.13541266768151231   0.35926269372763625
LJ  0.39182503349366715   0.35620861635345136   0.37526857483040238
LJ  -0.25129464471270507   -0.087512863350954193   0.33963270987942457
LJ  0.17441405160789622   0.19546056043855867   0.25925182929563889
LJ  0.11251886404106934   0.46639457554962466   0.28234692955741775
LJ  -0.43086947791295815   0.46125106050059161   -0.41698036890794193
LJ  0.11268200054650461   0.18960070120260875   -0.4652502720343501
LJ  -0.11436881549090462   -0.16531857001571976   -0.46527644928589323
LJ  0.31161320395500924   0.17122106923147162   0.13514145943997019
LJ  0.39249068198670423   -0.43802098866656769   -0.031841599819558739
LJ  0.12369143684870385   0.44459539484192079   0.1970272595243642
LJ  0.094594876205974718   -0.21393590784679617   -0.15107699653438725
LJ  -0.36109082542089127   -0.26999783799454596   0.23280819801102062
LJ  0.085897455621061616   0.032617632951145434   -0.078836241394990778
LJ  0.053298560532138717   -0.22430816527242806   0.045247443488681739
LJ  -0.062782665322000913   -0.072253066342801944   -0.3232136423065991
LJ  -0.39555930517226251   0.29706188395181282   -0.29525207209376819
LJ  -0.3540309899960557   -0.006029880755926623   -0.14439227650585296
LJ  -0.45968123467186667   0.34607607034044946   -0.32243200288344798
LJ  0.41201957234311715   0.041300099950307166   0.25673721493979601
LJ  -0.36728018379731109   -0.45186848244370109   -0.30654898370760558
LJ  0.2369103443064946   0.1198885508257881   -0.16812536980670545
LJ  -0.16399109829711389   0.075077792985511815   -0.34108444295679402
LJ  0.44087906660201936   -0.31941366144044686   -0.30609447547411223
LJ  0.21160316188578454   0.2766904318364064   0.40519449193741053
LJ  0.18366037743280855   0.10920350286353257   0.18782892508648066
LJ  -0.21949762933953931   0.22162380619662672   0.18533252977252304
LJ  0.22755151473856064   -0.18965364646794183   0.11020556346967483
LJ  -0.36017564624640536   -0.25245054652231197   0.46962711237406191
LJ  0.026908837231946519   -0.20123987783144989   0.34816604263756395
LJ  0.20708413155088737   0.22901136062462635   0.49821066795849583
LJ  -0.44193879066777564   0.4143021697423796   0.060823253597533808
LJ  0.19505132366443287   0.065646176735188286   -0.038109399618226326
LJ  0.42424583210869737   -0.054832575404076378   0.17131664824277884
LJ  0.13188546876229976   0.47632944993080156   -0.21174525396151131
LJ  -0.20815642451923616   -0.28344742799254991   -0.09547808683077845
LJ  0.49197812596508506   -0.49697650758987821   0.075792465643089502
LJ  0.24837994274625091   0.40070042690426033   -0.16111214835327778
LJ  -0.44694537843239224   -0.3012356957992855   0.17495666954264982
LJ  0.037664445651643862   0.49160540812769565   0.33031764407551645
LJ  -0.001128592404333321   0.062210492292294577   0.21295329374732277
LJ  0.13400024551122408   -0.065060959518951064   -0.37823904452424006
LJ  0.44139904642974309   0.29680768707150879   -0.2138925391117836
LJ  -0.082639374843847466   -0.18705263925121779   -0.21996705719056786
LJ  -0.29328528977244828   0.22833532722044259   0.48748211299566302
LJ  -0.12935602605284077   -0.35647564788820696   0.0066689020336622449
LJ  0.10306395782626172   -0.36987874769031959   0.2837417941847547
LJ  0.40951790694820722   0.42301180672421412   0.27268393508540373
LJ  0.15028334071458729   -0.19546169596260363   -0.29418551158807155
LJ  0.16332788490522201   0.26217565648063557   -0.035576145217915807
LJ  -0.43572476234655044   -0.18384431493051104   -0.47859069580994473
LJ  -0.056729874979335806   0.2784335730739475   0.27235431803960264
LJ  -0.014509762840140328   0.040562234174784551   -0.44972285975675119
LJ  -0.2246586639597582   0.25827764782510487   -0.38068465053264511
LJ  0.28028238659108373   -0.23724107111992329   -0.23736071885060392
LJ  0.37754791839379603   0.26730046017246611   -0.3459362573972482
LJ  0.46202335919200882   -0.41818863835957953   0.029233945376243131
LJ  -0.30680605757429097   -0.022890303245092954   0.044093402221308926
LJ  0.25024342645478193   0.16133393826824088   0.20985713756965679
LJ  0.15056875633355091   0.13479999063638884   -0.048102379217837152
LJ  -0.38234147276768815   -0.14690866396101135   -0.27604587798134644
LJ  0.18900314681775859   0.37257557789548079   -0.47276387116531859
LJ  -0.23297099777573285   -0.23965583468821375   0.20356030700463471
LJ  0.39336781593650311   0.05922118191747975   -0.33668498682121634
LJ  -0.40980185028209165   0.18869397361510717   0.43633970556798007
LJ  0.16165264076088195   0.0064128783899165629   -0.27556010063917835
LJ  0.18299675062584586   -0.44061975250914887   -0.27568820709081793
LJ  -0.26883870096557044   0.47133443644963302   0.452128597300129
LJ  -0.20927945925581762   0.047114615397545988   0.28792018614329906
LJ  0.34845786140429141   0.40200677447893757   -0.17381689083149399
LJ  -0.065469356779803645   0.059714349940543913   0.33259934371473121
LJ  -0.39323234674807062   -0.12596982228856635   0.45987358965003089
LJ  0.084395806665158918   -0.2580904214614706   0.46779793741874864
LJ  0.23335347131018683   -0.27166058114048247   -0.012203204329021892
LJ  -0.00048310633423508684   -0.35764325401282065   0.12584105461920789
LJ  -0.18392254866150198   -0.071651171660503846   0.47886782467597078
LJ  -0.24053636086503014   -0.19310158606489933   0.27900611516554935
LJ  -0.31279779612866859   0.42661943319083384   0.37038318387121894
LJ  0.067763492384420546   -0.38969960959036098   0.03537039539926734
LJ  0.17408866874993742   0.33140729493928484   0.31924690456028809
LJ  0.12538221979826178   -0.021565571634437536   -0.013008770137139717
LJ  -0.29151851307601589   0.22652530135404517   -0.39493040837095861
LJ  -0.048637530229363964   -0.01728795575207143   -0.48813932032390095
LJ  -0.11236798233713498   -0.42631490286473467   -0.05945051270735803
LJ  0.40173328835560945   0.11731086553821909   0.19796668986550853
LJ  0.073844152505119998   -0.13266512701071911   -0.30958357203575537
LJ  -0.49326674244007251   -0.22509555639778683   0.06328723671883732
LJ  -0.20709767285356817   0.39852606500387922   0.0093474288049581016
LJ  0.083878985960186669   0.17518525988946193   0.25518600189432256
LJ  -0.05675384902622211   -0.41591905403939639   0.39855892787934255
LJ  0.082711974671623695   -0.13691850176074197   -0.16302247697003278
LJ  0.46173805948688823   0.30992429610645938   0.31265006888064101
LJ  0.057305537981400832   -0.072778558857724857   0.035767304532819164
LJ  0.44641462626423967   0.2627063153830152   0.43231980802959474
