108
#Comment!
LJ  -0.46316535806407894   0.4836566639649727   0.41340765339544444
LJ  -0.28320179463768258   -0.076516420499327151   -0.37939671869756431
LJ  0.46213465976411178   -0.26416494948434732   0.17964122617579306
LJ  -0.28762819611028684   0.25874961250555817   -0.14901641723332154
LJ  -0.43326933270772255   0.49809127170177414   -0.16290151043008044
LJ  0.19476633865249554   -0.37663832363774719   0.17958021896503082
LJ  -0.44613693199542237   -0.059747939582588352   0.16071077820508003
LJ  -0.14917989575672341   0.11616598176366391   -0.1060948005312948
LJ  0.47095710383126732   -0.16437249389662631   0.33613742347167314
LJ  0.27670689291329836   -0.19520801509548799   0.26744051867596924
LJ  -0.42313956748995796   0.34375432915211201   0.013304493596159834
LJ  0.022723385992684985   -0.29255040490650064   0.43969764861142074
LJ  0.48566061219014456   -0.36865355010779349   -0.46778690428380548
LJ  -0.46837607327565006   -0.084295848468511222   -0.45534547425241756
LJ  0.40704690733468191   0.42306401220408818   -0.25527840154924181
LJ  0.27719572152216926   0.02815913644253306   0.24500970193526997
LJ  -0.11789574671999101   -0.2518100937829949   0.31364336920654601
LJ  -0.18008438036224764   -0.26061936729542962   -0.3544158237445591
LJ  0.37015072942122013   -0.34134981530848468   0.3575980328822061
LJ  0.03209035270640332   0.079941623096909109   -0.082586318979465653
LJ  0.48952136591486423   0.13003885148551284   -0.46939661959718132
LJ  0.12708582374206512   0.03207260091082613   -0.40462015404827339
LJ  0.24408815919540161   -0.17030031536649801   -0.24781444586684134
LJ  0.14905246900013758   -0.14687026545852241   -0.45264334812661128
LJ  0.10386759517367845   0.41257193212063487   0.30085294545285945
LJ  -0.12684759944717949   -0.086903498691504849   -0.17516382852509516
LJ  0.29396029364506104   0.33052137601372211   -0.13876915085602204
LJ  -0.31179365818054461   -0.48817152997297936   -0.02109276977844041
LJ  0.37068994336548555   -0.22376531668367822   -0.40530968906117743
LJ  -0.055146378675430617   0.22644137062468381   -0.45240374267764727
LJ  -0.19230007080361081   0.21541115396558388   0.050462570635614677
LJ  0.090293280052432021   0.22925704029731248   -0.2771999419891652
LJ  0.17542754530354737   -0.3271600851581678   -0.36070202147834363
LJ  0.34145793928637608   -0.47871659739368594   -0.42390885178803223
LJ  -0.26653550309485019   0.16847411630488443   0.4627550637410614
LJ  0.1450339631801886   0.29933604499780869   -0.44986924337391848
LJ  0.39916274499439214   -0.11129875279696126   -0.097865473610698139
LJ  0.40112474879619492   -0.36962430753212727   -0.24888316681086078
LJ  -0.20448322330602989   0.40531757976803395   0.28946845779714181
LJ  -0.19879581457245463   0.39047334028755604   0.48683166399027039
LJ  -0.18965018118797772   -0.26329993955732978   -0.14160100879980347
LJ  0.11911842619425116   -0.00075768837279989064   0.11162573509069741
LJ  -0.20532980210058913   0.47961629083815621   -0.22819925194728211
LJ  0.19079432424582093   0.49298269727288785   -0.24799832557342261
LJ  0.0027971124404767306   0.41608605105433777   -0.22902728929991623
LJ  -0.4056522904353751   -0.20896050561821045   -0.29661245023024835
LJ  -0.19421363583354972   -0.40828048786245946   0.41079660572612009
LJ  -0.45971193942228444   0.25179550537646794   -0.31255949533439586
LJ  -0.29718613703319235   -0.11180304400707196   -0.023599212045707803
LJ  -0.25764849835476994   0.30956980697386766   -0.33425510792948288
LJ  -0.44093182580195267   -0.017466958657815754   -0.19639609812615774
LJ  0.34816758205979464   -0.094558846756802872   0.10926641082392331
LJ  -0.22692248949471935   -0.006174286566322359   0.36764129741351298
LJ  0.16357149402570331   0.1701418883902544   0.36975423608958558
LJ  -0.29800482636543252   -0.40442094539773416   -0.42488402181566953
LJ  0.012369698439709951   -0.41306648583901062   0.26809370967054241
LJ  0.16612767264316558   -0.32893131526406005   -0.13507102327178147
LJ  0.4577938286458027   0.044315994214597816   0.013553249377706722
LJ  -0.1144516194968634   -0.23523359973771787   0.072238764125987925
LJ  0.26736390296585333   0.066160167518332924   -0.19554859676501571
LJ  0.34941873141006469   -0.48216017208310857   -0.078387976131366624
LJ  0.48713286682036255   0.20564723415577377   0.12993439514364219
LJ  -0.4919797882969647   -0.47630426025635142   0.10875056708854509
LJ  -0.34289026464520517   0.099188663793408835   -0.024773512209453674
LJ  -0.32867107690195713   0.10329430714939433   -0.27210822298284421
LJ  0.26493515081111846   0.18540112185627156   -0.0042872470560113684
LJ  -0.048910420894831601   -0.48018858485156818   -0.38976849480209236
LJ  0.063179484756086576   -0.3332839952829233   0.041639365762547911
LJ  -0.08688819640446574   -0.43915024552197357   -0.064059961010111327
LJ  0.46411835308838678   0.16960541079411612   -0.13789677162650477
LJ  0.13259758975425917   -0.44882197549757219   0.47910041287950922
LJ  -0.067455794796778781   -0.087680936072762297   0.19206955094686662
LJ  0.30588861251926164   0.32536057557256542   0.42257096297880475
LJ  -0.013526842649418365   0.39492476583964886   0.46999376027105771
LJ  -0.39980080381495431   0.42699878489270798   -0.39296535762712692
LJ  -0.37354137249283464   -0.38774658101146064   0.2849585005888558
LJ  -0.17537135149334465   -0.42067737426031671   0.13654685528420449
LJ  0.20470677768926959   -0.13977066478347425   -0.05087493259988668
LJ  -0.43562468091728546   -0.0067436442105894695   0.35564823243300697
LJ  0.14881385491028642   0.44855829554270665   0.022476909221586121
LJ  0.30300122223617282   -0.31827716519351373   0.027879869852394178
LJ  -0.39660845894731772   0.30059162694859398   0.45023555334031906
LJ  0.12912933679462218   -0.073157344018854126   0.36240352543043464
LJ  -0.46536742167200001   -0.29849373454584022   -0.10418807750259898
LJ  -0.35849199084363548   -0.32183040092183363   0.095649662129507776
LJ  0.39724743650231015   -0.013758127251006138   -0.32827657195299736
LJ  -0.41255032368731681   0.37990145246637319   0.23469887174917833
LJ  -0.35210111741905248   0.18481621157211603   0.25263775137047151
LJ  -0.003574244312018447   -0.37582199955336593   -0.24280831801643729
LJ  0.04007452043843604   -0.14214102029499887   -0.26667170213413699
LJ  -0.0010499318439141914   0.14915742966617959   0.1337484643065564
LJ  0.44436068899287384   0.20937718873117198   0.35918099864809333
LJ  0.0055469125850026732   -0.11271909466711816   -0.043846232713061831
LJ  0.30829773014703604   -0.055426882780296713   0.47253118099433
LJ  0.31778682879924475   0.17879741217737843   -0.36686615319113491
LJ  -0.24034781943661537   0.011163140915073467   0.18075812725860121
LJ  0.35451001527028619   0.36391478443319947   0.087019421984206882
LJ  -0.048737936968636035   0.32812108595742145   0.18354987788620861
LJ  -0.30868890964780693   -0.18771461497557423   0.26235668444275217
LJ  -0.037230855661676839   0.040188556741499459   0.43812879615601291
LJ  -0.1474580240771583   0.37161050588835681   -0.037231069781758087
LJ  0.05118069912157517   0.30260638192313527   -0.068030053413649705
LJ  -0.075614250782039816   -0.087071059860403949   -0.42524203814446204
LJ  -0.048473998277344256   0.079030741872509719   -0.31081151389622957
LJ  0.08576564223522562   -0.20101963287097049   0.19218573860379767
LJ  0.32895947388749563   0.48449395291415387   0.28678279671249302
LJ  -0.09081180658954642   0.20083778679515119   0.32262747404658126
LJ  0.20449590785793745   0.27589764759122809   0.20773482265476373
