108
#Comment!
LJ          0.268949        0.839873        -1.54298
LJ          -1.73986         2.11604        0.793988
LJ          -1.75862        -2.17219         1.39261
LJ           2.39331        0.500045         2.52134
LJ          -1.45554        -2.14874        -1.17046
LJ          -0.92942        -2.49116         2.12058
LJ           1.98912        -1.04223       -0.680738
LJ           1.63167        -0.42044        0.208983
LJ          -0.93672         1.52862         -1.2106
LJ         -0.213591        0.147675         2.19818
LJ              -nan            -nan            -nan
LJ          0.533269         1.11525        0.231711
LJ          0.194648        -1.00446        0.641876
LJ         -0.998606         -0.7596        -1.78791
LJ           1.80135         -1.0009        0.250082
LJ          -2.40163        -1.92373          1.5789
LJ          0.237327        -2.31081        -0.36631
LJ          -2.46312       -0.175618        0.717343
LJ           1.89328        -2.41034         -2.3546
LJ         -0.191821        -2.33614        -1.10287
LJ           2.53284        -1.35036         2.09976
LJ           0.36333        -1.81829        -1.87667
LJ          -0.30536        -1.88347        -1.47141
LJ          0.876434         1.28225        -1.94067
LJ          0.678033         2.14047        0.669941
LJ         -0.614043        -1.80049      -0.0507748
LJ          -2.07143       -0.839102        0.665473
LJ         -0.523215       -0.678043       -0.383853
LJ         -0.843612        0.435378        -0.35183
LJ          -2.06214      -0.0494436       -0.914723
LJ          -2.07534        -2.47202        -1.30793
LJ         -0.921029       -0.448049         1.03586
LJ              -nan            -nan            -nan
LJ         -0.213498       -0.854203         2.44891
LJ          -2.35161         2.22343        -1.94845
LJ          -1.96839       -0.827647        -0.94555
LJ           1.39778        -0.73352         2.08734
LJ          0.341245        -1.52881        -1.35292
LJ          0.729963        -1.69478         2.48023
LJ           1.73218       -0.115482        0.628791
LJ           2.20624        -1.11757         1.08581
LJ          0.478288       -0.328967         1.96101
LJ          -2.17825        -1.31145       0.0850373
LJ          -1.98011        0.184576       -0.461799
LJ          -2.48351         1.39182         2.43868
LJ           2.50375         1.62487       -0.471948
LJ          0.491148       0.0290664        -2.52876
LJ         -0.139156        -1.65793          1.0737
LJ           1.65388        -2.43605         2.45218
LJ          0.222137       -0.308858        0.648317
LJ           1.77863         2.32257         1.46918
LJ           1.01959       -0.638385        -2.54514
LJ         0.0964636        0.153099      0.00299801
LJ         -0.401833          -2.432       -0.915564
LJ          0.979498         1.77541       -0.313436
LJ           -1.1896       0.0749433         1.17745
LJ          0.371652         1.46415         2.55165
LJ          0.507799       0.0408479        -0.20514
LJ         -0.167758        0.200483        0.558895
LJ           2.07533        0.253747        -1.99314
LJ          -2.20989        -1.13356        -1.25038
LJ           1.66938         1.62008         1.28243
LJ           2.25631        -1.24526        -0.29992
LJ          -1.47585         2.44341        -2.16843
LJ          -1.04901        -1.62013         1.48492
LJ         -0.866779        -1.58976         1.00071
LJ           1.73543       -0.551759        -1.48985
LJ          0.546071        0.293998        -2.48625
LJ          0.734341          -1.833         1.87696
LJ            1.6351         2.00254         -1.6084
LJ          0.592317        -2.04837       -0.526719
LJ          -1.84577         1.21432         0.80906
LJ          0.935133        0.822512        -2.16126
LJ           1.56067         2.12463         -2.1331
LJ          0.692347         1.97808       -0.297271
LJ           1.66627        -1.84269        -0.13052
LJ          -1.39146       -0.981723        0.437372
LJ          -1.27568        -1.25659         1.71397
LJ          -1.25105         -2.3769        0.784422
LJ          -1.65439       -0.614596        -2.41057
LJ          0.464746        -2.40967       -0.414415
LJ         -0.969688        -1.86343        -2.51073
LJ           2.37236        -1.42342         1.23298
LJ          -2.31987        0.275427        0.225331
LJ           1.06544        0.749434         2.10643
LJ          -1.94357         -2.2445        0.748978
LJ          -1.32337         1.38134         1.08299
LJ           1.70304         1.00146       -0.744973
LJ           2.31872       -0.780213         1.95583
LJ          0.509545        0.802142       -0.731043
LJ         -0.344009        0.233569        -2.40108
LJ           0.78981        0.805968         1.62479
LJ          0.442727        -2.08755       -0.656995
LJ         -0.728224         2.33335       -0.827531
LJ           -1.5767        0.483805        -2.40736
LJ          -1.96667       -0.473839        -1.71132
LJ           -2.2145        0.724017         -1.9787
LJ           -1.6142        -1.41609        0.160105
LJ          0.151416         1.97559        -1.24861
LJ           1.92853        -2.07639       -0.658151
LJ          -2.38404         1.11433          1.1748
LJ         0.0549237        0.403364        -2.11357
LJ          -1.98698         1.26385          0.3641
LJ          0.782553          2.3009        0.651618
LJ          -1.67725       -0.384901        -1.10138
LJ         -0.670995      -0.0535477        -1.44715
LJ          -0.31699         1.39942        -1.51038
LJ        -0.0221151          1.2295        0.340031
