108
#Comment!
LJ          -2.11327      -0.0850417         2.49703
LJ           1.67149        -1.43398        -2.10701
LJ          -2.13354         1.55934        0.502492
LJ           2.07188        0.714509        0.164992
LJ         -0.455746       -0.385178         1.31145
LJ          -1.25172        0.946323        0.230723
LJ            0.7415         1.86659        0.370022
LJ         -0.994443       -0.240726        0.688377
LJ          -1.63389       -0.787881         1.93512
LJ          -1.71444         1.56086       -0.968841
LJ              -nan            -nan            -nan
LJ          -1.35438        -1.00523        -1.22554
LJ          0.929497       -0.551405         2.12258
LJ         -0.176653          -2.452         2.15307
LJ         -0.902112       -0.234649        -1.70765
LJ           2.01571          1.6385         1.97654
LJ              -nan            -nan            -nan
LJ              -nan            -nan            -nan
LJ           2.55861         2.23641          1.8198
LJ              -nan            -nan            -nan
LJ            1.3131        -1.53403         1.34948
LJ            1.3167         1.55532        -2.36407
LJ           1.73172        -1.06096         1.09096
LJ           1.30627        -2.07675          2.0046
LJ          -2.48813        -1.65279         1.53551
LJ           1.79399       -0.474383         -2.2488
LJ          -1.49608        -1.60015        0.862394
LJ           1.40647        -1.09006        -1.64637
LJ          0.939103         1.44642       -0.901324
LJ          -0.19801        -1.38565        0.528617
LJ           2.27926         1.61098         2.56088
LJ          0.927095         2.18838         -1.9935
LJ              -nan            -nan            -nan
LJ          0.203155         1.72497       -0.563857
LJ              -nan            -nan            -nan
LJ         -0.897519         1.74057        0.991568
LJ         -0.303957        0.210081        -1.52883
LJ          -2.10982         2.13249       0.0276079
LJ           1.62702         -1.9984         2.39658
LJ          -1.87154        0.552408        -0.24386
LJ          0.294084         2.42416         1.05181
LJ          -0.52402       -0.224527        -2.24096
LJ          -2.42034         1.62981         2.32316
LJ           2.51635       -0.437045        -2.36366
LJ           1.06209         1.86229        0.407363
LJ           2.00568         1.34011        -1.48758
LJ         -0.812801       -0.431154        0.701497
LJ           1.60269        -1.80302        -2.54775
LJ           2.27971         0.30888          -1.971
LJ          -2.28481         2.08946        -2.00095
LJ         -0.724897         1.61866        -2.21774
LJ          0.951487         1.05641         1.54166
LJ              -nan            -nan            -nan
LJ           1.68349        -1.03636       -0.609245
LJ       -0.00876853        0.222407         -2.3316
LJ           1.46915         2.53648         1.13127
LJ         -0.727094      -0.0389508        -1.15737
LJ           1.66681         1.12955         1.45059
LJ         -0.265951         2.12392          2.2394
LJ          -2.47018         1.13595        -1.69271
LJ          -2.28443        -0.72362       -0.272467
LJ          -1.53838        0.341122        0.483262
LJ          0.230219        0.543248         0.64599
LJ          0.465546        -2.41002          1.1478
LJ        -0.0641705        0.989961        -1.12665
LJ         -0.905226         2.49274        -2.19349
LJ         -0.657608         2.47585         1.75432
LJ              -nan            -nan            -nan
LJ          -2.42788        -1.36059         2.46135
LJ           0.61105        0.629858         1.18561
LJ           1.73407         1.02881        -1.41292
LJ          -1.62899         0.79949        -1.40601
LJ          -0.39696         1.65761         2.52038
LJ           2.38246         1.62695      -0.0367137
LJ         -0.512674       -0.751133        -1.12303
LJ         -0.159577        -1.72854         1.68589
LJ          -1.80302        0.926372        -1.06904
LJ          -1.07473        0.519654         1.08352
LJ          -1.65733         1.16679        -2.34822
LJ          -2.42616        -1.81037        0.389651
LJ          -1.49001         -1.1525         1.02618
LJ         -0.929009         1.13622         2.51009
LJ         0.0278542        -1.72421        0.430901
LJ           2.09987         1.37938        -0.38116
LJ          -1.53912        -1.91722        0.690324
LJ            1.2538         1.42095        -0.53919
LJ          0.393608        -1.46428        -1.60476
LJ          -1.21891        -0.99181         1.42035
LJ          -1.48217        -1.09535       -0.462058
LJ          -2.37609         2.48336       -0.595409
LJ              -nan            -nan            -nan
LJ          -1.96767        -1.70442         2.47119
LJ           -2.5089        0.744012        -1.99391
LJ           1.96756        -1.37555          1.2481
LJ           2.15787        -2.32303       -0.965089
LJ          -2.15951        -0.74496           1.848
LJ         -0.680694         1.91316         1.95527
LJ          -1.30945         1.30858        -1.76003
LJ           2.53078         -1.6825       -0.506148
LJ          0.905677       -0.870161         1.27122
LJ         -0.327481         2.19798       -0.378305
LJ           2.38708         1.38402        -2.36983
LJ          -1.65026        -2.41209        -2.40438
LJ          -1.34885        0.238779         2.09983
LJ         -0.538789        0.355593        -2.20722
LJ          0.862445       -0.618028        0.988518
LJ          0.430159      -0.0937506        -2.51282
LJ              -nan            -nan            -nan
