108
#Comment!
LJ         -0.420136       -0.932695       0.0820754
LJ        0.00702112       -0.537608       -0.381863
LJ          -1.07675       -0.520321        -1.98768
LJ         -0.704272         -2.3869         1.39992
LJ           2.09732         2.47401       -0.985789
LJ          -1.27629        0.637196        0.426511
LJ          -0.11057        -2.14147        0.212545
LJ          -2.33878        -2.51532       -0.628003
LJ           1.78138        0.924263       -0.041996
LJ         -0.821027        0.681429        0.445055
LJ              -nan            -nan            -nan
LJ           2.33468        -2.08196         2.05883
LJ         -0.220002       -0.319855         1.42368
LJ           2.10506         1.28268       -0.109352
LJ           1.90357         -1.8959       -0.464863
LJ         -0.424686         0.99275         1.25002
LJ         0.0942729         1.86294       -0.206401
LJ          0.646258         2.17781         1.47238
LJ        -0.0369037        -2.09454         1.94817
LJ           1.98639        -1.50007       -0.487713
LJ         -0.815279       -0.445337        0.239218
LJ         -0.231067       -0.679329         0.41709
LJ           1.42202       -0.210753        0.515697
LJ           1.45218        -2.12536        -2.23673
LJ           2.13963        -1.15419       -0.616032
LJ          0.996327        0.819561       -0.697773
LJ          -1.05186          1.5511         2.11519
LJ           1.56477        -1.64504         2.02551
LJ          0.304622       -0.110136       -0.581287
LJ           1.97378       -0.676388        -2.31047
LJ          -1.95567        0.748386         1.47746
LJ          -1.69469        -1.42007        -1.78905
LJ              -nan            -nan            -nan
LJ          -1.44714        0.974926         1.53991
LJ          -1.59892         1.02972       -0.691849
LJ           1.80756        -2.14098         2.48059
LJ          -1.10997        -1.41386          1.7304
LJ          0.909661         2.17045       -0.042696
LJ          -1.01393        -1.46997      -0.0710708
LJ          -2.25553        -1.70352        0.988144
LJ         -0.786364        -1.32791         2.30786
LJ           2.52759         1.05112       -0.230617
LJ          0.296032        -1.65956        -2.37412
LJ          0.433213        -1.96893        -1.26251
LJ          0.133909        0.565751         1.56408
LJ          -2.07387         2.38818         1.56088
LJ          -1.15214         1.79911          2.2371
LJ           2.47724        -2.04503         2.26047
LJ           2.33184         2.24763       -0.269555
LJ           1.65922        -1.58036         2.07706
LJ          -2.28802        0.760297         1.53859
LJ         -0.876079      -0.0426138         0.56112
LJ          -0.91441       -0.106362          2.1006
LJ          -1.77763       -0.309717        0.769354
LJ           1.16001         1.14909        -1.60582
LJ         -0.472712         1.56442         0.10299
LJ          -2.46165        -2.22485        0.928882
LJ           1.60705       -0.135136        0.410139
LJ           2.33541         1.08616         0.71712
LJ           1.43648        -1.27474        0.465938
LJ           1.64531         1.77258         -1.3276
LJ          -1.17135         1.36719         2.39918
LJ           2.07531        -2.54763         -1.9616
LJ          -0.62724       -0.290966         2.36436
LJ           1.17673         2.45165        -1.25757
LJ           1.23164       -0.214518         1.91927
LJ           1.15936         1.66904       -0.748315
LJ          0.285386       -0.791099        0.177681
LJ           1.44676        -2.36133        -1.90782
LJ          -2.34896        -1.87971       -0.151001
LJ          -2.32647         2.34931        -1.76668
LJ          -2.32872        0.499667        -2.21165
LJ           -2.5435         1.93702         1.65535
LJ          -1.91951       0.0505044         0.35405
LJ          0.626304         2.28289         1.68947
LJ          -1.43086         -2.2209       -0.827609
LJ           2.38121         1.06007         1.34489
LJ          0.125072        -1.42344        -1.04283
LJ           1.43371         2.26666        0.418797
LJ           1.79467        0.626096       -0.326761
LJ         -0.904555       -0.406838       -0.302817
LJ          -1.65493        -2.18898        0.386833
LJ        -0.0988311         0.33695       -0.810741
LJ         -0.460043         1.41798        -1.30544
LJ          -2.39253        0.305617         1.37281
LJ          -1.47395         1.88571         2.04436
LJ            2.0938         1.54419        0.847427
LJ          -1.12141        -2.35626        -2.19721
LJ           1.84685         2.15898       -0.775787
LJ           2.43574         1.70264        -1.00454
LJ          0.261523         1.65281        -2.08737
LJ           1.88363        0.335495        0.261425
LJ           1.22305          1.4402        -1.30015
LJ          0.784798         1.40259          1.8407
LJ          -2.47754        -1.82089       -0.268451
LJ         -0.885313         2.52519        0.310222
LJ         -0.355748        -2.39146         0.97557
LJ           0.37241         1.21069         2.18615
LJ         -0.844006        0.721098        -1.22662
LJ          -1.65123       -0.820146       -0.746744
LJ         -0.735676         0.60137         2.04502
LJ          -2.10515        0.561374        0.249205
LJ            -2.335         2.27864        0.601905
LJ           1.38269        0.906881        0.748906
LJ          -2.51134         1.73896      -0.0508151
LJ          0.215931        0.549906        -1.56079
LJ          0.698191        0.298039         1.57979
LJ           -1.6281         1.50765          2.2953
