108
#Comment!
LJ           1.52741        -1.02085         2.20337
LJ         -0.471134        -2.20817         -1.1113
LJ          0.341388       0.0173245         1.63004
LJ          -2.48719         2.02287         1.84069
LJ           -1.6504       -0.256412        0.960344
LJ          -0.93726       0.0340557        -1.30534
LJ         -0.521079       -0.601749         2.47734
LJ          0.575785         1.66045        0.909921
LJ            -1.275        -2.01128         1.07867
LJ         -0.055916         1.20562       -0.825372
LJ              -nan            -nan            -nan
LJ          -1.95223        -2.32887       -0.232653
LJ           1.23489        -1.80033         2.27992
LJ          -1.93286           1.462        -0.35541
LJ         -0.946197       -0.889936        -2.01308
LJ              -nan            -nan            -nan
LJ              -nan            -nan            -nan
LJ              -nan            -nan            -nan
LJ         0.0903168        0.179932         1.56531
LJ              -nan            -nan            -nan
LJ          -1.45715       -0.914888         1.62758
LJ           1.73471        -2.27684        0.851404
LJ         -0.140886         1.55341        -1.35723
LJ          0.899075       -0.473709         1.15355
LJ         -0.814423         1.62866       -0.458801
LJ           2.24569        0.400374         1.99052
LJ          -1.70433       -0.581695        0.366101
LJ          0.285277        -1.26099         2.41959
LJ         -0.830467        -2.36921        -1.53415
LJ          -1.16961         2.34326        -1.86954
LJ            2.5342       -0.544735        -1.51738
LJ          0.241563        -1.88109       -0.168477
LJ              -nan            -nan            -nan
LJ          -2.04176        -1.73505        0.639916
LJ              -nan            -nan            -nan
LJ           2.38823       -0.651235        -1.48354
LJ          0.150387       -0.679138          2.1541
LJ          -1.37989        -2.12187        -1.20651
LJ         -0.812884       -0.911181        -2.33336
LJ          -2.24901         1.90036        0.577421
LJ          -1.09571        0.620866          2.0789
LJ           1.76903         2.15249         2.35162
LJ          -2.35221         2.42557        -0.76363
LJ          -1.22831       -0.843381       -0.896627
LJ          -2.39166         1.62754        -1.25329
LJ          -2.42411        -1.94905         2.30389
LJ            1.8845         2.40448        0.556754
LJ           1.48947        0.525134         1.57094
LJ          -2.52904        0.220141         0.76448
LJ         0.0358165         1.80647         1.60303
LJ         -0.968205        -1.51465        -1.54961
LJ          -1.63347         1.52243        -2.32212
LJ              -nan            -nan            -nan
LJ           1.38136        -0.08086         -2.3562
LJ            1.6056       0.0144448        0.696364
LJ          -2.47934        -2.35259        -1.47936
LJ          -1.74771       -0.268811        0.675154
LJ         -0.213265         1.13067       -0.822955
LJ          -1.41052       -0.497475       -0.792965
LJ           2.22218        -2.05198        -1.36622
LJ           0.89845         2.07987        -1.02228
LJ          -2.16352        0.799993        -1.61401
LJ           1.71927         2.06444       -0.159656
LJ          0.799527        -2.22346         1.37676
LJ          -1.80878        -1.69577        -1.93733
LJ          -2.07448       -0.804848         1.74634
LJ          -1.46426        0.846049        0.689509
LJ              -nan            -nan            -nan
LJ          -1.94023         1.90738         1.78291
LJ          0.824349        -2.01396         2.38123
LJ          -1.16602       -0.534464         1.12019
LJ          -1.84898        -2.04422       -0.113102
LJ         -0.655705         1.31891         -1.8912
LJ           -2.0569        -1.73482       -0.834386
LJ           1.28031        -1.59422        -1.82149
LJ           -1.6146        -1.40405        0.606305
LJ          0.234276         1.85046        -1.15032
LJ          -2.54035        0.971768          2.0615
LJ          -1.04965        0.559159       -0.263708
LJ          0.360022        -2.11864         2.11445
LJ         -0.131501         1.55683        0.764459
LJ          -1.50041        -1.36013        -1.04468
LJ          -2.46861        -1.51072        -1.92166
LJ          0.379562        0.441593         1.83116
LJ          -1.85816        0.687173        0.246476
LJ           2.13665         2.25393         1.13145
LJ         -0.967511         -1.7713        0.910305
LJ          -2.07255       -0.825704         1.01498
LJ         0.0405309        -2.42582         1.80909
LJ           2.46403         1.68456       -0.708228
LJ              -nan            -nan            -nan
LJ         -0.964637       -0.584155          2.1769
LJ          -2.05817        0.393248        -2.25994
LJ          0.132424       -0.640813         1.35025
LJ           1.55687         2.18744       -0.618596
LJ          -1.92433       0.0384746        -1.99335
LJ          -2.13685       -0.547269          1.2053
LJ           1.71187         2.29358        -1.23187
LJ              -nan            -nan            -nan
LJ          -1.99254        0.700776         2.40082
LJ         -0.884834        -1.92329       -0.629003
LJ           -0.5106        -1.92447         1.15823
LJ          0.142302         1.63695         2.19039
LJ          0.255594        -1.11404        0.523631
LJ           2.43091         -1.7422        0.370195
LJ           1.90152         1.21033        -2.37794
LJ           2.17695         1.45327         1.31026
LJ              -nan            -nan            -nan
