108
#Comment!
LJ          -2.49943        0.152306         2.15942
LJ          0.617505        0.988263        -1.39874
LJ         -0.512913       -0.663528         1.92161
LJ         -0.694035        0.232497        -2.29342
LJ          -1.87629        0.604948        -1.79456
LJ           2.16736        -1.69696        -2.29178
LJ          -1.88836          1.2985          2.2849
LJ          0.437692         2.18082         1.10387
LJ           1.96716        -1.65042        0.357991
LJ          -2.08949        -1.54904         0.90278
LJ              -nan            -nan            -nan
LJ         -0.996196        -1.61506         2.44984
LJ          -1.12476         1.40552         1.91689
LJ          0.524589        -2.19729         1.54212
LJ          0.240214         0.70314        -1.66499
LJ           1.23614        -2.14614         -1.5724
LJ           1.32589       -0.107997        -1.11172
LJ          0.592966         -1.9494         2.13492
LJ           1.16411         2.06597         1.48172
LJ          -1.95138         1.31867        0.360557
LJ           1.61295         2.21836       -0.562279
LJ          -1.37378         1.91211        -1.14409
LJ          0.133129         1.49507         1.36453
LJ          -1.72314       -0.833934       -0.342739
LJ          -1.40957       -0.344203        0.552617
LJ           -2.3888         1.23179     -0.00940476
LJ          -2.45542        0.289934        -2.04815
LJ           1.91274         1.31874        0.477245
LJ          -2.34634        0.628926        0.558339
LJ         -0.173905        -1.24063       -0.219049
LJ          -2.46342        -0.69598        -2.44277
LJ          -1.29441        0.693379         1.30289
LJ              -nan            -nan            -nan
LJ          -1.26155         1.18252       -0.161345
LJ          0.463832        0.877972          2.1627
LJ         -0.426014       -0.529163         1.83614
LJ           -1.0983         1.97141        -2.37413
LJ          0.782147       -0.194221         1.13754
LJ           2.22464         1.10755         1.35927
LJ         -0.332925         2.15684       -0.221253
LJ          -2.02708       -0.541225        0.526934
LJ           2.45232        -1.90835        -2.46746
LJ          0.397056         2.44326         1.41658
LJ           1.96405          1.7933        -2.12759
LJ         -0.291701         2.05965        0.242107
LJ          0.991339        0.363106        -1.30936
LJ          0.852108        0.200437        0.546251
LJ           2.16376       -0.516137         1.67962
LJ           1.68837        -1.66501        -2.39105
LJ          0.306166         1.64894       -0.504192
LJ           2.16894        -1.36599        -0.42633
LJ          -1.44974         0.23475          1.5977
LJ         -0.430037        -2.55288        -1.44059
LJ         0.0525698       -0.855114         -2.5439
LJ          -1.88466        -1.97613        -2.15346
LJ         0.0918745         1.52508       -0.375071
LJ           2.10186        -1.66688         1.44121
LJ          0.546716        0.311611        -1.70467
LJ         -0.593218      -0.0421111       -0.258157
LJ            1.6709       -0.457175        0.776909
LJ         -0.579323        0.876629         2.53456
LJ           1.97574       -0.178309        -1.27668
LJ         -0.904971         1.30627       0.0300576
LJ         -0.922402        0.696298         2.46738
LJ          0.111859        -2.00175        -2.09819
LJ           1.98513        -1.22171        -2.45847
LJ           1.35385         2.23541        -1.58126
LJ          -2.04045         1.75122         1.46284
LJ         -0.214315        0.519846         1.95938
LJ         -0.332696         1.53317       -0.601561
LJ           1.10455         2.46702         1.90123
LJ           1.52427       -0.211766         -2.5029
LJ          -2.34497         1.20479        0.530314
LJ        -0.0413889        0.209679        -2.13743
LJ           2.10659        -1.40671        0.682433
LJ           2.35848         1.70762       -0.687288
LJ            1.3997        -1.95878        -2.28004
LJ           2.17854       -0.507307       -0.476113
LJ         -0.446224         2.12496        0.875262
LJ           1.22531        -2.51871       -0.605323
LJ          -2.16673         1.29177         1.62829
LJ           2.27103        0.381175         2.55222
LJ          0.782842          -2.135        -2.54407
LJ         -0.382599        -2.43958         1.79925
LJ            0.6513       -0.493846         2.27803
LJ           -1.1842       -0.402843        -0.52167
LJ           1.49975         2.31507         -0.5195
LJ          0.662614          1.0189        -2.54179
LJ           1.94291        0.261252        -1.53266
LJ         -0.680823        0.527687         2.07431
LJ          -2.23568        -1.51782        -1.65027
LJ         -0.607493       -0.713599       -0.409329
LJ           1.71429         1.63908        -2.38921
LJ        -0.0968258        -2.33797        -1.91325
LJ           2.31497        -2.11207       -0.339084
LJ          -2.11308        -1.74835        -2.55461
LJ           2.29137         2.23502        0.531057
LJ           1.46309         1.37423       0.0643594
LJ         -0.859533        0.934929       -0.926127
LJ         -0.202084         1.24855        0.086586
LJ          0.418334        0.490821        -1.12759
LJ           1.51306          1.9296         2.10661
LJ           2.02758        -1.24074         2.22385
LJ          0.335488         1.91094         1.18092
LJ            1.5447        -2.17388         1.40438
LJ          -2.33217        -2.21249         2.49083
LJ          0.331575        -2.50252         1.06054
LJ           2.33943         2.03661       -0.800199
