108
#Comment!
LJ           2.35184         1.83118        0.182407
LJ          0.252567        -1.36075       -0.867795
LJ          0.242922        -1.90605          0.2374
LJ           1.15314         2.24837         2.14958
LJ          -2.48788        -1.98723         2.41996
LJ          -1.69293       -0.578126       -0.705714
LJ          -1.83792         1.09561        -1.56047
LJ          0.428014         1.05318         2.11872
LJ          -1.42249         1.50367       -0.900157
LJ          0.146996        -2.06919        0.352594
LJ              -nan            -nan            -nan
LJ          -0.45826        -1.74864         1.57136
LJ           -1.8392        0.381424         1.81347
LJ         -0.606851        0.142228        0.181577
LJ         -0.058755        -1.50967        0.761089
LJ           2.03474         1.76053       0.0316869
LJ           2.50984       -0.675193        -2.01352
LJ         -0.612401         1.63266        -2.45678
LJ          0.809611       -0.997337         1.78617
LJ           2.10303        -2.22597         1.51237
LJ           1.22993        -1.31756        0.260689
LJ         -0.400251        0.726453         2.10609
LJ           1.39984         1.38487        0.728093
LJ          -2.54697         2.49513         2.56471
LJ          0.525701        0.272136         1.28768
LJ          -2.36016        0.481556       -0.700765
LJ          -1.70014       -0.397371        -2.46884
LJ         -0.188979        0.383177       -0.061754
LJ           1.69416         1.36733       -0.855427
LJ          -1.01457         1.85115       0.0609644
LJ         0.0227924        0.825489         1.41203
LJ          -1.62127           1.936         1.19979
LJ              -nan            -nan            -nan
LJ            1.3336         1.28066         1.01955
LJ          -1.79984        -0.38497        -2.10099
LJ          0.196295        -1.51205        -2.27154
LJ          -2.39301        0.555148       -0.505678
LJ           1.11684        -2.11032         1.58034
LJ         -0.731557       -0.671696       -0.772067
LJ         -0.104143        -1.41267       0.0645562
LJ          -2.54956         1.27984       -0.619878
LJ         -0.763838       -0.552756         2.26036
LJ          -1.95245        -2.29725       -0.405098
LJ           1.02831        0.253656         1.64235
LJ           2.29253         2.52742         1.31749
LJ         -0.183546        -1.02909        -1.95612
LJ          -2.41392          1.4264         1.47476
LJ          -1.15917        -1.88591        -2.28999
LJ           1.16614         1.23932        0.739381
LJ          -2.32445         2.23128        0.868692
LJ          0.288686        0.800371        -1.73909
LJ          0.860923        -2.22495        0.688708
LJ          -1.98861       -0.897956         2.19594
LJ           1.05821        0.345865        0.322983
LJ          0.274699          1.1316        -0.75148
LJ          -1.69254         -0.8795         1.67485
LJ           2.22304         1.51842         1.63034
LJ          -2.15699       -0.670206        -2.25013
LJ          -0.72549       -0.313109       -0.630811
LJ         0.0829472         2.25227        -1.49913
LJ           1.60737        0.732876       -0.214241
LJ           1.12935         -1.2901         2.49357
LJ           1.04162        -1.12156       0.0570495
LJ          0.694674        -2.37393       -0.505049
LJ          -1.46009        -0.70861       -0.759887
LJ           -1.4126         1.40493         1.08365
LJ          0.104482        -1.24347        0.967215
LJ          -2.14182       -0.398289        -2.43466
LJ           0.39234         -1.4954       -0.473319
LJ           2.25632         1.41769         2.28118
LJ         -0.760088        -2.38528         2.42815
LJ           2.54822         0.41467         -2.2515
LJ          -1.41183         1.99877        0.136026
LJ          -1.39484        0.505477        0.649957
LJ        -0.0170542       -0.940456        0.397326
LJ          0.835563         0.39613         1.91557
LJ       -0.00848124         1.50565        -2.26003
LJ           2.35949     -0.00888805        0.749687
LJ          0.288071       -0.193628        0.858404
LJ          -1.94587        -1.72446       -0.876607
LJ          -1.38232        -2.38988        0.088904
LJ          -2.38663       0.0292999        0.769508
LJ         -0.488972        0.580223        0.229291
LJ           1.63047        -1.82398        -1.78193
LJ          -2.22029        -1.82296        -1.97829
LJ          0.395463         2.03196      -0.0237952
LJ          -2.19511        0.680716      -0.0498793
LJ          -2.21419        -1.77838         1.02218
LJ           0.40499         1.49075        0.636281
LJ          -1.94951         1.93864       -0.460052
LJ         -0.672215         1.73041        -2.29105
LJ          -2.44344         2.19288         2.19285
LJ          -2.44433         2.10146        -2.25836
LJ          -1.73463        -2.04106        0.303601
LJ          0.139241       -0.767621       -0.589423
LJ         -0.117148         1.32892       -0.654119
LJ         -0.247248         1.76769        0.679287
LJ            2.4197        -2.52986          1.5667
LJ           -1.0774        -1.84898         2.04924
LJ            2.4706         1.61928        0.434401
LJ           -1.3125         2.04966        0.980674
LJ         -0.467888       -0.756479         1.08355
LJ          -2.46283         2.23685         -2.3712
LJ          -1.78114         0.69201       -0.171186
LJ          -1.46518         2.22566        -1.77249
LJ         -0.676563        -2.11454         1.42816
LJ           2.02662        -2.00731       -0.810842
LJ          -1.45275          2.3703         2.19544
