108
#Comment!
LJ           1.11221         1.82749        -2.21305
LJ           2.39849       -0.282371       -0.675242
LJ           2.35442        -1.19098          1.1515
LJ           2.12912       -0.462283         2.38125
LJ          0.794766        -0.57596        -2.39408
LJ           1.81302        0.218357        -1.24652
LJ          -2.12121         1.00199       -0.135108
LJ          0.109598      0.00996877         2.51131
LJ          -1.10374         -1.6743      -0.0411984
LJ           1.92979        -2.05011       -0.463387
LJ              -nan            -nan            -nan
LJ          -1.94363         1.56891         1.64009
LJ          0.120297         -2.2751         1.31804
LJ              -nan            -nan            -nan
LJ          -1.33518        -1.44238       -0.268302
LJ              -nan            -nan            -nan
LJ              -nan            -nan            -nan
LJ              -nan            -nan            -nan
LJ          -2.13241        0.949109         2.39395
LJ              -nan            -nan            -nan
LJ          -2.52189        -2.08143        -1.38134
LJ            -1.636       -0.258969        0.458965
LJ          -1.85731        -1.44553         1.41617
LJ           2.14115        -2.38735       -0.956741
LJ          -2.02843       -0.906101        -1.17127
LJ          0.198532         0.38007         2.37621
LJ          -1.87827        -1.80344        -1.02176
LJ           1.23145         2.22438         2.53585
LJ          0.552323         1.39831          1.8749
LJ         -0.306333        0.603957        0.929157
LJ              -nan            -nan            -nan
LJ           2.48783         2.42439         -2.5397
LJ              -nan            -nan            -nan
LJ          -1.05829        -1.62542         2.39382
LJ              -nan            -nan            -nan
LJ         -0.335625         1.67526        0.737442
LJ          0.557202        0.820282         0.79801
LJ        -0.0174666        -1.08227        -2.24635
LJ            1.0266        -1.30829         0.93092
LJ           1.35498        -1.99282       -0.914082
LJ          -1.26701        -2.16436         1.52416
LJ           0.58969       -0.824804        0.456412
LJ          -2.26368        0.401614        0.791644
LJ         -0.591658       -0.289696        -2.42008
LJ            1.5559         1.46426          2.0513
LJ          0.660325       -0.434948       -0.595815
LJ          0.313943       -0.675161       0.0822055
LJ          -1.62069       -0.114549         -1.6122
LJ         -0.997656        -1.10082        -1.95683
LJ          0.819841        -1.12689         -1.0651
LJ          -1.23458         2.26528         2.21031
LJ         -0.976012        -1.33194         1.68646
LJ              -nan            -nan            -nan
LJ         -0.296143        0.873257         1.67653
LJ          0.852314        0.164572         1.61896
LJ           1.65816         -1.2765         1.54509
LJ          -0.55817       -0.258155        -1.31209
LJ          -2.51918         1.29854        -1.93675
LJ         -0.092988        -2.18189         1.42567
LJ          0.764409         2.12101        -2.12532
LJ           1.99958        -2.01452        -1.65797
LJ           1.10799         1.82088        0.661114
LJ          -1.76746         -2.2776       0.0608185
LJ          -2.41976       -0.950208        -1.39622
LJ              -nan            -nan            -nan
LJ           2.07751        0.558445        0.446508
LJ         -0.647655       -0.433159         2.50563
LJ              -nan            -nan            -nan
LJ          -1.08699         2.53206        0.885009
LJ          -2.53866        -2.49949          1.7903
LJ          -2.34637        0.131392        0.198112
LJ          0.697684        0.340579        -2.48108
LJ         -0.459607        0.156075         2.33212
LJ           1.48811        -0.64232        0.161557
LJ           2.24467        -1.58197        -2.53809
LJ         -0.334132        0.452454        -1.59999
LJ          -1.66106         2.53314         1.51787
LJ         -0.494804        -2.37909        0.419438
LJ          -1.14054         1.70513       0.0252684
LJ           1.97943        -1.92304        -1.06373
LJ          -1.73263         2.55904       -0.792018
LJ         -0.475486        -1.10384       -0.338803
LJ          -1.46529       0.0820757        -1.48856
LJ          0.954698       -0.545261       -0.013269
LJ         0.0861533        0.740256        0.914743
LJ           2.23378        0.738072       -0.948733
LJ         -0.599121         2.51366        0.237698
LJ           2.55765        -2.53045         2.31598
LJ          -2.15906       -0.296432       -0.129262
LJ          -1.16787         2.33399        0.239749
LJ              -nan            -nan            -nan
LJ           1.26693         1.25645         1.46693
LJ          -2.56089       -0.823291         2.15727
LJ           1.60262        0.673078        -1.03736
LJ           1.83577        -1.09892       -0.467303
LJ         -0.877361         1.00918        -2.22011
LJ          -2.55205         1.95606         1.65896
LJ          0.153154        -2.16582        0.244592
LJ              -nan            -nan            -nan
LJ           2.02723       -0.249346        -2.40801
LJ           2.04775         1.58435        -2.06381
LJ          -2.21941        -1.55042         1.75334
LJ          0.555823         1.85031        0.955325
LJ           1.92284          2.5544         1.73627
LJ              -nan            -nan            -nan
LJ          -1.11248         1.27096         1.34683
LJ          0.928656        -1.02758        0.930103
LJ              -nan            -nan            -nan
