108
#Comment!
LJ         -0.242443         2.52518        0.685229
LJ         -0.780393         1.42018        -1.47129
LJ           2.24274      -0.0496955         0.77162
LJ          0.869009         1.14719         1.54549
LJ          -1.92249        0.940135       -0.836448
LJ          0.976176        -1.26715        0.590816
LJ         -0.630801        -2.53389        -1.22914
LJ          -1.11203        -1.22518        -1.01454
LJ           1.30257         1.76166       -0.655397
LJ         -0.834171        -2.54078         2.45732
LJ              -nan            -nan            -nan
LJ         0.0297756       -0.692522        0.278135
LJ         -0.719117          2.2907       -0.237406
LJ         -0.628812         1.04717        -2.29276
LJ         -0.378112        -1.30868         2.02256
LJ           2.50337         2.26621        -1.58899
LJ              -nan            -nan            -nan
LJ              -nan            -nan            -nan
LJ          -2.23212        -2.28742        -1.39317
LJ              -nan            -nan            -nan
LJ           -0.1427         1.97021        -2.15021
LJ         -0.145299        -2.38683         -1.1158
LJ           1.22737         1.95961         1.92905
LJ         -0.411936         2.04067        -2.49732
LJ          -1.18499        -1.64505       -0.714227
LJ         -0.804398        -2.43623       -0.583805
LJ            1.4702       -0.820975        0.366976
LJ         -0.442021        -2.40597       -0.554799
LJ           1.33201       -0.993908         -2.2663
LJ         -0.840917        -2.29444          1.6557
LJ           1.05758         1.86676        0.649025
LJ         -0.252196        -1.93052        0.231309
LJ              -nan            -nan            -nan
LJ         -0.847226        -1.74993         1.40408
LJ              -nan            -nan            -nan
LJ          -1.40213         1.86936        -1.61754
LJ            2.1329       0.0958154        -1.17973
LJ         -0.129455        -1.51173        0.411044
LJ           1.06169         2.17071       -0.336306
LJ           -1.9035         1.37529      -0.0376977
LJ          0.802634        -1.98787         2.37417
LJ          0.438831        -2.38838        -2.18792
LJ          0.501662        -1.10857        -1.92097
LJ         -0.354114        0.346104        -1.77331
LJ           2.34846        -2.38002         -1.7324
LJ          -2.45541        -1.02452         2.36992
LJ          -1.06889         -2.1865        0.200925
LJ           1.91037        -0.84281         1.71898
LJ          0.990477          -2.352        -2.33023
LJ          -1.51101         1.56122         1.62825
LJ           -2.0744         2.23445        -1.07608
LJ          0.360312         2.23594        0.495361
LJ              -nan            -nan            -nan
LJ           1.72918        -2.03696        -1.12931
LJ          0.510321         1.58976         2.22871
LJ          0.991149        0.625545        0.858133
LJ          -1.90952        -2.02164           2.325
LJ            2.2617     -0.00581034        0.989171
LJ           2.39494         1.63903         2.28534
LJ           2.55656         1.92439        0.899945
LJ        -0.0695287         2.01133         1.90182
LJ           1.79762       -0.529659         1.09744
LJ           2.55397         1.88395        -1.07394
LJ           1.60989        -2.32675         2.44089
LJ           2.39643        -1.39903        0.825058
LJ           1.83024        0.125936        0.150124
LJ          -0.12464         1.32754        -1.78133
LJ              -nan            -nan            -nan
LJ          0.576037       -0.211187         0.90343
LJ          -2.06425         1.48956        -1.83338
LJ         0.0600839         2.50031        -1.58058
LJ          -2.10196        -1.45287        0.350846
LJ           1.85059         -1.8531         2.26337
LJ          -2.54939        -1.19149        -1.35768
LJ          -1.57453        -1.22862        -1.30316
LJ        -0.0643406        -1.46675        -2.33122
LJ          0.593939        -1.60462        0.227757
LJ           1.16345          2.4887        0.768588
LJ           2.10384        -2.54054          1.8149
LJ           1.21187         1.37648         1.44914
LJ           -1.9891        -1.23275         2.18824
LJ         -0.805808        -1.94243        -1.91721
LJ          0.764365       -0.690759        -1.41234
LJ          -2.55195        0.616602        0.538184
LJ          -1.48003       -0.169083        0.550102
LJ         -0.509794        -1.13803       -0.692377
LJ         -0.991403        -1.90376       -0.620923
LJ          -2.09021         -1.8696        -1.55156
LJ         -0.439269         1.51765         2.08813
LJ          0.859459         1.86792        0.482738
LJ              -nan            -nan            -nan
LJ          0.935964         0.62778         1.60382
LJ          0.392676        -1.30562       -0.281163
LJ          -1.33744        -2.31361        0.851957
LJ         -0.070363        0.438855        -1.34949
LJ          -1.84078        0.463048         1.93235
LJ          -1.29465         1.36912         1.67562
LJ           2.19288       -0.391805        0.361099
LJ           1.13296        -1.65418        0.178483
LJ         -0.361399     -0.00749233         1.69275
LJ          -2.36017         1.50438        0.546078
LJ          0.850001        0.670502       -0.586779
LJ          -1.52162         2.56405         1.87836
LJ           -1.8342        0.232647        -1.46991
LJ           1.50266        -2.20975         1.22956
LJ         -0.853982        -1.35843        -2.35902
LJ           1.67775        0.289805       -0.562634
LJ              -nan            -nan            -nan
