108
#Comment!
LJ         -0.827088      -0.0508128        -1.64691
LJ          -2.16773         2.30459       0.0554494
LJ          0.209558        0.318195         1.84779
LJ           2.48279        -0.25746        0.261783
LJ          0.848439       -0.731843       -0.681016
LJ           1.64311       -0.236809         2.41912
LJ           1.31992         1.52605       0.0632536
LJ          -1.63096        0.998296        -2.14631
LJ          0.596257        -2.35043       -0.982359
LJ          -2.21124       -0.249893        -2.26601
LJ              -nan            -nan            -nan
LJ           2.11422        -1.40863         1.29418
LJ           1.95704         1.91469       0.0240142
LJ            1.0195        0.856183         2.11561
LJ            1.1134        0.843937        -2.51145
LJ           1.39373         1.95204          1.6347
LJ          -1.19282        -1.26522      0.00898832
LJ          -1.87886         2.24559        -1.98469
LJ         -0.721208         1.71155        -2.11568
LJ           2.24418         1.89093         0.22556
LJ           2.38237         2.04806         -2.1798
LJ           1.29205         0.62851         2.25238
LJ          -2.43493        -1.88402        -2.33771
LJ          -1.80921        0.656974       -0.553828
LJ           1.12423         1.68014         2.47725
LJ           -1.8562         1.66316        -1.46591
LJ           1.31586       -0.110998         1.24084
LJ           1.41236        0.355209         1.96458
LJ         -0.640069       -0.660444       0.0673546
LJ           1.70855        -2.25555        0.571604
LJ          0.353751       -0.793007        0.892864
LJ          0.712124        -1.16254       -0.547188
LJ              -nan            -nan            -nan
LJ          0.457334         -1.3156       -0.905497
LJ         -0.807099        -2.00436        -2.51442
LJ          -1.18062        -1.15705        -2.53456
LJ           2.46454          1.7161        -2.48898
LJ           1.93462       -0.585777        -1.47383
LJ         -0.989695         1.48162         2.08828
LJ          -2.49925       -0.644925          -1.542
LJ          0.859417        0.874546       -0.835053
LJ           -2.0178       -0.207967       -0.352821
LJ            0.1837       -0.309812        0.587473
LJ         -0.235104       -0.912199        0.749022
LJ           -2.0378       0.0501215        -1.49985
LJ          -1.54582         1.46978        -2.15468
LJ           2.37549         0.81216        0.503676
LJ          0.039663         2.25139       -0.174413
LJ           2.02741         1.17094        -1.02435
LJ         -0.639623          1.6301        0.483694
LJ         -0.435554        0.915194        -1.25157
LJ          -0.76848        -0.36342         0.23781
LJ           -1.4239        -1.94983        0.203686
LJ          -2.53665       -0.758378      -0.0475249
LJ           1.91326         0.75996        -1.56975
LJ          0.503947          1.4931        -1.34546
LJ           1.24248         1.44775         1.93186
LJ           2.03522       -0.112986       -0.817855
LJ           1.31047       -0.886539        -2.53301
LJ          -1.64699       -0.978854        -2.09436
LJ          -1.03343       -0.116129         2.05595
LJ           1.71729        0.166252        -2.25855
LJ           1.61144         1.69991       -0.381633
LJ          0.454834        -2.01959        -2.39727
LJ         -0.561113        0.180387         1.55315
LJ           1.84562         1.51379         2.23217
LJ           1.63407        -1.65674        0.754191
LJ          -1.32998       -0.429561          2.0033
LJ          -2.17637         0.71378         1.86441
LJ          -2.55379         2.06292        0.683031
LJ          0.808231         1.67314           1.615
LJ           1.25799       -0.627387         2.32285
LJ         -0.672686         2.33058        0.965559
LJ        -0.0457854       -0.377731       -0.593418
LJ           2.10056        -1.32415       -0.242791
LJ           2.49712       -0.083909        -2.18148
LJ           1.44627        -1.46232        0.963418
LJ          -1.69526         1.42527        0.877241
LJ           1.38771        0.307045        0.587381
LJ         -0.861048         1.86758        -1.93658
LJ           1.54446        -1.44933        -1.39372
LJ         0.0572607         2.28641         -2.4665
LJ          0.666086        -1.61172        -1.64218
LJ          0.460519       -0.385062         2.04708
LJ          -1.22257        -1.64578        -2.43014
LJ         -0.260222         1.18963         0.82557
LJ          -2.30823        -2.03962          1.3912
LJ           2.36892        -1.32047        -2.06321
LJ          0.894514         1.31089       -0.952635
LJ           1.99751       -0.864967         1.82535
LJ         -0.911879         1.05785         1.44913
LJ         -0.287244       -0.253629        0.204005
LJ          -2.44148        0.156343        -2.52192
LJ         -0.167327        -2.34225         -2.1058
LJ         -0.695638         2.13327         -1.7407
LJ           0.19247        0.141315        0.993028
LJ           2.54445        0.679294        -1.42599
LJ         0.0078757       -0.763485         1.40366
LJ          -1.93403         1.85837         2.40544
LJ         -0.525117         1.30278         1.33301
LJ         -0.593455        -1.43677        -1.13634
LJ         -0.212955        -1.73556        -1.35975
LJ         -0.146152       -0.786286         2.18663
LJ          0.628588        -1.87334         0.76444
LJ          -1.68364         1.74391        0.905505
LJ           1.85172        -1.65264        -1.34244
LJ          -1.91281        -1.57831        -1.53934
LJ          0.312026         -1.4438        -2.23412
