108
#Comment!
LJ          0.756491       -0.469066        -1.68342
LJ          -1.53461       -0.312399        0.218431
LJ          -1.30654         2.32389       0.0992603
LJ          -1.76627        -2.30313        -1.17729
LJ          -1.54033        0.322708        -2.16441
LJ          -1.82895       -0.916762       -0.548868
LJ          -2.11589        -1.63784         1.53108
LJ         -0.148253      -0.0100112        0.585394
LJ           2.14632         0.95553        -1.24125
LJ          -1.38508        -1.01307         1.99072
LJ              -nan            -nan            -nan
LJ           1.89057         1.02585       -0.959062
LJ          -1.20177         2.37053        -1.12411
LJ              -nan            -nan            -nan
LJ           1.23221        0.209403         1.81292
LJ              -nan            -nan            -nan
LJ              -nan            -nan            -nan
LJ              -nan            -nan            -nan
LJ            1.5631        -2.22496        0.825155
LJ              -nan            -nan            -nan
LJ         -0.593559        -1.13974        -2.46341
LJ          -1.10404        -2.17907        -1.08549
LJ          -1.98935       -0.609848        -2.44124
LJ              -nan            -nan            -nan
LJ         -0.711045        -2.15778         2.01571
LJ          -1.04235        0.549795        0.470926
LJ           2.26117        -1.31248        -2.46994
LJ           0.74026       -0.785246        -1.28376
LJ          0.812398        -2.35079        -0.64813
LJ          -1.50723        -2.55393         2.45697
LJ              -nan            -nan            -nan
LJ           2.25081       -0.578326        -0.21613
LJ              -nan            -nan            -nan
LJ          -2.42999       -0.958619        0.742258
LJ              -nan            -nan            -nan
LJ           1.42241        -1.87757         1.31641
LJ          -1.73462       -0.865366          -1.346
LJ         0.0394393        0.410619        -1.33482
LJ         -0.381159        -1.82142        0.873979
LJ           1.32001        0.125659         1.57556
LJ          -1.34159       -0.847029       0.0385364
LJ           2.38117         2.31163        -2.40642
LJ           2.25974       -0.338158        -2.13185
LJ         -0.652915         2.26866       0.0357981
LJ           2.34512         2.05227         2.04363
LJ          -1.72141        -1.77874       -0.971198
LJ         -0.762283         1.50511         -1.6841
LJ          0.758604        0.913803         2.22242
LJ          -1.76062        0.333312       0.0236844
LJ           1.51057        -1.43907          1.0523
LJ         -0.389459         1.89303        -1.69856
LJ         -0.227392         2.32758        -2.46225
LJ              -nan            -nan            -nan
LJ          0.544357          1.7879         1.31074
LJ          -2.27017         1.43285       -0.376201
LJ          0.323095        0.025024        -1.89831
LJ         -0.734243        0.629608       -0.903686
LJ          -2.33743    -0.000540273        0.897339
LJ              0.31       0.0382585         2.18483
LJ         -0.697541       -0.875387        0.919486
LJ        -0.0180843         1.56989         2.39664
LJ         -0.773929       -0.854585        0.434239
LJ           2.06055         1.19492        0.623147
LJ              -nan            -nan            -nan
LJ              -nan            -nan            -nan
LJ           0.44374         0.54531       -0.426273
LJ           2.54019        -1.73617       -0.276163
LJ              -nan            -nan            -nan
LJ          -2.49065        -2.37763       -0.851631
LJ           2.11182          1.4782         2.19667
LJ          -1.25802        -2.19343        -1.64451
LJ           1.05846         2.45862        0.106925
LJ           -1.5931         1.17187        0.686101
LJ          0.826629        -1.29412         2.00398
LJ          -2.14768         1.82207        -1.32006
LJ         -0.368935        0.633582        -1.21551
LJ             1.766         2.22378         1.13734
LJ           2.13506         1.63229        0.070621
LJ            1.0201        -2.14162         0.88046
LJ           0.12216        -1.17954        -2.45865
LJ         -0.956716        -1.54811        -1.46333
LJ         -0.164792        -2.28591        -1.78627
LJ          -2.30312         2.40089         1.65403
LJ           1.75841        -1.64696        -1.17315
LJ         -0.981098       -0.112696         2.44189
LJ         -0.630354        0.648636         1.15584
LJ          -2.04142        -1.06374       -0.143757
LJ           2.47347        -2.38468       -0.699415
LJ         -0.573889         2.31351       -0.791696
LJ          -1.99689         1.64096        -2.10749
LJ              -nan            -nan            -nan
LJ          -0.27227      -0.0355878        0.536057
LJ           1.83041        0.450452        -0.44722
LJ        -0.0162323         2.23972        0.293107
LJ           2.27959       -0.193715        -2.22485
LJ          -1.36477       -0.871254         1.16774
LJ           2.45553        -1.47316        0.721267
LJ           1.30114      -0.0232762        0.531787
LJ              -nan            -nan            -nan
LJ            -1.308         1.03668       -0.690265
LJ         0.0561592          1.7336         2.00678
LJ          -1.90486        -0.51204         2.40161
LJ          -2.11045        -1.85983     -0.00824305
LJ          -2.11862         1.16218        -1.44786
LJ              -nan            -nan            -nan
LJ           -1.9154        -1.81067        -0.69259
LJ           1.48587         2.03109       0.0183785
LJ              -nan            -nan            -nan
