108
#Comment!
LJ          -2.30467        -1.22531        -1.40779
LJ         -0.741917       -0.735442        -1.93854
LJ          0.701858         -0.2612         0.42246
LJ          -1.45511       -0.661975        -2.07563
LJ          -2.52768         0.46289       -0.125378
LJ         -0.960323          1.2854       -0.264417
LJ         0.0266871        -1.99941         1.83867
LJ          -2.52124       0.0620862         1.51496
LJ           -2.1857       -0.027418        0.851829
LJ          -1.93006        -1.04039        -2.22219
LJ              -nan            -nan            -nan
LJ          0.999498         0.88291         2.18709
LJ         -0.199198         2.48491        -2.11507
LJ          -1.58496         1.69913       -0.261847
LJ           2.26341         1.29982        0.354371
LJ         -0.550056        0.895268       -0.602594
LJ          -1.37793       -0.863302         1.76264
LJ           1.47058         1.49707       -0.453149
LJ          -1.35885         0.41908         2.09449
LJ          -1.31687        -1.22667        0.330798
LJ          -0.68972       -0.496761         -1.8013
LJ          0.820044         -2.1682       -0.452398
LJ          0.697435        -2.12323        0.357955
LJ           1.36337        -2.53313        -1.88098
LJ           2.54981        -1.49469        -1.98335
LJ          0.165697       -0.821169        -0.38403
LJ         -0.855286        -1.83363         1.08578
LJ         -0.158668        0.858334        -1.66188
LJ         0.0364723        -2.56146        0.655375
LJ           2.05701       -0.753196        -1.73735
LJ           2.49537        -1.04168       -0.361238
LJ          -2.40655        -1.21298        -1.53008
LJ              -nan            -nan            -nan
LJ            1.6987       -0.926649         -1.5335
LJ              -nan            -nan            -nan
LJ           1.04491        -1.25741        -2.24072
LJ          -1.44334       -0.590324        -1.90268
LJ           1.23408        -1.57331          2.5501
LJ        -0.0948073         1.04347         2.25912
LJ         -0.393905        0.751608        0.221424
LJ          0.997435        -2.07107        0.340938
LJ           1.02265        0.236284         1.34025
LJ           1.59777         -1.4082        -1.73166
LJ          0.338107        0.662163         1.86345
LJ        0.00354101       -0.467116         1.89565
LJ           1.89295        -1.97008       -0.347869
LJ           2.01737         0.81721        -1.18655
LJ           1.77862        -1.78631        0.638873
LJ            2.2715        0.757979         1.03102
LJ         -0.790067        -1.36459        -2.07955
LJ          -1.46823        -1.44238        -1.85168
LJ          -1.57821        0.358311         1.32314
LJ           0.23185         1.57794         2.14157
LJ          -1.99227         1.60528        -1.87551
LJ          0.678497       -0.454664          1.5578
LJ           1.59555         1.89587         1.10179
LJ          0.897633        -1.08135       -0.790127
LJ          0.113257       -0.992279         1.69381
LJ          0.478104         1.75937        -2.40272
LJ          -1.66821       -0.181106        -1.66172
LJ          -1.97362        -1.34676         1.34109
LJ        -0.0302739         -1.6473         1.57933
LJ           2.47484       -0.712834        0.635219
LJ           1.59307        0.261403       -0.732443
LJ          -2.39646        0.241188       -0.171297
LJ           1.12232        -1.09163       -0.491751
LJ            1.4164        -1.51611         0.39012
LJ              -nan            -nan            -nan
LJ           1.06942       -0.298147        0.123536
LJ           2.23095        -1.71616      -0.0674879
LJ           1.46811         -1.7647         -1.2368
LJ           1.86211        0.853505       -0.873532
LJ          -1.59516         2.40304         1.37667
LJ          -1.83492         1.74906       -0.259459
LJ          -1.22129        -2.37209         1.13633
LJ          -1.69578         1.32694        -1.89466
LJ         -0.865012         2.28608        0.841172
LJ          -1.60227        -1.79931        -1.65416
LJ           1.90239        -1.33519        0.592879
LJ         -0.978026         1.39265        -2.20654
LJ          -1.74234       -0.114653        0.142408
LJ           1.69377        -1.34252        -2.22683
LJ          -1.39222         2.00264        0.454512
LJ         -0.589643        -1.61039        -0.56356
LJ          -2.54875        -2.01107         1.66152
LJ          0.892597        0.136873         1.83362
LJ           2.18325        0.205285         1.32545
LJ           -2.5038        -2.12482       -0.122486
LJ         -0.747282        -1.75132         2.52793
LJ          -1.41081        -1.67714       -0.870274
LJ         -0.642828     -0.00770884       -0.783781
LJ         -0.687906        -1.68062        0.633576
LJ          -1.55251        0.723217       -0.850995
LJ           2.39051        -2.14846         -2.4334
LJ          -1.40502         1.16025        -2.05339
LJ          -2.26512       -0.843445        -1.95246
LJ         -0.127402        0.201565        0.972667
LJ          0.447988           2.526       -0.721612
LJ          0.295078        0.131336        -1.60963
LJ          0.197563        -1.57616         1.95623
LJ          0.250041        -1.17294        0.975495
LJ           2.50082         1.40598       -0.375708
LJ          -1.19574        0.335194        -2.41131
LJ           1.18881        -1.26725         -1.0699
LJ          -1.01089        0.948346       -0.481811
LJ          0.942469        -1.87093         1.72126
LJ          0.702656      -0.0474217         1.24725
LJ          -1.58245         2.54098        -2.12894
