108
#Comment!
LJ           1.15542       -0.171703         1.64039
LJ           2.24872         1.09364        -1.32821
LJ          -0.56917         1.15204         2.19828
LJ           1.11263         2.37462         0.43814
LJ          0.275752         -1.9707        0.351415
LJ         -0.223365         2.01343         2.30873
LJ          0.186613        0.518418        0.770453
LJ          -2.23553       -0.679828        -1.59775
LJ          0.575136         2.17493        -1.97674
LJ           1.65703        -1.49337         2.01398
LJ              -nan            -nan            -nan
LJ           -1.1137        -2.27438        -1.34949
LJ          0.901466         2.39719        -1.45648
LJ           1.37625         1.94147        -1.80549
LJ          -1.53642        0.749658        0.854141
LJ         -0.766582        -1.23441        0.909367
LJ          0.203261        0.606303        0.562526
LJ          -1.12158         2.31422         1.34872
LJ          -1.57839        0.100575       -0.790254
LJ          -1.91163        -2.39406        0.956878
LJ           2.53127       -0.829576        -1.61071
LJ            1.5082         2.07922         2.51047
LJ           1.84901       -0.433381       0.0610238
LJ           0.10042       -0.583394        -1.02411
LJ           1.06476          1.1793         2.26264
LJ         -0.747377       -0.484404         1.90774
LJ           1.36493       -0.672832         1.62245
LJ         -0.413032        -1.56155       -0.812855
LJ           2.05363        -1.51724         1.57148
LJ          -1.84031      -0.0807195        -2.27276
LJ          -1.35882       -0.759366        0.329343
LJ          0.874456        -1.15779         1.36859
LJ              -nan            -nan            -nan
LJ           -1.9299        -2.41541         1.38949
LJ          0.665106        -2.14029         1.42069
LJ          -2.32379         1.36538        -1.25383
LJ          -1.59986       -0.719264        -1.61683
LJ           -2.2034        -1.22638        -1.17291
LJ          0.463614         1.42289       -0.206524
LJ           2.43889         2.14367        -0.85834
LJ          -1.68492        0.730385         2.14729
LJ           2.43037        -2.27366         1.56388
LJ           1.39473        -0.96474         1.68156
LJ         -0.291943        0.262289         1.45871
LJ           1.93786         2.24452          2.4945
LJ          0.235814         2.11536        -2.00707
LJ          0.881104        0.811983         1.55631
LJ           1.15741         1.35621         1.42255
LJ           -1.9572         -1.7301        -1.71569
LJ           -1.2335        -1.93035        -1.90573
LJ         -0.432979         2.31235        -1.66761
LJ          0.783781        -1.49307         1.14053
LJ          -2.43626        -2.51288       -0.765712
LJ          -2.30903         2.53373        -1.89766
LJ          -1.55534       0.0319431        0.669973
LJ          -1.45473       -0.923326         1.84799
LJ          0.542973          1.2564        -1.88742
LJ         -0.311198        -2.36556        0.042134
LJ           -2.5027         1.97647         2.10675
LJ          -2.15573         1.73329         1.56601
LJ          -1.97888       -0.156759        -1.01481
LJ           1.76795        -1.23489           2.173
LJ           0.61803        0.876899         -1.9005
LJ           2.11759         1.93119       -0.858196
LJ           1.54592        -1.37068        0.241832
LJ           2.10849         1.92875      -0.0403054
LJ           1.95242         2.17234         1.67473
LJ         0.0929703       -0.413328       -0.920763
LJ           1.60703         1.59249        0.358256
LJ          0.278093        -2.45942         2.01942
LJ          -1.58123       -0.396537        0.588314
LJ         -0.952069       -0.946462       -0.191772
LJ          -2.06243      -0.0820473       -0.770495
LJ           2.46331       -0.873166          1.9325
LJ          -1.04311        -0.65132       -0.829718
LJ          -2.50135         0.76064       -0.279383
LJ           2.29464        0.326032       -0.366395
LJ          -0.34532        -1.59909         1.59416
LJ           2.51278         2.03636       -0.924548
LJ           0.43107         2.20951         2.53482
LJ           1.36488         1.40223        -2.29368
LJ          -1.52369         2.13635         1.63586
LJ          -1.89849         1.25365        0.825119
LJ         -0.488831       -0.585996        -2.20891
LJ           1.85911       -0.941288         0.58538
LJ           2.53218        -1.21636        0.707691
LJ         -0.529663        0.971169        0.301623
LJ          -2.29495         2.27573        -1.40168
LJ         -0.667544         1.34308        -1.66054
LJ           1.02863        0.809795         1.00882
LJ          0.749227        0.861711        -2.48231
LJ          -0.22187        -2.41722        0.122646
LJ         -0.188879      -0.0970554         2.44953
LJ          -0.43858         2.07806       -0.150461
LJ          0.539097        -1.29432         -1.5067
LJ         -0.872061         2.29237        -2.15143
LJ           2.33535        -1.51076         2.02304
LJ         0.0591447        -2.42326        -1.09892
LJ           2.26654        -1.33797         2.51198
LJ         -0.646305        -2.34417         2.44819
LJ         -0.935691        0.942644        -1.03781
LJ           1.68791        -2.01929        -2.41187
LJ           1.29233        0.206228       -0.994793
LJ          -2.45331       -0.663335        0.887296
LJ           2.28497         1.58158        0.255344
LJ          -1.32396        -0.25398         2.17008
LJ          -1.53305        0.761048         1.25179
LJ          0.821913       -0.266601       -0.319533
