108
#Comment!
LJ          0.836123         2.23342         1.24681
LJ          0.210007       0.0108055         1.00366
LJ          0.915209        0.102086       -0.165383
LJ           2.27778         2.11718        -2.15771
LJ          -1.05378       -0.441634         1.14171
LJ          -1.28714         2.46102        -1.02338
LJ           0.36261         1.98876        -2.14539
LJ          0.436469         1.57536         2.24344
LJ          -1.47788        -2.22972        0.999202
LJ           1.16458        -2.05618        0.852777
LJ              -nan            -nan            -nan
LJ         -0.645933         1.20748        0.129166
LJ          0.866851        0.887724        -1.73295
LJ          -2.51533         1.38313        -1.98388
LJ          -1.96034        0.154035         2.12834
LJ              -nan            -nan            -nan
LJ              -nan            -nan            -nan
LJ              -nan            -nan            -nan
LJ         -0.765414          2.3918         1.75072
LJ              -nan            -nan            -nan
LJ           2.44444        0.991096         2.07421
LJ          0.392843         2.16578        -1.92249
LJ           1.99338         2.18388        -1.85092
LJ         -0.803072        -1.62559        -2.06615
LJ           -1.7762       -0.421766         0.51728
LJ          0.841288          1.8005        -2.05422
LJ           1.10149        0.999168       -0.861261
LJ            1.4519       -0.438713         0.25987
LJ           2.55304         0.29051       -0.901671
LJ           1.21368         2.25023        -1.75751
LJ            1.2884        0.206985         1.02458
LJ          0.520507       -0.822716          2.0651
LJ              -nan            -nan            -nan
LJ          -1.02752         2.46568         1.55104
LJ              -nan            -nan            -nan
LJ          0.822254         1.18087         2.14122
LJ          0.738776        -1.22946          -1.305
LJ           2.33653       -0.326167        -2.17027
LJ          0.847573         1.29361         -1.5636
LJ          0.715317         1.55783        0.449786
LJ          0.946129        0.867527         2.10198
LJ          -1.49463        -2.24604         -1.1983
LJ         -0.995224         1.55979        0.309168
LJ         -0.796819         1.42801       -0.486697
LJ           1.97441        0.414917         2.18731
LJ         -0.724155        -1.31018        0.508006
LJ         -0.815672         1.46428         2.29849
LJ           2.50982         0.50233       -0.185149
LJ           2.04633         2.03631         1.39319
LJ           1.20571       0.0547718        -1.20719
LJ            1.9648         1.33274        -2.09607
LJ         -0.808548         1.92732       -0.939276
LJ              -nan            -nan            -nan
LJ             1.593         2.42554       0.0373177
LJ          -0.67521        -2.00189       -0.489942
LJ          -1.60154         1.62663         1.80341
LJ         -0.567274         1.18797       -0.456527
LJ           2.23701        -1.76842        0.627101
LJ          -2.45571        -1.74785       -0.322262
LJ          -1.92264         2.46133        -2.24988
LJ         -0.545951         1.44612        -1.66095
LJ           1.57644         1.49249       -0.872973
LJ         -0.230857         1.79177         1.05583
LJ         -0.567303       -0.317115         -1.7013
LJ           -1.4233       -0.831293        -2.11008
LJ           1.18307        0.796222        -1.59571
LJ          -1.44873         2.09718       -0.958615
LJ              -nan            -nan            -nan
LJ          -2.44917       -0.453319         1.13333
LJ          0.277461        -1.51065         1.72593
LJ          0.501661         2.33054        -0.59253
LJ          -1.79276        0.316648        0.821889
LJ            1.8031          1.9854        -1.56565
LJ          0.344703        -1.93744         2.44604
LJ          0.322848         1.26866       -0.119081
LJ          -1.59528        -1.22984       -0.756892
LJ          -1.93483         2.35381        -1.04303
LJ           1.44098        0.288582        0.979616
LJ          0.922082         1.10604        -1.00879
LJ         -0.431308        -1.09339         1.67882
LJ          -1.90711       -0.363497         1.90834
LJ          -2.28237         2.09791        -1.98423
LJ          0.548145         1.59668         1.24441
LJ           2.08153        -1.66354        0.392204
LJ          -2.50526         2.05353        -2.09856
LJ          -2.44658        -1.24082        -2.31284
LJ           1.16343       0.0970989        0.657199
LJ            -1.978         2.50589        -1.26704
LJ         -0.450333         2.08388        -1.76189
LJ          0.940636        -1.09464         1.47998
LJ              -nan            -nan            -nan
LJ         -0.695941        -1.39641        -1.18191
LJ         -0.411761        -1.74438         1.19167
LJ            0.0434        -2.28778        -2.33377
LJ          -2.03806         2.39943       -0.189062
LJ          0.634361         1.66931        0.267602
LJ           1.84785        -1.34547         1.21454
LJ         -0.619027       -0.675203         1.51044
LJ              -nan            -nan            -nan
LJ          0.406082       -0.607941       -0.763797
LJ           2.16689         2.02051         -2.4747
LJ           2.01129          -0.413         2.34662
LJ         -0.645039        0.540182        0.221922
LJ          -1.41536        -1.22913       -0.430612
LJ          -1.62462        -1.35358        -1.51133
LJ        -0.0844196       -0.510019         2.17681
LJ          -2.33904         1.68808         2.40329
LJ              -nan            -nan            -nan
