108
#Comment!
LJ         -0.271782        -2.30014         -1.1107
LJ           2.34691         2.41367       -0.824882
LJ          0.192442        0.267972         1.12658
LJ          -2.14254        0.730356         1.99579
LJ          0.106618       0.0815956         2.22852
LJ           1.33653       -0.432526       -0.228412
LJ           1.07782        0.356081         1.89108
LJ           1.07192         2.39412         1.17285
LJ         -0.710084         0.65277         2.27957
LJ            2.3205         1.28899         1.51397
LJ              -nan            -nan            -nan
LJ           1.55537       0.0383167        -0.72088
LJ         -0.766859         1.08708        -2.02646
LJ              -nan            -nan            -nan
LJ            1.6526        0.984788         2.24251
LJ              -nan            -nan            -nan
LJ              -nan            -nan            -nan
LJ              -nan            -nan            -nan
LJ          -1.43425        -2.18787         2.44957
LJ              -nan            -nan            -nan
LJ           1.73764       -0.807013         2.11183
LJ          0.101204         1.11801         1.53015
LJ         -0.398281        -1.38215         -1.4364
LJ              -nan            -nan            -nan
LJ           1.00667         1.22731        -2.45186
LJ          0.710989        0.909818        0.989341
LJ           1.72704        0.407659        -1.14619
LJ          0.730916         0.86844      -0.0176442
LJ         -0.783398        -1.34784        0.339039
LJ          -1.35561         0.55566        -1.40397
LJ              -nan            -nan            -nan
LJ           1.64467         1.45035         1.82704
LJ              -nan            -nan            -nan
LJ          -1.16182        -0.21924        0.922337
LJ              -nan            -nan            -nan
LJ         -0.584769        -1.83392         1.55857
LJ         -0.206037        -1.90881       -0.473976
LJ         -0.704383        -1.40114        -1.60006
LJ          0.858495        -2.24649        -1.95386
LJ           2.36175         2.50603        -1.94806
LJ           2.03434        0.495947      -0.0355121
LJ        -0.0879906       -0.730032        -2.34983
LJ          0.733968       -0.654592        0.774315
LJ          -1.12854         1.18737        0.260617
LJ           1.78992         2.07784        0.569479
LJ         -0.316775       -0.196666        0.889126
LJ          -1.69889         1.91819        -2.40262
LJ         -0.275542       -0.395132         1.23889
LJ          -2.22744        -1.49368         0.15318
LJ          0.553631        -1.26068       -0.233525
LJ           -1.7574         1.69026       -0.701869
LJ         -0.354644       -0.795552         1.92937
LJ              -nan            -nan            -nan
LJ         -0.183915         2.08513        0.580046
LJ          -1.05803        -2.04334        0.866349
LJ          -2.12305        0.629623        0.727307
LJ           1.37831         1.36258         1.93614
LJ           1.09731        -2.34973        0.834632
LJ          0.862006         1.96371        -1.02881
LJ           2.48967        -2.04503          0.8028
LJ          -1.37554        -2.47704         2.22831
LJ         0.0901801      -0.0756309         2.35784
LJ          -1.72931         2.08118        0.112852
LJ              -nan            -nan            -nan
LJ              -nan            -nan            -nan
LJ           1.59269        -2.25041         2.14577
LJ          -1.56283         1.68341        -1.79738
LJ              -nan            -nan            -nan
LJ          0.840939         2.23798       -0.149668
LJ           1.90042        -2.56447         2.13683
LJ         -0.396748        -2.09172        0.860042
LJ        -0.0876715         1.86893        -1.07507
LJ           1.53489         1.39726        -2.17754
LJ          -1.61909         1.39135         2.31336
LJ         -0.118863      -0.0160749        -1.48612
LJ           2.22947        0.971195       0.0854201
LJ         -0.284369        0.833015       -0.625413
LJ          0.230644        -2.22578         1.15438
LJ          -1.41506        0.695796         1.28524
LJ           1.48213        -1.28804        -2.07289
LJ          -0.73734         1.03192       -0.130965
LJ          -1.12056        -2.11725         -2.2063
LJ           2.02697       -0.781521        0.462626
LJ           1.69223        -2.24441       -0.942304
LJ          -1.64148         2.45157         1.27702
LJ           1.32231         0.92082        -0.61903
LJ           1.80672        -1.61956         1.95982
LJ          0.618755         1.44451         1.28211
LJ          -1.97146        -1.91089        0.309837
LJ            2.5456       -0.792011       -0.922672
LJ              -nan            -nan            -nan
LJ          -1.31461        -2.56017        -1.51792
LJ          -1.16321         1.77403         1.41319
LJ         0.0435316        0.585703        0.694087
LJ           1.05966        -2.32431        0.253847
LJ         -0.416157         1.03475         1.27621
LJ           1.33312        -1.89281        -1.95321
LJ           0.98397         1.35575        0.176613
LJ              -nan            -nan            -nan
LJ         -0.085719        -2.08201         1.86703
LJ           2.08333        0.674942        -2.16276
LJ          -2.07685         2.03602        -1.09306
LJ          0.590509          1.9352         1.11019
LJ          -2.01477        0.065434         2.13948
LJ              -nan            -nan            -nan
LJ          -2.15084        0.607038        -1.43208
LJ         -0.117658        0.938644        -2.56278
LJ              -nan            -nan            -nan
