108
#Comment!
LJ          0.956081        0.227484        -1.60296
LJ         -0.928482         1.79708        -1.26513
LJ         -0.102499        0.464361        -2.43406
LJ          -2.55215       -0.715005        -0.64978
LJ          -2.40232        -2.03665       -0.480405
LJ          0.407017         2.17859        0.702592
LJ           2.39205        0.174598       -0.540607
LJ          -1.98267         1.52201        -0.56126
LJ          -1.68759        -1.30467        0.466123
LJ          -0.98182       -0.487261        -1.25326
LJ              -nan            -nan            -nan
LJ           1.19916        -1.46201         1.64095
LJ          0.978342        0.245092        0.182588
LJ              -nan            -nan            -nan
LJ          0.329013        0.930854        0.967938
LJ              -nan            -nan            -nan
LJ              -nan            -nan            -nan
LJ              -nan            -nan            -nan
LJ           1.64441        -0.30057         2.06554
LJ              -nan            -nan            -nan
LJ           1.99564        0.361095         1.28014
LJ          0.785249         1.93819         2.33066
LJ           1.44458        -1.29875       -0.984631
LJ           1.03734      0.00650583         2.55998
LJ           -1.0401         1.84906        -1.98109
LJ          0.854114       -0.355617         1.20888
LJ          -2.26464        0.487996       -0.190238
LJ           2.30898        0.910248       -0.649525
LJ          -2.23172         2.44866        0.999491
LJ          0.954399        -1.20319        0.472749
LJ              -nan            -nan            -nan
LJ         -0.288069         1.54226        0.627486
LJ              -nan            -nan            -nan
LJ           -2.0762        0.656801         2.15074
LJ              -nan            -nan            -nan
LJ          -1.98975       -0.840277        0.226211
LJ          -1.67855       -0.531291        -1.11952
LJ          -1.82435        -1.46666       -0.423436
LJ          0.421049        0.468031       -0.387877
LJ         -0.426811        -1.24422       -0.569836
LJ          -0.79641        -1.34018          1.8609
LJ           1.21203         -2.3748        -1.29494
LJ           1.46518         1.37172        -1.86047
LJ          0.483985        -0.61035        0.520734
LJ           1.56201        -1.25716       0.0688921
LJ            1.1816        -0.50881        -0.97331
LJ         0.0544823      -0.0887926         2.20057
LJ           -1.6645         1.82326         1.70178
LJ          -1.99742         1.92343        -1.40026
LJ           1.28654         1.63396        -1.63328
LJ         -0.593393       -0.318732        -1.82288
LJ           1.85839        -2.23071       -0.521259
LJ              -nan            -nan            -nan
LJ           1.75149        -1.83316        0.298465
LJ          0.300902         1.80043        -2.05055
LJ         -0.294016         2.03426         2.17154
LJ          -2.22412        0.458038          1.1059
LJ          -1.61454       -0.841734         2.31239
LJ           1.27724        -2.11184       -0.988587
LJ          0.653979         2.33781       -0.930332
LJ          0.714012       -0.830841       0.0405015
LJ         -0.686757        0.584626        0.517594
LJ           1.71015         1.25709       -0.218653
LJ          -2.06227         1.41998         1.67633
LJ              -nan            -nan            -nan
LJ          -2.15616        -1.86152        -1.55666
LJ           2.21607        0.994035       -0.873496
LJ              -nan            -nan            -nan
LJ          0.494292         2.48696        -2.43954
LJ          0.472599         1.42946        -2.12642
LJ           1.58366       -0.894585        -0.90819
LJ          -1.14269        -0.38236         1.90221
LJ          -2.40185    -0.000312676         1.54051
LJ          -1.60054        0.607071        -2.05587
LJ        -0.0199836        -2.18447       -0.684847
LJ          -2.51536         1.98229         2.09819
LJ         -0.279186         1.78552        -1.78754
LJ          0.240102         -1.7975        -1.59711
LJ           2.41391         2.01229         2.48836
LJ          -1.37157        0.492966        0.446954
LJ          0.324275        0.447227        -2.39936
LJ          -0.66081       -0.164742       -0.840422
LJ          -2.43737       -0.101366         1.20438
LJ          -2.37819        -1.56856         2.52877
LJ          -1.57701        -2.21752         2.08011
LJ          -2.14228       -0.961586        -1.80942
LJ           1.11449         2.41016       -0.686181
LJ          -1.73603        0.469931        -1.34639
LJ           1.23019        0.323372        -2.23046
LJ          -2.42179       -0.812615       -0.899179
LJ              -nan            -nan            -nan
LJ          -2.10566        -1.32334        0.672802
LJ           2.09292       -0.968448         1.01105
LJ         -0.917922         1.58954        -2.25812
LJ         -0.999081        -1.10275         1.30384
LJ         0.0804888         1.31244        0.610431
LJ           1.10912        0.637602        -1.60599
LJ           1.26327       -0.640175        -1.49629
LJ              -nan            -nan            -nan
LJ          -1.02325       0.0582704        -2.49434
LJ          -2.10644        -1.64733          -1.258
LJ          -1.37577        0.826981        -2.16634
LJ          0.152261        0.134205         2.42329
LJ            1.2965        0.127945        -2.36881
LJ              -nan            -nan            -nan
LJ          -1.96559        -2.02237        -0.09921
LJ           2.29161         2.27352       -0.878556
LJ              -nan            -nan            -nan
