108
#Comment!
LJ          -1.71119      -0.0665231        0.266717
LJ         -0.300489        0.299011         1.55656
LJ         -0.448062        -2.21421        0.510033
LJ          0.197095        -1.99582         -2.3558
LJ          0.460962       -0.639707        -2.03886
LJ            2.1566        -2.17553       -0.955506
LJ          0.111677        -1.99803         1.08854
LJ            1.8819         1.97842         2.13351
LJ         0.0525097         1.78229        0.828734
LJ          -1.30475        0.999113        0.616922
LJ          -1.60768        -1.98068         2.44349
LJ          0.812163      -0.0597758         1.65544
LJ          -2.14409         1.01237        -1.68855
LJ           1.00255        -2.30562       -0.287662
LJ          -2.39494        0.262687          1.3632
LJ         -0.621463        -2.15433         -1.3548
LJ           1.34433       -0.163599         1.23067
LJ           1.07338        -1.67636         1.03842
LJ           1.23214        -2.44472         2.26392
LJ          -2.36926       -0.415185        -1.88662
LJ           1.28631         2.10086        0.428823
LJ           2.48759        0.706486        0.406452
LJ           1.24747         2.20097       -0.944172
LJ          -2.15936        -2.04044        0.939415
LJ           2.40631         -2.5491       -0.355032
LJ           2.33736         1.54431       0.0614452
LJ          -1.23458        -1.80895       -0.169535
LJ           2.53803        -1.77878       -0.123319
LJ           2.14029        -1.10243         -1.7768
LJ           1.50913       -0.644211       -0.851319
LJ          -1.83861       -0.968518        0.607466
LJ           1.21524        -2.15196         1.57724
LJ              2.29        0.711763         0.72372
LJ          -1.81608        -1.65926        -1.69621
LJ          0.579043         1.56311         1.91133
LJ           1.19984       -0.272769      -0.0590992
LJ          -2.45376         1.75467        -1.05903
LJ         -0.801427        0.362342       -0.387528
LJ          -1.31286        -1.56637        -1.71085
LJ          -1.19724         1.03043        0.628638
LJ          -1.05778       -0.311867        0.879001
LJ          0.820026         -1.0334        -2.32745
LJ         -0.351099         1.84883       -0.234138
LJ          0.464788         1.69398        0.555804
LJ         -0.447745       -0.753009        -1.30745
LJ          0.993759        0.624441        0.894712
LJ           1.39762         1.77811        -0.66968
LJ           1.47969        -1.91417       -0.854623
LJ           1.69513       -0.838519        -1.19259
LJ          -1.02126        0.525424        0.439588
LJ          -1.33137        -1.90832          1.3005
LJ         -0.151072         1.20609        -1.59193
LJ           1.98018         -1.2449        -1.32525
LJ            1.7381        -1.03697         1.58356
LJ          -2.50493        -2.25632        0.136066
LJ           2.07867        -1.65956        -1.25111
LJ           -2.3236        -1.08874         1.35837
LJ          0.910893         -1.2761         1.27583
LJ          -2.20907        -1.13521          1.2007
LJ           -2.1045         2.50046        -1.84896
LJ          -1.88548        -2.32616       -0.140776
LJ          0.914274          1.0773        -1.70294
LJ          0.582665         0.73228         1.30154
LJ          0.346659         1.04036         2.06228
LJ          -2.13844         -1.1486        0.243164
LJ           1.50777        -1.95318        0.313679
LJ          -1.20026         1.31303       -0.240895
LJ          0.250884        -2.25527         1.22672
LJ         -0.923993        0.746618         0.86752
LJ         -0.331261        -2.19117         1.78226
LJ          -1.06628        -2.53036        -1.74836
LJ          0.632407         2.35958       0.0834167
LJ           1.15473       -0.127928        -1.54179
LJ           2.55279         2.33272        -2.17576
LJ          -2.00753        0.260177         1.26063
LJ           -2.5502       -0.734148        0.324988
LJ           1.73152         1.57492        0.628911
LJ          0.828031        0.949531        -1.28296
LJ         -0.784392        -1.85546        -2.23068
LJ          -1.63602         -1.2819       -0.172409
LJ          -1.46344         2.07655        0.619157
LJ           2.30637        -1.69793         1.67191
LJ          0.919237       -0.393753       -0.982041
LJ          0.907336        -2.01676        0.164256
LJ         -0.692077         1.10204        -2.38603
LJ         -0.358248       -0.169223         1.06268
LJ         -0.564156        0.207905         2.28146
LJ          -2.11195         2.54803         1.01512
LJ          0.389269         1.58303        0.791219
LJ          0.125626         1.37238        0.861734
LJ           1.40009         1.85217        -0.15176
LJ         -0.830461        -2.52565        -1.25016
LJ          0.138441         1.13743         -1.7868
LJ           1.49999        -2.44316        -0.49913
LJ           1.27549        -1.58176         2.07427
LJ           2.11882       -0.887984         1.20714
LJ          0.736565         1.75567        -2.00769
LJ           -2.0715         1.66735        0.128963
LJ            2.4291        0.296221        -2.51528
LJ         -0.614784        -1.79571        0.862693
LJ            1.5282       -0.989577         2.21773
LJ          -1.33587         1.54341        -1.79768
LJ           1.70846         1.28141         1.05433
LJ          -1.50522         2.25104        -2.25253
LJ          0.346845      -0.0357385        -0.82989
LJ          -2.27696         1.56955        -1.18156
LJ          -2.22605         -1.7663        -2.33279
LJ           1.47051         2.36101        -1.63013
