108
#Comment!
LJ         -0.893869         1.74491        -0.99617
LJ          0.307775         1.25853        0.958267
LJ           1.37229       -0.536814         1.47713
LJ         -0.353024       -0.298457         1.77428
LJ          -1.66161         1.60304        -2.37539
LJ          -1.79901        0.774095         1.74283
LJ           -2.2096         2.37333          -1.318
LJ          -1.10327        -1.53919        0.961808
LJ           1.43246       -0.696695        -1.76171
LJ          -2.47261         1.02428        0.849608
LJ              -nan            -nan            -nan
LJ          0.837961        -1.97752        0.292888
LJ          -2.28454         1.80716        0.238241
LJ           0.59709         1.46411       0.0161659
LJ          -2.17558        0.647894        0.394108
LJ          0.709451       -0.652971       -0.371786
LJ          0.585894        0.609537         1.64017
LJ           2.34475        0.687972        0.839899
LJ          -2.48675        -1.06968       -0.204123
LJ          -2.54645        0.181729         2.30167
LJ          -1.61698       -0.689519        -1.20827
LJ          -2.25297       -0.736813        -1.62515
LJ           -1.9922         2.31638        0.704162
LJ          0.807217        0.852969          2.3635
LJ          -1.55972        -1.99136        -2.49038
LJ         -0.276721          1.9809       -0.370839
LJ          0.599322        0.798717          2.0793
LJ         -0.900276        -1.81464       -0.516923
LJ          0.467631         1.87049        0.623032
LJ          -1.81965         2.51533         0.62602
LJ          -2.03215         1.08291          1.4982
LJ           0.47783         1.07178        0.625039
LJ              -nan            -nan            -nan
LJ             1.488         2.10059        -2.10174
LJ           -1.6872         1.14294         1.20469
LJ          0.946647        -1.59318       -0.431356
LJ         -0.312437        0.636091         1.95233
LJ          -1.78885        -2.52414         1.00318
LJ           1.07733       -0.207278        0.287565
LJ           1.34694        0.854333         -1.9837
LJ           2.50974       -0.852363       0.0669507
LJ            0.3747        0.610739          2.0595
LJ           2.03453        -2.51122        -0.19341
LJ          0.349806       -0.673912         2.39426
LJ           1.08193       -0.137043        -1.69153
LJ          0.329632        0.350689         1.45704
LJ          0.883392        -1.08993        0.210001
LJ           1.53284       -0.275366        -1.19194
LJ          0.708597        0.139716        0.449493
LJ          -1.76127         1.84267         2.49758
LJ          -2.49266        0.638551         1.36982
LJ          0.951497         0.37447        -1.01918
LJ        -0.0892128       -0.470195       -0.943693
LJ            1.9513       -0.209413        -2.19824
LJ         -0.485862         1.49722       -0.179097
LJ          -0.55707         1.41881        0.364053
LJ          0.952727        0.484513        0.640399
LJ           2.22429        -1.45965        -1.74837
LJ         -0.790572        0.598607       -0.811496
LJ            1.0298       -0.195124         2.51465
LJ         -0.906499        0.478191       -0.341305
LJ           0.63652         1.01233        -1.85594
LJ           2.37646         -1.5514        -2.44219
LJ         -0.807297         2.46217       -0.280238
LJ          -2.40525         1.27475         1.80423
LJ          0.809609        -1.27461        0.570945
LJ          -1.00849       0.0537089        -1.10918
LJ           1.82956         2.29748        0.717674
LJ         -0.370369       -0.895969         1.83103
LJ           1.94069      -0.0291162          1.1985
LJ           -1.6979         2.47958        -1.34217
LJ          -1.08968        -1.20261         2.35697
LJ          0.576407         1.55684        -1.71952
LJ             1.513         1.07091        0.229074
LJ           1.22329        -1.27747         1.21926
LJ          -1.44047        -1.05976        -2.27247
LJ           1.42796        0.279883         1.40892
LJ           1.89967        0.424037        -1.20304
LJ          -2.52882       -0.483391       -0.119974
LJ          -2.05107         2.53976         -1.0248
LJ          -1.90285        0.736619       -0.411743
LJ          0.262244        -1.60867       -0.181014
LJ          -1.88494         2.04817         -1.0759
LJ          -1.63076         0.98644         2.02817
LJ          -2.25426         2.48794         0.73287
LJ           1.47758       -0.354096        -1.77128
LJ           1.28267        0.209569        -2.41202
LJ            2.4014         1.14163         1.12084
LJ          -1.78677        -1.77611         0.54511
LJ          0.478528        -2.20433          1.6345
LJ         -0.371633       -0.477568         2.26307
LJ          0.920429         2.39797       -0.862063
LJ           2.36769        0.978781        0.651693
LJ           -2.0685        -2.16012        -2.41327
LJ           -2.0266       -0.750231       -0.057242
LJ          0.621146       -0.260062         2.40091
LJ           1.76318       -0.356412         2.25519
LJ         -0.698535         1.80577        -1.41154
LJ           1.07967        0.458784      -0.0156118
LJ           2.51423         0.70479        -1.25574
LJ           1.43641       -0.405753       0.0199279
LJ            2.2786        -1.73684        -2.28046
LJ          -2.36211         2.29715        0.187762
LJ           -1.4625         2.50789        -1.81627
LJ           1.51994         1.91018       -0.275123
LJ           1.14459         2.53773       -0.841936
LJ          -1.52457         2.31598        0.552625
LJ          -1.40687          1.9387        0.919375
