108
#Comment!
LJ           1.14665         2.11466         2.35198
LJ          0.268519        -1.98927        0.446674
LJ            2.0625        -2.32731         1.86976
LJ          -1.74316         2.05728        -1.93355
LJ         -0.172137        -1.87898        -0.34366
LJ          -1.51183        0.177107          1.3889
LJ           -0.2304       0.0267174        -0.77629
LJ           1.96275        0.474396       -0.969855
LJ          -1.38563        0.568625        -2.13867
LJ           1.27055         1.11015         2.48218
LJ              -nan            -nan            -nan
LJ          -1.58471        -2.09137        -2.53676
LJ          -2.00084          1.5974         1.02332
LJ              -nan            -nan            -nan
LJ         -0.742356       -0.767676        0.968828
LJ              -nan            -nan            -nan
LJ              -nan            -nan            -nan
LJ              -nan            -nan            -nan
LJ         -0.379193         2.17874        -1.79099
LJ              -nan            -nan            -nan
LJ           2.49961       -0.141987        -2.09021
LJ           2.28097           2.018        -1.37993
LJ         -0.538478      -0.0745704        -1.87653
LJ         -0.348747        -1.68129       -0.475346
LJ           2.04119         0.73744        0.466908
LJ          -2.15454         -1.4845         1.24169
LJ           1.91183        0.290379        -2.25767
LJ           1.87178         1.82211         2.03057
LJ          0.332545        0.727643        0.920292
LJ           1.95607        -1.87491        0.922359
LJ          -1.81204       -0.516416        -2.33388
LJ           1.12097       -0.507067         2.27793
LJ              -nan            -nan            -nan
LJ           1.46711       -0.922541         1.74792
LJ              -nan            -nan            -nan
LJ           2.31381        0.732912         2.56224
LJ          -2.21806         1.56051       -0.762243
LJ          -1.43123         2.03833         1.30118
LJ          -1.43878         -1.1379         1.72742
LJ          -1.98861         1.45007          1.6188
LJ           -2.4669        -1.32087      -0.0684857
LJ           -0.4677       -0.558273        0.697898
LJ           -1.4031         1.48699        -1.89521
LJ           1.82391         1.84707         -1.8226
LJ           1.52255        -1.79751          2.3203
LJ          -1.11026         -2.4716         1.16323
LJ          -2.25016        -1.11157        -1.47601
LJ          -2.32403        -1.05695        -1.69992
LJ          -1.99819         1.73058       -0.992437
LJ          -1.14746       -0.858583         1.51513
LJ           2.23645        -1.81207        0.919818
LJ          -0.13113         2.04277         2.08813
LJ              -nan            -nan            -nan
LJ           1.15773         2.49606        0.957862
LJ         -0.404258        -1.41699        -1.54357
LJ          0.297402         2.54719       -0.366652
LJ           2.14337        -1.13197         1.26605
LJ         -0.542669         0.36043         1.35678
LJ          -1.61704        0.574714         1.09778
LJ         0.0250519          0.9988       -0.167715
LJ          -1.35641       -0.918597        0.573274
LJ          0.884839        -1.27759        0.451814
LJ           1.03894        0.151002        0.664719
LJ           -1.5173       -0.162917        -1.84745
LJ          -0.46477        -2.45927        -1.69817
LJ           -1.4129         2.53063         1.70537
LJ          0.183384        0.522767         1.75627
LJ              -nan            -nan            -nan
LJ         -0.418417        -2.43186        0.489885
LJ          -1.15294         0.21489        -1.10844
LJ          -1.34169        0.121566        -1.51829
LJ           1.60432        -1.45483        0.244054
LJ          0.290917        -1.87902        0.332402
LJ          0.528816        -1.69159        -2.19125
LJ          0.886868         1.82653         2.13945
LJ          -1.16149         -1.3141         1.93161
LJ           2.55693      -0.0235596        -1.83491
LJ          0.841487        0.841806         1.38718
LJ          -1.21499        -1.72296       -0.608959
LJ          0.620173        -1.10002         2.55403
LJ         -0.459797         1.61817         1.08963
LJ          0.146769         1.66297      -0.0437668
LJ         -0.171696        -2.45615       -0.356889
LJ           2.53319       -0.131497        -1.26832
LJ           2.35679       -0.488549       -0.031083
LJ         -0.226138        0.482588         1.16416
LJ           2.13104        -1.83398        -1.33139
LJ           -2.0596         2.41558         1.05251
LJ          0.307778         0.47562       -0.788191
LJ         -0.281648       -0.679386       -0.589251
LJ              -nan            -nan            -nan
LJ           2.06096         1.08974        0.855853
LJ           2.19327        -2.03947         2.18064
LJ            1.0228        -1.65325        -1.38526
LJ         -0.466872        0.301663        0.952783
LJ         -0.391849         2.10924         1.73211
LJ         -0.545907       -0.684297        -1.16696
LJ        -0.0124299        -2.37149       -0.462956
LJ              -nan            -nan            -nan
LJ         -0.545883         2.15979         1.69011
LJ          -1.80979       -0.199127        -1.46105
LJ          -2.10357       -0.934626       -0.637047
LJ          0.536778      -0.0595234          1.7197
LJ        0.00927595        -0.76778        -1.27726
LJ              -nan            -nan            -nan
LJ          -2.25705        -0.27428         1.15091
LJ          -1.04701         2.22103         -2.4356
LJ              -nan            -nan            -nan
