108
#Comment!
LJ         0.0997607         1.20087        -1.87716
LJ          -1.64884       -0.344747         1.58588
LJ          -2.49438       -0.982836        0.185429
LJ          0.237938        -2.40072         -1.1099
LJ         -0.533778       -0.433078        -1.96655
LJ          0.788645         2.54281        -2.41899
LJ          -2.43693       -0.351066         1.65002
LJ          -2.04445         1.40584         2.23259
LJ           1.04821         -1.8553           2.536
LJ           2.21578       -0.273768        -0.95946
LJ              -nan            -nan            -nan
LJ           -2.2217       -0.455814        -2.18645
LJ          0.954529        0.709981       0.0873725
LJ          -2.09584        0.956182        0.610791
LJ         -0.657409         0.47111         1.70987
LJ          0.466936         -1.4016         -2.2472
LJ              -nan            -nan            -nan
LJ              -nan            -nan            -nan
LJ          -1.84692        0.122593       -0.127454
LJ              -nan            -nan            -nan
LJ          0.464225      -0.0414814        -1.91954
LJ          0.381655        -1.08585        -1.45037
LJ          0.669077       -0.175175        -1.08947
LJ         -0.788778        -2.48461       -0.388757
LJ          -1.61393       -0.854996       -0.922347
LJ          -1.40282         1.85171        -1.56221
LJ          -1.41448        0.112861       -0.989677
LJ           1.41862       -0.441112        -2.45442
LJ           1.76879        0.621144          1.6282
LJ         -0.204522        -2.45974       0.0701151
LJ          0.986024      -0.0965461         1.87924
LJ           0.81466        -1.32969       -0.781205
LJ              -nan            -nan            -nan
LJ           2.31981       0.0581285         0.67797
LJ              -nan            -nan            -nan
LJ           1.56778       -0.192739        0.512139
LJ        -0.0449509       -0.207184         2.27206
LJ           1.47732        0.596268         1.45928
LJ         -0.511158         -1.6606         1.33086
LJ          0.509621        -1.06815         -2.5195
LJ          0.310149       -0.771355       0.0895059
LJ         -0.049621        -1.72752        0.748477
LJ          -1.48771         1.54719        -2.25568
LJ           2.54927        -1.86145         1.77384
LJ          -1.47034        -1.09333      -0.0179338
LJ            2.1974        0.263665         1.92312
LJ           1.13209         1.57174        -2.04313
LJ          0.792959        0.950191        -1.38599
LJ          -1.17845        -1.01396        -2.15611
LJ          -1.70163       -0.294367        0.105081
LJ           1.94796         -1.6084       -0.298304
LJ           1.62755        0.658515         2.27213
LJ              -nan            -nan            -nan
LJ          0.607939        0.436275         1.40364
LJ            -1.307         2.07163        -1.24571
LJ          0.196973       -0.555775       -0.745469
LJ          -2.39444        0.645754       -0.125678
LJ          0.359708         2.56117        -1.66068
LJ          -1.93211        -1.71336         2.41147
LJ          -1.28095       -0.158219       -0.272253
LJ          -2.12415         2.46674         2.30202
LJ           1.52817         2.09535       0.0745006
LJ          0.804232        0.912602        -1.98703
LJ          -2.35593         1.21433       -0.413242
LJ           2.54725        -1.39668        0.295841
LJ         -0.110396        -1.35889       -0.538188
LJ           1.01679        -1.00778       0.0574251
LJ              -nan            -nan            -nan
LJ         -0.604484          2.0907         1.58808
LJ           1.97505         2.19791        0.561661
LJ          -2.12203        0.456381        -1.47609
LJ          -2.03598        0.658277         2.44395
LJ          -1.69995         2.48428        -1.90618
LJ          -2.35786       -0.401401         1.43477
LJ           -1.5546        -1.07872        -2.17321
LJ          -1.52946         1.10408        -2.09173
LJ         -0.891854        -1.85415        0.903658
LJ           2.36208         2.03142         1.47877
LJ          -1.43515        0.267424         2.01806
LJ           2.03132         1.35094         2.26805
LJ           2.44138        -2.13039        -2.47333
LJ          -1.56339        0.121198       -0.142806
LJ          -2.42942         1.26592         1.95781
LJ          -1.80519        0.432286         1.07837
LJ          -2.39088         0.48173       -0.652459
LJ          -1.29067         1.85632        -1.94914
LJ          -2.52134         1.68953         1.24436
LJ         -0.721278        -1.68456        -2.32237
LJ          0.663925      -0.0806866        -1.87175
LJ           1.03289        -1.85466        -1.20704
LJ              -nan            -nan            -nan
LJ           1.36461        -1.08033       -0.352921
LJ           1.37778         2.10859        -1.33956
LJ           2.35644        -1.70498       -0.324552
LJ         -0.329345        -2.42124        0.346365
LJ          0.357979         1.58623        -1.53676
LJ           2.33795         1.38623        -1.40791
LJ          0.404878        -1.60212        -1.71012
LJ          -2.42227         1.51478       -0.206981
LJ          -2.13214        -2.22422       -0.742258
LJ         -0.304852          1.7943        -1.55767
LJ         -0.135113       -0.756147        0.214887
LJ          -1.17781        -2.29113       -0.261977
LJ          -1.44684       -0.349542         2.23932
LJ          -1.47923        -1.50179        -2.46708
LJ            1.6183        0.158134         1.52352
LJ          -1.14508         2.51567       -0.984781
LJ              -nan            -nan            -nan
