108
#Comment!
LJ        -0.0489671        -1.22186         1.82189
LJ          -1.29654      0.00815843       -0.604233
LJ          -1.69076        -1.13004        -1.07435
LJ        -0.0832141        0.331611       -0.956088
LJ          -2.24258        -2.21476        -1.34846
LJ         -0.930664       -0.241832        -1.96948
LJ           1.53239         0.57188        -1.50139
LJ          0.591157        -1.93162        0.979973
LJ          -2.52631        -1.16509         2.18841
LJ          -1.77105        -2.28116        -1.36532
LJ              -nan            -nan            -nan
LJ           2.39647        -1.60656         2.07377
LJ           1.16457        -1.45793        0.470844
LJ              -nan            -nan            -nan
LJ           -1.4779        0.514484       -0.856102
LJ              -nan            -nan            -nan
LJ              -nan            -nan            -nan
LJ              -nan            -nan            -nan
LJ          0.386171        0.856655         2.37969
LJ              -nan            -nan            -nan
LJ         -0.226313        -0.31776       -0.504482
LJ          0.193028         0.20878        -1.48797
LJ           1.54426         2.55456        -1.18691
LJ           -1.2218        -1.06309        0.318758
LJ         0.0287246         1.59161         1.17008
LJ           1.25202        -1.25536         -2.5433
LJ         -0.199143       -0.851418         1.33384
LJ           1.79445        0.543356         1.24038
LJ          -0.30704       -0.586433        0.907835
LJ           2.38511        0.425474         2.46757
LJ              -nan            -nan            -nan
LJ         0.0055882        -2.54422       -0.248988
LJ              -nan            -nan            -nan
LJ          -1.21872       -0.302787         1.37131
LJ              -nan            -nan            -nan
LJ           1.08332         1.40825         2.15426
LJ           1.90146       -0.477144        -1.37945
LJ          0.693334         1.68252        -1.38825
LJ         -0.516024         2.21262         0.92358
LJ          -1.14181        -2.36351       -0.039323
LJ         -0.847039        -1.42616         1.53878
LJ         0.0340844        -2.47928       0.0381439
LJ           1.92334        -1.85235        -2.03348
LJ          -1.84822         1.96443        -2.14072
LJ           1.69088        -1.42474        -0.72581
LJ           2.49983        -1.56651       -0.683472
LJ          -1.31184       -0.765849        -1.43368
LJ         -0.257024      -0.0556421        -1.92469
LJ          0.887276         2.41761         1.44939
LJ          -1.73243        -2.53316       -0.873125
LJ           -1.8663        0.832529        0.873149
LJ           -0.9683         1.06013        -1.91342
LJ              -nan            -nan            -nan
LJ          0.535995         1.98812         0.66009
LJ         -0.762812         1.22427        -1.12866
LJ         -0.797253        -1.35971       -0.241593
LJ           0.51031       -0.655302        0.778387
LJ          0.461242         2.45918         2.11154
LJ          -2.10438         2.54435          1.2504
LJ           1.57861        -1.76272         -1.1104
LJ           1.99784        0.950781        -1.18474
LJ          -1.41979       -0.150607         0.51992
LJ         -0.352652        -1.62432        0.286933
LJ         -0.416873        0.359146       0.0754462
LJ              -nan            -nan            -nan
LJ           1.34267         1.97637         1.45777
LJ            0.4915       -0.732909          2.0914
LJ              -nan            -nan            -nan
LJ         -0.997355       -0.136777         2.42345
LJ          -1.38278      -0.0164243         2.33285
LJ        -0.0715737        0.695986        0.511032
LJ          0.979422       -0.116261       -0.797867
LJ           2.17592         1.30892         2.14222
LJ          0.740904        0.274324         0.97901
LJ           2.23862         0.41391       -0.842114
LJ           1.58059       -0.310071         1.30325
LJ           2.15374        -1.32181        -1.02073
LJ          -1.47853       -0.224532         1.69204
LJ           2.54531         2.03351          1.3043
LJ          -1.12097        0.358557        -2.05217
LJ         0.0166018        0.830632         -0.5455
LJ          0.956124         1.19743        -1.02969
LJ          0.482955         1.52957         2.02493
LJ         0.0286259         2.48739       -0.117817
LJ          0.264907        0.367845        -2.00139
LJ          -1.39797        0.368243        0.851952
LJ         -0.694427        -1.88159       -0.493145
LJ          0.930398       0.0453637       -0.460842
LJ          -0.40452        0.118857        -1.13666
LJ            -2.201        0.208463       -0.942209
LJ              -nan            -nan            -nan
LJ            1.7697         1.50929       -0.801353
LJ          0.258671       -0.178149        0.313733
LJ           2.47106        -2.35983        0.744904
LJ            2.1431        0.203801        0.405337
LJ         -0.891054       -0.765274        0.714057
LJ          -1.72706        -1.98722         1.80028
LJ           2.31941         1.57562       -0.887502
LJ              -nan            -nan            -nan
LJ           1.65466         0.60821       -0.697203
LJ          -1.11322        0.861791       -0.325235
LJ           1.48739       -0.752372        0.768094
LJ           2.07767        -1.99151        -1.38397
LJ           1.41454        -1.46227        -1.32914
LJ              -nan            -nan            -nan
LJ           1.60243       0.0443559        -1.41813
LJ         -0.321182       -0.556798         2.13116
LJ              -nan            -nan            -nan
