108
#Comment!
LJ          0.929484         1.17607        -1.14416
LJ           2.09373         -2.2249       -0.107623
LJ         -0.180254        0.773978         2.50574
LJ           2.04738        -2.00044        0.522396
LJ         -0.196454         1.85066        0.402568
LJ          -1.16249         1.56714         1.67125
LJ          -1.13385        -2.32891         1.64862
LJ          0.202515         1.11615      0.00548692
LJ         -0.756575        -1.78608        -1.26071
LJ          -1.23821         2.21712        -1.96578
LJ              -nan            -nan            -nan
LJ          -2.53693        -1.87127          1.3768
LJ          -2.56269        0.541905      -0.0743075
LJ          0.411905        -1.65198        0.870269
LJ          -1.01401        -2.12792        0.607037
LJ       -0.00305501         -1.3964         1.76357
LJ          -1.62001        0.877555         -1.8596
LJ           2.54592        0.622375        -1.34962
LJ           -1.4632        0.737485         1.31918
LJ        -0.0177918        0.435032        0.093401
LJ            2.5097         2.40333       -0.809091
LJ          -1.75372        0.148547         2.29157
LJ          0.862687       -0.811493         1.34124
LJ         -0.136701         1.02867        -2.46259
LJ          -1.86228        -2.09248        0.849579
LJ         -0.279132         -2.4252         1.12445
LJ             1.656         -1.6766        0.114489
LJ          0.126487        -1.24866          1.8585
LJ          0.886676        0.801426        -2.29022
LJ         -0.918945        -1.77294       -0.606646
LJ          -1.38009       -0.781182          1.7776
LJ          -2.31513        0.756871         1.31785
LJ              -nan            -nan            -nan
LJ           0.84507       -0.280946       0.0694184
LJ          -1.51855       -0.961045        -1.61757
LJ         -0.463464         1.17657         1.19606
LJ          -1.42243         -1.3655         1.14331
LJ          0.698526         1.86847        -1.40505
LJ          0.272339        -1.76191        0.543816
LJ          0.694885        -1.35632         2.46682
LJ           1.70372         1.06292       0.0473922
LJ          0.997595        -2.53897         0.82365
LJ           2.52228       -0.834106        -1.65022
LJ             1.806        -1.60608        -1.76579
LJ          -1.48405         1.40364         -2.4829
LJ           1.72247        0.371162        -1.82113
LJ           2.45457        -2.09917         1.47459
LJ         -0.497294        0.415329         1.93945
LJ              1.42        -2.25322       -0.742508
LJ           1.06447       0.0967922       -0.731735
LJ           1.53228        0.465247        -2.42435
LJ          -2.00706         1.77139        0.832319
LJ         -0.130223        -1.57102      -0.0529752
LJ          -1.88073          1.1721       -0.058975
LJ          -0.63389          2.4026        0.800856
LJ          0.322637        -2.48504        -1.30943
LJ           1.53993         2.55459         -1.8504
LJ          -1.32621         0.06959        -2.22933
LJ           1.49768          2.4257         2.48691
LJ         0.0107143        -2.16731         0.85246
LJ          0.338024       -0.627597        -1.05036
LJ         -0.824536         2.23545         2.04484
LJ           -1.4676        0.580897        0.371706
LJ          -1.20444        0.108017         -2.4862
LJ          0.613534        -1.07211        -1.84951
LJ        -0.0513045        0.375641         -2.1099
LJ          -1.54361         1.74652         1.76637
LJ           -1.8434         1.70053        -1.72356
LJ         -0.841284        0.584596         2.07207
LJ           1.76338       -0.566912         1.77799
LJ         -0.818239        0.586493         1.52317
LJ          0.337486        -1.39768         2.29469
LJ         -0.819649      -0.0953086        -2.34628
LJ          -1.13458        0.360764         1.65578
LJ           1.67304         1.33402        -2.25103
LJ          0.953891         1.37362         2.38532
LJ          0.901715        0.873431        -1.40211
LJ          -1.13514       -0.907204       -0.313993
LJ          -1.20962        -2.35621         -1.2096
LJ          0.200668        -2.22234        -2.15133
LJ          0.361487        -1.74551         2.52663
LJ           2.20147        -1.67163         2.13678
LJ           2.19104        -1.84387         1.08929
LJ          -2.08463        -1.30752      0.00879736
LJ          -2.12521        0.161754         1.56262
LJ           2.24366        -1.88229       0.0718523
LJ            2.0843         0.55753       -0.129257
LJ           2.44454         2.10809         1.31298
LJ           1.46707         2.27642        -1.12761
LJ         -0.458122       0.0500499         2.33438
LJ         -0.242124         2.02664       -0.642348
LJ          -1.20189        0.709874        -1.65148
LJ          -0.69272       0.0678137        0.541844
LJ           2.21554        -1.08846         1.21422
LJ          -1.68581        -2.16301        0.777308
LJ          -2.21501        0.413856         -1.4101
LJ        -0.0583914         2.17711        -1.60306
LJ        -0.0112947         1.01367        -1.61726
LJ          0.248061        -2.15051        -1.41513
LJ          -1.40862        -1.88043         1.83565
LJ          -2.24444        0.628073        -2.05349
LJ         -0.265423        -1.19691       -0.627229
LJ          0.894889         0.27706        0.291643
LJ         -0.536951         1.98428         1.97451
LJ          -1.70131         -1.0641         2.42212
LJ           2.10785         2.20167         2.08661
LJ           -1.0279        -1.17133          1.7661
LJ         0.0758583         2.16863         2.21652
