108
#Comment!
LJ          -1.13866          2.0453         2.54631
LJ          0.531808        0.934329         0.51987
LJ           1.38411        0.514374         2.36515
LJ           1.55762        -1.06904        0.328824
LJ          0.364501         2.08684      -0.0601414
LJ          -1.26324         1.21387        0.764412
LJ            1.3161         1.97747        -2.13481
LJ          -1.10603        0.909433        -2.44702
LJ         -0.834936          1.8003       -0.681419
LJ          -1.10593         1.46271         0.80998
LJ              -nan            -nan            -nan
LJ        -0.0468254         2.33813        -2.07583
LJ           2.37497        -1.25932         1.34695
LJ              -nan            -nan            -nan
LJ          -2.14636        0.398637        -1.33064
LJ              -nan            -nan            -nan
LJ              -nan            -nan            -nan
LJ              -nan            -nan            -nan
LJ         -0.797111        0.767922        -1.67144
LJ              -nan            -nan            -nan
LJ          0.219635       -0.724454       -0.223549
LJ          0.631586        -1.66574         2.49421
LJ           2.29238       -0.117145        0.489043
LJ              -nan            -nan            -nan
LJ            2.4332         1.95465         2.07823
LJ          -1.75962       -0.357381         1.10222
LJ          -1.99855        -1.74837       0.0630453
LJ          -1.78581          2.2186       -0.889199
LJ         0.0917209         1.35429        -2.51294
LJ          0.124183         0.58681        -0.62478
LJ              -nan            -nan            -nan
LJ         -0.996541         1.12451         2.08495
LJ              -nan            -nan            -nan
LJ          -1.82377         1.55781       -0.175851
LJ              -nan            -nan            -nan
LJ          -1.12094       0.0921181         2.11877
LJ           2.31383        -1.35644         2.21415
LJ           1.82433         1.98723         1.10338
LJ          0.819463         2.07844        0.437803
LJ          -1.76996        0.861892       -0.723929
LJ         -0.886218        0.849225      -0.0526575
LJ         -0.980769         0.39514         1.86236
LJ          0.932133         1.07487         -1.0554
LJ           2.30024        -1.47746         2.05014
LJ           -1.8305        0.256253       -0.917816
LJ           1.85348         2.05055        0.447401
LJ          -1.55172       -0.554762       -0.474586
LJ          -1.56579        -2.55012       -0.439026
LJ            2.1472        -2.09292         1.32162
LJ           1.89921       -0.648943      -0.0369582
LJ         -0.585506        0.747572         2.31841
LJ          -1.71682        -1.48644         1.70273
LJ              -nan            -nan            -nan
LJ           2.23412         1.27678        -2.37113
LJ          0.584175      -0.0700552        -2.55628
LJ           -2.1526          1.6836       -0.226057
LJ          -0.70004         1.93598        -1.93794
LJ          0.541229       -0.966509       -0.955776
LJ         -0.972106       -0.666721        -1.43469
LJ          -1.89533        -1.71438        -1.11896
LJ          -2.33157       0.0907451         1.61302
LJ         -0.427716       -0.152592        0.849211
LJ          -1.25427         1.51617       -0.941101
LJ              -nan            -nan            -nan
LJ              -nan            -nan            -nan
LJ          -2.17847          1.3886       -0.662696
LJ          -1.75675        0.587295         1.79297
LJ              -nan            -nan            -nan
LJ           1.32982         1.03247        -2.50841
LJ          0.470272        -1.69513        -1.47879
LJ         -0.669632        -1.86239       -0.930186
LJ          0.551773       -0.453136        0.445427
LJ          -1.99493         1.18246        -1.22883
LJ         -0.199855        -1.78452        0.525711
LJ          -1.14242         1.85346        -0.15108
LJ          -1.40648         0.11689       -0.881514
LJ         -0.753462        -1.72081        -1.64029
LJ          -1.76392        0.252067        -1.63588
LJ          -1.19864         1.17178        -2.01864
LJ           1.23963         1.68953         1.01998
LJ          0.851417           -2.32        -2.19263
LJ           0.34439       -0.069909        -1.27778
LJ           1.61212        0.259094        -1.39375
LJ           0.94814          1.4284        -1.98332
LJ          -1.54529          2.4026         1.93298
LJ          0.846244         1.29096        0.602649
LJ           1.35502       -0.807602        -1.50751
LJ          -1.62678        0.763534         0.67838
LJ           2.47958        0.861286        -2.04137
LJ         -0.273896         1.88934          2.3527
LJ              -nan            -nan            -nan
LJ         -0.919874         2.25362         2.10807
LJ          0.842891         1.21517        -1.50542
LJ          -1.89273         -2.2363        -2.46842
LJ         -0.628091       -0.326353       -0.716187
LJ          -2.49862      -0.0845635         0.57856
LJ          0.608426       0.0926899        -1.63621
LJ           -2.0752         2.43259       -0.525589
LJ              -nan            -nan            -nan
LJ          -2.47543        -1.62737        -2.09077
LJ           -2.4809        -1.96214        -0.67843
LJ           1.87737        -1.59336        -1.89476
LJ          -1.82908        0.782328         1.62228
LJ           2.23691      -0.0785097        0.442531
LJ              -nan            -nan            -nan
LJ         -0.927339         2.46341       -0.138166
LJ          -2.07321         2.23715        0.187494
LJ              -nan            -nan            -nan
