108
#Comment!
LJ          -1.42336        -2.08364         2.44711
LJ          -0.66355        -1.54541        -1.46183
LJ          -1.25675          1.7423        0.661672
LJ           2.19624         1.69011       -0.277255
LJ           1.92046         0.85309        0.616188
LJ          -2.07484         2.26509         1.45558
LJ           1.27186       -0.253017         1.27615
LJ           -2.3597         1.69419         1.86768
LJ          -1.88636         1.66798        -1.44471
LJ           1.53781          1.0952         1.01832
LJ              -nan            -nan            -nan
LJ         -0.200721         1.53321       -0.477693
LJ         0.0912743       -0.735338        -2.45193
LJ          0.265689        0.451032         1.22372
LJ          0.470624        0.932167         2.32847
LJ             2.419        -0.40403        0.053589
LJ              -nan            -nan            -nan
LJ              -nan            -nan            -nan
LJ          0.504726        -1.04089        -1.79171
LJ              -nan            -nan            -nan
LJ          -0.44354         1.36566      -0.0263129
LJ          -1.08203          1.8153         1.50133
LJ          -2.30176        -1.66006         2.44842
LJ           1.97126        0.975996       -0.323742
LJ          0.424244       -0.110342         2.38362
LJ           2.22945       -0.392513         1.81142
LJ           1.74014        -2.01077        0.829806
LJ          -1.34399         2.02931        -1.22313
LJ           1.75757       -0.873606         1.06301
LJ           -1.0848         1.62186           1.953
LJ          0.774388          2.1011        -2.40177
LJ           1.05945        -1.80766        -0.55751
LJ              -nan            -nan            -nan
LJ           2.22566         2.16747         1.77484
LJ              -nan            -nan            -nan
LJ           1.52366        0.803829        0.499901
LJ           0.25863         1.32395        0.276231
LJ           1.37701        -1.06079         1.31752
LJ          -1.40022         -1.8153         2.50585
LJ          -1.75243       0.0314018         1.66732
LJ          0.289103        0.191404        0.963344
LJ         -0.709628       -0.805651        0.183163
LJ           1.42475       -0.517614         2.33097
LJ           1.67773        -1.37706       -0.774004
LJ           1.79193        -1.80573        -2.46021
LJ          -1.28179        -1.94543         2.12415
LJ          0.819552        -1.21416        0.359632
LJ         -0.231717        -1.50745         1.61087
LJ           2.18772        -2.23742         2.44162
LJ          -1.81154       -0.900139        -1.96649
LJ          0.338849         1.58388        0.652945
LJ           2.05949        -2.02305         1.99932
LJ              -nan            -nan            -nan
LJ          -1.86393         2.50054       -0.406302
LJ           2.17501         1.77678         2.20734
LJ           2.30579         1.81434         2.55232
LJ        -0.0929169         2.25248        -2.20631
LJ          -1.36112         2.07175        -1.73092
LJ          -1.10671       -0.317903       -0.666062
LJ          0.715305        0.121191        0.722445
LJ          0.932671        -1.09088        0.120501
LJ         -0.614251        -1.43603        0.434207
LJ          -1.66247        -1.97995       -0.535313
LJ           -1.4108         2.37609        0.287984
LJ          -1.16053         2.10408        -1.90355
LJ           1.29846        -1.32646       -0.783474
LJ          -2.16402     -0.00366815        -2.20969
LJ              -nan            -nan            -nan
LJ          0.600188        0.536561       -0.835224
LJ          0.687168        -2.24499        -1.86075
LJ           2.00192        -2.26311       -0.525081
LJ          -2.28449         2.11034        -1.97302
LJ           1.00518         1.17533         2.36772
LJ           2.09915         1.92295       -0.886091
LJ          0.918951        -2.49156         2.34155
LJ          -1.77169           2.096         1.72811
LJ           1.41012        -0.93123        0.756497
LJ         -0.385462        -2.51413        -1.35986
LJ           1.32139        -2.10803       -0.726944
LJ           2.53382        0.442964       0.0103982
LJ           1.07385        0.422183          0.3143
LJ          -1.14975        -1.97133         2.52013
LJ           -1.9696         1.13231        -1.54566
LJ          -1.46977         0.94887       -0.614945
LJ          -1.14253        -1.48006        -2.23357
LJ           1.96443        -1.64105       -0.933052
LJ           1.26901         -1.2175        -1.24729
LJ           2.08475        -2.52165        -2.44064
LJ          0.590576         1.59337         2.16193
LJ           1.76163         1.96596         1.87474
LJ              -nan            -nan            -nan
LJ          -1.23801        -0.86084        -1.84916
LJ           1.84662       -0.914957        -2.14925
LJ        -0.0926934         2.04078         1.74749
LJ          -2.11999         2.44921         1.11758
LJ         -0.570914        -1.42926       -0.238911
LJ          0.936488         1.82918         1.41419
LJ         -0.268331       -0.681859         1.79689
LJ          -2.48086        -2.24654         1.69848
LJ           1.94069       -0.851619        -1.03142
LJ           1.81323         1.09267         1.30366
LJ        -0.0681152       0.0103987        0.430927
LJ          -1.43449         2.26296         -2.1468
LJ           1.51777        0.344818        -0.76495
LJ           2.36644        -1.46068         1.88438
LJ         -0.976887        0.796179        -2.43451
LJ           1.70283       -0.036632         2.25631
LJ              -nan            -nan            -nan
