108
#Comment!
LJ           1.24489       0.0669841        -1.99391
LJ         0.0253453         2.07693         -0.3358
LJ           2.50402        -1.15407        -1.50855
LJ           1.92391         1.74579         2.52153
LJ          0.373435        0.947441         2.20872
LJ         -0.936738         2.26283        0.230594
LJ         -0.890812        -1.62703         -2.5238
LJ          -2.29022        0.903054        0.127037
LJ          -1.66715         1.18374       -0.860826
LJ          -1.91357        0.766343         1.85328
LJ              -nan            -nan            -nan
LJ         -0.635077       -0.774323          1.0245
LJ          -2.04475        0.554076         1.45042
LJ          -2.52145        -1.35235       -0.710113
LJ        -0.0217601        0.837545         1.21968
LJ           1.40836         1.48822        0.741381
LJ              -nan            -nan            -nan
LJ              -nan            -nan            -nan
LJ         -0.423574       -0.320675         1.24074
LJ              -nan            -nan            -nan
LJ          0.734702         2.21229        -2.22801
LJ           -2.2377        -1.39833        0.211745
LJ           2.46192        -1.32313         2.16107
LJ          -1.89981        -1.16132        -1.80837
LJ          -1.84346        0.816613        -2.33715
LJ          -2.03082        0.985654       -0.319259
LJ          -2.25562         1.78152         1.90645
LJ         -0.213267        -1.29794         1.51174
LJ          -1.22219         1.49093        -2.21829
LJ          -1.40926         2.19278        -1.59519
LJ          0.321476      -0.0876231        -2.38271
LJ          0.328441         -1.4809         1.05649
LJ              -nan            -nan            -nan
LJ           2.36481         1.39498        0.259203
LJ              -nan            -nan            -nan
LJ           2.13565       0.0555078        0.418729
LJ         -0.498985        -2.01997        -1.92863
LJ          -2.41329         1.94855         -1.6797
LJ           2.56173        0.220581        -2.34203
LJ           1.40489         1.51787         -1.5324
LJ          -2.54414         -1.6712       -0.560325
LJ          -2.05078       -0.952372         1.16064
LJ          -1.44738        -2.04397       -0.512644
LJ           2.55894         -1.9661        -2.43758
LJ           1.87904        -1.50822        -1.13228
LJ           1.17717         2.35163        0.823208
LJ           1.72685         1.24965        0.592962
LJ           1.53313        0.119813        0.511524
LJ          -1.23424        0.697547         2.35374
LJ          -2.29476        0.831149       -0.534092
LJ         -0.243113        -1.66397        -2.03739
LJ           -1.0153       -0.259907        0.258973
LJ              -nan            -nan            -nan
LJ           1.63951        0.436621       -0.682937
LJ           1.37832        -1.30112         1.30089
LJ           1.77166        -1.89745        -2.33514
LJ         -0.368531        -1.05398          1.3062
LJ          0.657321        -2.06986        0.960064
LJ           2.51145        -1.48918         2.37863
LJ           2.11296         1.85465        -1.72322
LJ          0.974081        0.914406         2.38921
LJ           2.02861         2.51267     -0.00344127
LJ         -0.390033      -0.0512252        -1.80706
LJ           -2.5135        -1.42065        -1.11238
LJ          -1.25026        0.987777        0.930562
LJ          0.682711         1.32744        0.606652
LJ         -0.254588        -2.20043        -2.37916
LJ              -nan            -nan            -nan
LJ         -0.895116        -1.45419        -1.27094
LJ          -2.22883         1.43419        0.772309
LJ          0.968585       -0.451751         2.32734
LJ           1.76835        -1.41087        0.215822
LJ         -0.019205        -0.38703       -0.309319
LJ           1.17036         -1.2862         1.33838
LJ            2.5495         1.09691        -1.89963
LJ          -1.04302       -0.466448         2.36431
LJ          0.764224        -2.11307         2.26546
LJ          0.194801       -0.463738         2.23913
LJ          0.397627         -1.9544        -1.64693
LJ           -1.5697       -0.547354         1.37574
LJ          -2.55566        -2.19562        -1.09684
LJ         -0.695936         1.20013         1.23669
LJ         -0.167149         1.14172          1.5442
LJ         -0.375442        -1.89848        -1.73026
LJ           2.13785         -2.5145        -2.21406
LJ           2.53674         1.38396       -0.374567
LJ          0.762686        -1.30365        0.164928
LJ           1.47933        -1.96043        -2.04399
LJ          -2.49341        0.565245        0.839275
LJ           1.83683        -1.94968       -0.260518
LJ              -nan            -nan            -nan
LJ          0.969606        -2.35504      0.00237573
LJ          0.212091         2.21717        -1.19735
LJ           2.14193         1.10844         1.60661
LJ          -2.49649        -1.61856        0.691345
LJ          0.688058        -1.51001        -1.66056
LJ           2.42716        0.879096       -0.246741
LJ          -1.94409        0.326092        -1.66903
LJ          -1.39542       -0.740004         -2.4309
LJ           1.33367         1.26158        -2.31787
LJ          0.202356       0.0582826         1.21306
LJ         -0.282392        0.331446       -0.829469
LJ          -1.73059        0.545378       -0.192215
LJ          0.719384         -1.0863        0.745097
LJ          0.345292        0.699645        0.154765
LJ           -2.2302       -0.687398         2.10931
LJ        0.00936168         -1.4074        -1.27477
LJ              -nan            -nan            -nan
