108
#Comment!
LJ           1.20167       -0.607021        -2.11711
LJ           1.14381        -1.29512        -0.24797
LJ            0.3812        -1.29902        -2.39392
LJ           2.13321       -0.120544        0.535457
LJ          -1.81245        -1.32417        -1.78722
LJ            1.2478        -1.21316       -0.666095
LJ          0.908872       -0.524447       -0.123021
LJ          -1.40425        -2.16202        -1.71466
LJ           1.20993       -0.404784       -0.767232
LJ           2.24619       -0.760878        0.557899
LJ              -nan            -nan            -nan
LJ         -0.254127         1.24177       -0.326518
LJ           0.54481        0.781396        -2.05639
LJ              -nan            -nan            -nan
LJ          -2.05929       -0.391054       -0.927792
LJ              -nan            -nan            -nan
LJ              -nan            -nan            -nan
LJ              -nan            -nan            -nan
LJ           1.39448         -1.3232         1.02776
LJ              -nan            -nan            -nan
LJ         -0.637694        0.314306       -0.301597
LJ          -1.36271        -1.07479         1.12905
LJ           1.55287         2.39191       -0.225094
LJ              -nan            -nan            -nan
LJ          0.854862        -2.02028        0.750367
LJ         -0.495011        -2.01666        -2.46398
LJ          0.692756         0.42824          1.2388
LJ          -2.54144         1.09083       0.0168796
LJ           1.99083        -1.28318         2.40164
LJ          0.311697        -2.31237        0.211954
LJ              -nan            -nan            -nan
LJ          -2.04475         1.28739       -0.613461
LJ              -nan            -nan            -nan
LJ          -0.31282       -0.162939         1.32137
LJ              -nan            -nan            -nan
LJ          -1.96795       -0.646397         0.40672
LJ           1.33099      -0.0530553        -1.56715
LJ          -2.03692       -0.461238        0.838018
LJ          -0.43429         1.59401        0.741195
LJ           1.67117        0.731086        0.454307
LJ          -1.32381       0.0798549       -0.199021
LJ         -0.849341        -1.19233       -0.414299
LJ          -1.93981       -0.651242         2.27842
LJ           -2.0371         -2.1772        -0.43568
LJ       -0.00951303         -1.5787         0.98054
LJ         -0.833366        -1.58091         2.35325
LJ           2.49082         1.70531        0.807111
LJ          -1.21596        0.892278         -1.8735
LJ           2.25119         2.51904         2.13102
LJ           2.37502         1.09674      0.00684964
LJ           2.31385        -1.22655        -1.75016
LJ           1.63643        0.698445      -0.0562563
LJ              -nan            -nan            -nan
LJ          -1.45313        -2.36766        -2.43015
LJ         -0.972707        -1.27264        -2.16053
LJ         -0.426319         2.44036       -0.229236
LJ           -1.7285         1.59804        -1.73504
LJ           -1.9033       -0.302681        0.898177
LJ          -1.70947        -1.77347        -2.21786
LJ          -2.56347        -2.21915         2.12266
LJ            0.9838        -1.18818       -0.900449
LJ           2.49467        -1.45169        -1.22353
LJ         -0.984283         1.88062        -2.41478
LJ              -nan            -nan            -nan
LJ              -nan            -nan            -nan
LJ          0.101386        0.875122        -1.30114
LJ         -0.642606      -0.0848851        -1.08372
LJ              -nan            -nan            -nan
LJ          0.956266       -0.760553          -1.696
LJ          0.100682         1.76003        -0.81364
LJ          -2.08327        -1.44671       -0.251073
LJ        -0.0150601       -0.551705         2.28868
LJ           1.65212       -0.926511         1.10711
LJ         -0.645218        0.103488        -1.37428
LJ           2.21834        0.537362         1.70896
LJ         -0.840727        -1.97398         1.20333
LJ          0.538325        0.997713        -1.48121
LJ           1.12077        -0.36548        0.306798
LJ           1.45032        0.256832        0.897854
LJ           1.46767          1.9923      -0.0650656
LJ        -0.0847005       -0.189781        0.159756
LJ         -0.910102         1.26444        -2.55949
LJ          0.878871         1.08647        -2.34029
LJ           1.61696         2.30179         -1.6909
LJ         -0.845231       -0.198575         1.25473
LJ          -1.69862         1.30499         2.53351
LJ            2.2278        0.817479        -1.82231
LJ          0.943168       -0.972683        0.384587
LJ         -0.476168         1.60452         1.26238
LJ          -1.15738          2.3885       -0.893166
LJ              -nan            -nan            -nan
LJ           2.13109        -2.19938      -0.0404927
LJ          -2.40002       -0.557346         1.35243
LJ           2.06108        0.313317        0.260464
LJ          -1.78578         2.51916        -2.25697
LJ           1.87261         2.23463         1.18064
LJ         -0.240067       -0.724227       0.0138709
LJ        -0.0305027        -2.16283        -2.46918
LJ              -nan            -nan            -nan
LJ          0.654889        -1.91538         2.06655
LJ           2.49424        -1.41542        -1.09409
LJ           -1.6005         1.09966         1.23951
LJ          0.381285         -1.8725        -1.58458
LJ           0.70535          1.3386        -2.25895
LJ              -nan            -nan            -nan
LJ         -0.267278       -0.383377        0.309348
LJ          -1.97588         2.18646       -0.656369
LJ              -nan            -nan            -nan
