108
#Comment!
LJ         -0.824483        -1.56563         1.03577
LJ            1.1255         1.86797       -0.421531
LJ          0.981776        -1.54916         -1.0937
LJ          0.124764       -0.130813         1.71552
LJ          -0.82821        -2.48797         1.14238
LJ           1.35855        0.348888       -0.306719
LJ          -1.58809        0.395128        -1.42321
LJ           2.11118       -0.914666         1.93413
LJ          -2.47138         2.33704       -0.368027
LJ          -1.74195         2.52562        0.939292
LJ              -nan            -nan            -nan
LJ          0.713893        -1.36439       -0.154447
LJ          -0.54034       -0.232103         -0.5197
LJ              -nan            -nan            -nan
LJ          0.512874       -0.844318         1.01328
LJ              -nan            -nan            -nan
LJ              -nan            -nan            -nan
LJ              -nan            -nan            -nan
LJ         -0.520388         1.82544       -0.129603
LJ              -nan            -nan            -nan
LJ         -0.567398        -2.53776        0.569513
LJ          -1.86031         -1.5616         0.31903
LJ          -1.29989       -0.943847         1.71367
LJ              -nan            -nan            -nan
LJ         -0.942097         1.52418        0.343776
LJ           2.09285       -0.877179         0.16693
LJ          0.641619       -0.493464       -0.401513
LJ         -0.381155         1.24481         1.38775
LJ          0.435491        -1.05961       -0.698454
LJ           1.08605         1.29488       -0.258655
LJ              -nan            -nan            -nan
LJ          -1.30922         -2.5551         1.62291
LJ              -nan            -nan            -nan
LJ          0.368749         1.11779         1.37977
LJ              -nan            -nan            -nan
LJ         -0.350769       -0.231378        -2.01328
LJ          0.511121        -2.29141        -2.45175
LJ          0.401373       -0.712155        -1.57476
LJ          0.285321         -1.2882         1.88184
LJ         -0.248861         1.15311         1.86531
LJ          -1.20006         1.55858       -0.108934
LJ           2.52801        0.138971          2.0189
LJ           1.90019        -2.23294        0.720234
LJ          -1.80516         2.28136         1.13459
LJ           1.25586        -0.30296        -2.35475
LJ          0.679062         1.92861         1.84839
LJ          0.162183         2.18611         1.29301
LJ          -1.84834       -0.660851         1.35046
LJ          0.265844        0.150969        -1.45047
LJ          -1.16085          1.2115         1.70862
LJ           1.34823         -1.6188        0.428913
LJ         -0.136714       -0.947217       0.0780206
LJ              -nan            -nan            -nan
LJ          -1.75829        -1.82756        0.918602
LJ          -2.19616        -1.39963        -2.43884
LJ         -0.117223        0.772852       -0.381356
LJ          -2.21543         1.99043        -1.79286
LJ          -2.08734         1.00351        -1.25058
LJ          -1.94412        -1.44437         2.27853
LJ           1.72415       -0.360417       -0.934072
LJ           1.11253         1.71108        -2.16674
LJ          -1.70919        0.759013       0.0117989
LJ           -1.8266        0.933905        -1.19244
LJ              -nan            -nan            -nan
LJ              -nan            -nan            -nan
LJ         -0.828926        -2.07798        -1.26338
LJ          -1.13641         -1.9802         2.16114
LJ              -nan            -nan            -nan
LJ         -0.827734         1.84066       -0.144652
LJ           1.27875        -2.41353         2.05359
LJ          0.175666         1.63158        -1.13004
LJ           2.15748         1.31699          1.0388
LJ          -1.76559        0.804912        -2.42286
LJ          -1.72197       0.0940614        -1.11628
LJ           1.05053         2.46757         1.06585
LJ           1.51631        -2.02686        0.348851
LJ         -0.916609         1.30695        -1.84989
LJ           1.48944         0.43936       -0.291018
LJ           1.13095        0.999707         2.03981
LJ           2.54974       -0.351001       -0.134875
LJ         -0.103475        -1.58681        -2.39688
LJ           1.73031         2.12201         2.20753
LJ          0.969352         2.08453        -1.27324
LJ         -0.205599         -1.1457        0.315617
LJ           2.14156        0.155731        -1.41924
LJ           1.18494        -2.52859        0.474584
LJ           1.26061         1.26115          2.3906
LJ           1.51824        0.190645         2.31171
LJ          -1.22017        -1.39739         2.24941
LJ          -2.34446        -1.96524         1.96349
LJ              -nan            -nan            -nan
LJ          0.711184       -0.312993        -1.61069
LJ          -2.10256         2.43284          2.5466
LJ          -1.50957         1.52247         2.50067
LJ           1.00944       -0.835706         -1.9986
LJ         -0.724059        0.147563        -1.04093
LJ         -0.596196         1.65149        0.902481
LJ         -0.191426        0.163081        -2.41703
LJ              -nan            -nan            -nan
LJ           2.00968         1.37152         0.81016
LJ           1.40839        -0.92021         2.23703
LJ          0.511921        0.849904        -1.82621
LJ           1.92155        -2.24662        -2.15364
LJ           2.16861        -1.46642        -0.85224
LJ              -nan            -nan            -nan
LJ         -0.887763        -1.49832        -2.36257
LJ           2.48352         1.78673        0.149855
LJ              -nan            -nan            -nan
