108
#Comment!
LJ         -0.187682         2.01445      -0.0769497
LJ          -2.32722        0.543915        -1.76301
LJ           2.54225          0.5154        -1.40357
LJ         0.0506347         2.27194         -1.2521
LJ          0.698011        -2.08583        0.608551
LJ          -1.05453         1.32093         1.87508
LJ         -0.561155         -1.6508         1.92677
LJ           1.83774         2.00135        0.602812
LJ         -0.353457         1.45869         1.03114
LJ           2.16615        -2.01824        0.871601
LJ              -nan            -nan            -nan
LJ           2.03828       -0.764696        -1.78747
LJ          0.210808       -0.152991         2.10464
LJ              -nan            -nan            -nan
LJ           1.38725          1.7196         0.32256
LJ              -nan            -nan            -nan
LJ              -nan            -nan            -nan
LJ              -nan            -nan            -nan
LJ          -1.32505        -1.33864        0.479263
LJ              -nan            -nan            -nan
LJ           1.82015        0.709965         2.01225
LJ          0.381608       -0.610149         2.20146
LJ          -1.30446        -1.07601        0.276914
LJ              -nan            -nan            -nan
LJ          -1.07529         1.78718       -0.125823
LJ           2.07729         1.26206       -0.511712
LJ          0.116338       -0.652371         1.99328
LJ          0.934743       0.0390776        0.402961
LJ          0.395571        -1.57689        -2.04523
LJ           0.38432         1.76224         1.82245
LJ              -nan            -nan            -nan
LJ           1.97493        0.899428        -1.46604
LJ              -nan            -nan            -nan
LJ           1.55057        0.191883        -2.48892
LJ              -nan            -nan            -nan
LJ          -1.13736        -1.67724        -2.36575
LJ          -1.70583       -0.701355       -0.281239
LJ          0.642407         1.65554         1.69624
LJ          -0.99516        0.128517       -0.138332
LJ          -2.12559        -1.70436       -0.483972
LJ          -1.27384       -0.354312         1.52213
LJ          0.705156        -1.83662          1.1809
LJ          0.618542        0.763594        -1.84828
LJ          -2.10148        -1.31791        -2.54607
LJ         -0.359558      -0.0343582       -0.194011
LJ         -0.105416         1.72634         1.81721
LJ          -2.50166        -1.86497        -1.28125
LJ          -1.30638        -2.28732          -2.505
LJ           1.03423        0.642843         1.56414
LJ          0.148761        -1.37456         2.51494
LJ           1.05466        0.307428         0.25862
LJ          -1.09798          2.3583         1.58395
LJ              -nan            -nan            -nan
LJ          -1.94939         2.13018         2.41872
LJ         -0.540804          1.3325        -2.47411
LJ           2.38159         2.26408         1.72247
LJ          -1.76709          1.7988         2.15605
LJ          0.523658        0.337955         2.17692
LJ           1.26143         1.34925       -0.329176
LJ          -1.76336         0.37993         2.51102
LJ          -2.10035          1.4956       -0.853623
LJ         -0.709421         1.58172       0.0541177
LJ          -2.47144       -0.850209        0.580357
LJ              -nan            -nan            -nan
LJ              -nan            -nan            -nan
LJ          0.243794         -1.7923         1.13278
LJ          -1.03087       -0.925855        -2.26871
LJ              -nan            -nan            -nan
LJ        -0.0152402         1.02967        -1.06299
LJ          -1.44061         2.14556          2.4673
LJ           1.12861        -1.92147          -1.842
LJ          0.105324         -1.8721        -2.55112
LJ         -0.078315         1.11055        -1.45126
LJ          -2.30511       0.0506733        0.743958
LJ           1.00734         2.16154         1.40975
LJ          -2.37879         1.49633        -2.53886
LJ         -0.731678         1.44721        -1.94352
LJ          -1.49926         -2.1649         2.20985
LJ          -1.31984        0.769255          -1.798
LJ          -2.33551        -2.08469        -1.04074
LJ           1.87887        -1.80821         1.84379
LJ            1.5935       -0.599431         1.86819
LJ          0.958754        -1.34579         -1.1541
LJ           1.52631         1.10566        -1.35543
LJ          -1.96864         2.35703        -2.33547
LJ         -0.735429        -2.32325         0.94826
LJ         0.0422103        0.373644       -0.604571
LJ          -1.11832        -1.48319         0.62306
LJ          0.904233        -0.47204         1.30937
LJ           -2.0858          1.2775       -0.871377
LJ              -nan            -nan            -nan
LJ          0.331118        -1.27699         1.60278
LJ           -1.7112         1.84776        -2.19011
LJ          -1.74189         0.81972       -0.457142
LJ           1.12311         1.73942            2.19
LJ           1.06532         2.23255        -1.56384
LJ          -0.59558       -0.995063       -0.257463
LJ         -0.607274         1.69448         1.28817
LJ              -nan            -nan            -nan
LJ           -1.2761         1.71345         1.65096
LJ          -1.12534         1.79947        0.680398
LJ          -2.28092        0.374363         2.18504
LJ          -0.56698       -0.564166        -1.38435
LJ          -1.67751        -1.56032          0.6552
LJ              -nan            -nan            -nan
LJ           1.69708         2.35201        -1.56785
LJ          0.685432         2.49919        -1.34164
LJ              -nan            -nan            -nan
