108
#Comment!
LJ          -1.56312        -1.43731        0.305537
LJ          0.759235        0.882781         2.28219
LJ          0.415215         2.48609          1.3522
LJ          0.187376       -0.102457         2.13022
LJ           1.88807        -1.32194         0.28737
LJ           1.75465        0.741627        -1.23713
LJ            2.1028        -1.18641       -0.692068
LJ          0.396082         -2.3366         1.26002
LJ          -1.50705        -1.31709      -0.0259218
LJ           1.70314         -1.4335        -1.12731
LJ              -nan            -nan            -nan
LJ          0.663012         1.87938         1.06176
LJ          -1.10463         1.72681       -0.281528
LJ           1.07466        -2.19357        -1.22912
LJ          -1.09384        0.101171        0.477652
LJ          -2.16569        -1.25093       -0.960126
LJ          0.219823        0.890505        -2.40208
LJ           2.55052         1.81928        -1.78433
LJ           1.51066        0.918745        -1.07311
LJ           1.35965      -0.0501907       0.0888254
LJ           -1.2985         0.59747        -0.54122
LJ          -1.45511         2.13551       -0.908851
LJ            -1.237         1.30047       -0.518393
LJ          -1.44174        0.738545         1.93442
LJ         0.0947177        0.240014       0.0796376
LJ          -0.67674        0.956096         1.04494
LJ          -0.19632        -2.11458        -1.50456
LJ          -1.69412         1.12935         1.36242
LJ           1.72281        -1.70258         2.18448
LJ          -2.04665        -2.11042        -1.96366
LJ          0.519247        -1.15845       -0.646833
LJ          -1.80682        0.335976        -2.19837
LJ              -nan            -nan            -nan
LJ         -0.383568       -0.996422       -0.139487
LJ         -0.528266        -1.06798       -0.974587
LJ         0.0356939        0.346557       -0.838916
LJ         -0.469842        -1.38138        0.984324
LJ          -1.68984        -2.08454        -1.95482
LJ          -0.50825        -2.21276         1.42911
LJ           -1.5086       0.0337547         2.49165
LJ           1.73122        -2.51543         1.20425
LJ          -1.04022        -1.34405        -2.11726
LJ           2.54517         1.48726        -2.21399
LJ          -1.40842        -1.51081         1.43915
LJ          -1.30166        0.452906      0.00661189
LJ        -0.0416853        -1.65758        0.821878
LJ           1.64404        0.463966         1.77757
LJ           1.77262        -1.41082         2.17293
LJ          -2.22355        -2.56436        0.153539
LJ          0.178363         1.59546         2.27874
LJ          -2.48409        0.977426         2.26915
LJ           0.60682       0.0789196        -2.13659
LJ           1.05342          1.7955        -2.32472
LJ           0.88135         1.86461        -1.08565
LJ           1.23689        -2.33255         0.85057
LJ           1.07193       -0.167323        0.881241
LJ          -1.03777        -1.22484        0.652758
LJ           1.27308        0.382886        -1.46646
LJ            2.4802        0.556466          1.0497
LJ         -0.799073         1.04184       -0.531948
LJ          -1.48504         1.17517        -1.15681
LJ         -0.423529       -0.374633         -1.2218
LJ          -2.56388       -0.837906         2.33669
LJ         -0.759156        -2.04364         2.30203
LJ           2.07156         1.77579         1.08096
LJ          -1.56661         1.40325       -0.657789
LJ         -0.261292        -2.25784          2.1211
LJ          -1.27895         1.82719        -1.45395
LJ           1.58316        0.880992         1.38438
LJ           2.32035        0.546239       -0.320586
LJ          -2.40681       -0.201062         1.29056
LJ         -0.991063        -1.84081         1.89556
LJ           1.14592        -1.51313       -0.845631
LJ          0.900624         0.84264        0.635354
LJ          -2.31846        -1.10776       -0.737665
LJ          -1.49392        -1.75002         2.33725
LJ         -0.271397         1.11385        -1.11986
LJ          0.288158        0.531023          2.3052
LJ          0.721496        -2.36196         1.94194
LJ          0.818981        -2.12126        -2.07306
LJ           2.53614        -1.18648       -0.390479
LJ           1.26891         2.09073          1.3878
LJ           1.40817        -2.11546       -0.283534
LJ           0.44105       -0.760981         2.23553
LJ          -1.17224       0.0660667        -1.62522
LJ           1.38116        -1.46507       -0.603806
LJ           1.25308         1.27808       -0.901717
LJ           2.15543       -0.462499         2.03208
LJ          -1.41093       -0.548838        -1.55545
LJ         -0.163865       -0.854074       0.0862375
LJ         -0.814025        -0.24142        -1.80687
LJ            1.0723        -1.65541         -2.1276
LJ          -1.24466         2.53958       -0.221892
LJ          -1.39047        -1.64668         2.26531
LJ          -1.51645        -2.03037         1.64713
LJ          0.168855         2.41525        0.556065
LJ          0.496122         1.15554         1.10066
LJ           1.47518      -0.0354096        0.878267
LJ           1.30403         2.34854       -0.256752
LJ          -2.12167        -1.91385         2.47767
LJ           -1.8317        -1.62858       -0.244996
LJ         -0.631554        -2.50468        -1.60704
LJ          0.813569        0.748458       -0.106285
LJ         -0.260253        0.970234        -1.97859
LJ          -1.54775          2.4668       -0.460322
LJ         -0.869687       -0.964504        -0.15545
LJ           -1.7024        -2.13157       -0.503714
LJ          -1.24539        -1.94496         1.38242
