108
#Comment!
LJ          -1.66136        -2.28208         1.59992
LJ          0.630702       -0.377878        -1.97667
LJ           1.14442         1.77713        -1.40221
LJ         -0.324809        0.770293        -1.20967
LJ           1.00151         1.02746        0.697497
LJ           0.89856         1.03127        -1.10814
LJ          -2.17447        -2.00594         1.61925
LJ          -1.76164         1.92134      -0.0684933
LJ          -2.00946       0.0473516       -0.868933
LJ          -1.56826         2.54507        -1.34536
LJ              -nan            -nan            -nan
LJ          -1.57505         2.35326        -1.92004
LJ         -0.259239         0.56948        0.747158
LJ            1.6346         1.02062       -0.151634
LJ            1.3279         2.40821        -2.14954
LJ          0.538652        -1.51031        -1.92574
LJ              -nan            -nan            -nan
LJ              -nan            -nan            -nan
LJ           1.65258        -2.24671        -1.78553
LJ              -nan            -nan            -nan
LJ           2.16068         -2.4576        0.802808
LJ           -1.1594        0.365738         1.53654
LJ             1.616        0.434239         1.29433
LJ           1.25859        0.600238        -1.65746
LJ          0.643055        0.789087        -2.41695
LJ          -0.53291        -2.05545         1.53223
LJ          0.610916          1.3999        -1.79835
LJ          -2.37952         1.29865       -0.742291
LJ          -1.35749        -1.98818         1.90484
LJ         -0.332806       -0.595577        -2.21009
LJ          -1.82577         1.14407       -0.996389
LJ          -2.52529        0.261286         1.38889
LJ              -nan            -nan            -nan
LJ       -0.00289733        -2.49582         2.01948
LJ              -nan            -nan            -nan
LJ          -1.58863        -1.28216        -2.28755
LJ           2.26124        -2.47575        0.717297
LJ           1.72242         1.73316       -0.860632
LJ           1.47144        -1.04177         2.13028
LJ          -0.88904        -1.73514    -0.000436849
LJ           2.44645         2.01568        -1.35322
LJ          -2.29632         2.49839         1.80518
LJ           1.58639        -1.19353        -2.28536
LJ           2.51759       0.0171317       -0.331369
LJ           1.50355        -1.06348       -0.192621
LJ           2.37679        0.874095         1.95602
LJ           1.93896        0.352111        -2.11422
LJ          -1.35165        -2.29822          0.4449
LJ         -0.228254         2.04971         1.37918
LJ         -0.622655          1.8373        -1.45839
LJ           1.56089         2.42164         -2.5641
LJ           2.28867        0.887916       -0.741777
LJ              -nan            -nan            -nan
LJ          -1.95136         2.47812         2.50964
LJ           -0.1563         1.57472       -0.906825
LJ          0.349889         1.04707        0.727041
LJ           1.62502       -0.305888         1.65713
LJ          -1.50014       -0.804704        -2.11716
LJ           2.39315       -0.984938         2.19585
LJ          -1.78399       -0.571307        -1.26045
LJ         -0.409755         2.33493         2.03045
LJ          0.803516         -1.3565         2.17988
LJ          0.810687        0.950814         1.34103
LJ           2.29909        0.778358        -2.07073
LJ           1.49616         1.88295        -1.73027
LJ          -2.06899      -0.0399667       -0.314964
LJ         -0.190971       -0.240192       -0.817995
LJ              -nan            -nan            -nan
LJ           2.02285        0.447464         1.74013
LJ          -2.19356        -2.41865         2.26543
LJ            2.2989          2.5571         2.27744
LJ           2.47382          1.1351         2.15642
LJ           2.09711        -1.14369        -1.32942
LJ           2.22769        0.335654         2.20019
LJ          -1.48139        -1.57356       -0.418981
LJ          -1.43386        -1.81269      -0.0300943
LJ         -0.131782         -1.2888       -0.961854
LJ          -2.55989         1.06128         1.49427
LJ           1.60424        -2.18233       -0.763668
LJ           1.61518        0.632863        -2.38158
LJ          -1.92439        -0.74499        -1.88146
LJ           2.15763         1.12339        -1.19049
LJ          -2.44644       -0.241672         1.55495
LJ           2.00878        -1.66174       -0.564683
LJ          0.434455        0.368603          2.4652
LJ           1.12328         2.42794         1.37154
LJ         -0.785236        0.848893        -2.54733
LJ         -0.715035         2.56315         -1.8388
LJ          0.616886         1.43352       -0.838919
LJ           1.37016       -0.938377        0.610036
LJ              -nan            -nan            -nan
LJ           2.28572        0.134199        -1.60951
LJ          0.558797        -1.82188         2.51825
LJ          -1.91872         -1.7567         2.16241
LJ          -1.83184        0.265428         1.82719
LJ          -1.01333         2.15472        -1.28292
LJ           1.03045        0.298134         2.37179
LJ          0.738221       -0.470304         2.15697
LJ         -0.846561        0.409155        0.441775
LJ         -0.728832       -0.217053         0.41496
LJ          -1.04614         -1.6941        0.703305
LJ           1.42521        0.877116       -0.537228
LJ           1.81697       0.0721918        0.467713
LJ           2.45648        -1.77334       -0.336755
LJ         -0.980954         1.10471        0.131412
LJ          -2.22532         1.63943           1.432
LJ         -0.572606        -1.71727         2.54465
LJ              -nan            -nan            -nan
