108
#Comment!
LJ           1.26807         1.11741          1.0683
LJ          -1.68246         1.77758         1.85802
LJ         -0.106164         2.13697        -2.41202
LJ         -0.711085         2.00005       -0.669493
LJ           1.89823         2.02012        0.439062
LJ           1.32928        0.157223         1.19037
LJ          0.477039        0.128048         1.22986
LJ         -0.363875        -2.08975        -1.83124
LJ          -2.43282        0.686789          2.4338
LJ            1.6594       -0.330851      -0.0446198
LJ              -nan            -nan            -nan
LJ           1.95725         2.18283         2.43507
LJ          0.447148        0.563214        -1.27854
LJ          -1.12899        0.794496         1.38454
LJ          -1.94308      -0.0169987         1.43989
LJ           2.05544        -0.91583         1.34851
LJ              -nan            -nan            -nan
LJ              -nan            -nan            -nan
LJ          -2.43597       -0.479672        -1.17394
LJ              -nan            -nan            -nan
LJ          0.627658        -1.87117       -0.827571
LJ          -2.05392        0.153995         1.44263
LJ           1.77078        0.161947        -2.12679
LJ          -2.19823        -1.30923        -1.59683
LJ          -1.54916         2.28108        -2.43702
LJ         -0.272136        0.233366        -2.07739
LJ          -2.38592        -2.14064        0.492911
LJ          0.690235        -1.92697        -1.84446
LJ           2.19054       -0.269508        0.321077
LJ         -0.978509         1.09016         2.03624
LJ          -1.35164         1.11907         1.81234
LJ         -0.394782        -1.68407          0.9418
LJ              -nan            -nan            -nan
LJ          -1.26207         2.44613        -0.42281
LJ              -nan            -nan            -nan
LJ           1.21108        0.768274         1.53509
LJ          -1.60842        -2.44103         1.59825
LJ          -1.09891        -2.36767         -1.3007
LJ          -2.29651         1.08048         1.51633
LJ           0.43227         2.29671        -1.72692
LJ           2.22426        -1.99359       -0.484207
LJ          -1.66893       -0.663956         1.61008
LJ           1.03929        0.581361        -1.33857
LJ         -0.778801         2.24505        -0.38747
LJ         -0.291823        -1.09308       -0.114085
LJ         -0.337157       -0.876503        -1.93381
LJ           1.55938         0.39622         1.16437
LJ         0.0878413        0.502958         0.91686
LJ          -1.86149        0.877825         1.47999
LJ          0.797706         1.02571       -0.120818
LJ          -2.11833        -1.23095        -1.79196
LJ          -1.97425         1.97747        -1.06528
LJ              -nan            -nan            -nan
LJ           1.61571      -0.0856581         1.25654
LJ         -0.769201          2.1587        0.378708
LJ           -1.3655       0.0945439       0.0406875
LJ          0.228417       -0.211238        -1.38077
LJ            1.7488         2.23767        -1.58164
LJ           1.20924        -1.08143       -0.688213
LJ           -2.0742         2.45632       -0.211473
LJ         -0.109952          1.5823         1.53904
LJ          -1.34155         1.61461        -1.81788
LJ           2.31462         1.19915        -2.27735
LJ          0.769876        -1.24519         2.29504
LJ           1.81594        -1.38426       -0.922127
LJ            2.2627       -0.313947       -0.801343
LJ           1.77412         1.42299        -2.29716
LJ              -nan            -nan            -nan
LJ          -1.29246       -0.599981        -2.25347
LJ          0.174326        -1.56324       -0.605869
LJ           0.92447       -0.529085        0.413932
LJ           2.05203         2.06219          -2.146
LJ           1.13472          2.2396        -0.78202
LJ        -0.0832397         2.24676        -2.35261
LJ           2.47588         1.71731       -0.452073
LJ         -0.601306        -2.19066         -2.3195
LJ         -0.497912        -2.40839        -1.84769
LJ          -2.47912       -0.895302        0.831123
LJ           1.17718       0.0061552        0.589464
LJ         -0.129575         2.38473       -0.819055
LJ            1.4029         -2.1333        0.258765
LJ          -1.22631        0.837931       -0.968799
LJ          -2.55739        -1.11461           1.503
LJ          -2.24822        -1.33735       -0.704731
LJ          -1.79923        0.272816         2.38853
LJ        -0.0602762        0.466383       -0.255922
LJ         -0.261125      -0.0945434        0.745471
LJ          -0.87055        -1.88373         1.72631
LJ           1.82937          1.5286        -1.04837
LJ         -0.984592        0.758289        -1.02501
LJ              -nan            -nan            -nan
LJ          0.299354       -0.465752        -1.01277
LJ           2.53801        -1.69674        -2.08999
LJ         -0.526768        0.993969       -0.147513
LJ           0.82145        -2.06807        -2.48693
LJ          -1.68325       -0.203422        0.126969
LJ            2.4209        -2.43824         2.08854
LJ           1.63636        -1.29802       0.0703212
LJ          -1.66708         2.20489        -2.36224
LJ          -1.88044        -1.30012       -0.986364
LJ         -0.346406         1.85829        -1.06609
LJ            2.1573        -1.89556         1.58866
LJ          -1.36765        -1.30769       -0.823121
LJ            2.0189       -0.400256         2.07356
LJ           1.82597       -0.566733         0.73443
LJ         -0.980784         -0.7053       -0.573855
LJ          0.369497       -0.567634         1.99025
LJ              -nan            -nan            -nan
