108
#Comment!
LJ          0.367733        -1.00783         1.98527
LJ           1.76271        -1.57201        -2.47432
LJ          0.278779       -0.680855        -1.11334
LJ          -1.97053        0.992207       -0.844212
LJ          0.997416         1.72044       0.0113073
LJ          -0.33389        -2.37327       -0.504356
LJ          0.768233       -0.375757        0.139344
LJ          -1.31383         1.10572       -0.725722
LJ          -1.43305         1.97293        -1.18595
LJ           2.39487         0.31999        -1.65466
LJ              -nan            -nan            -nan
LJ          0.813075        0.916182        -2.19209
LJ           1.67313         2.02031        -1.05025
LJ              -nan            -nan            -nan
LJ           2.05389        -0.15199        0.770426
LJ              -nan            -nan            -nan
LJ              -nan            -nan            -nan
LJ              -nan            -nan            -nan
LJ           -2.0672        -1.42161        -1.56113
LJ              -nan            -nan            -nan
LJ          -1.86239       -0.276549         1.24848
LJ          0.546072        0.688421         0.46784
LJ           1.72986         1.19387        -2.31212
LJ              -nan            -nan            -nan
LJ         -0.347981       -0.232579       -0.565843
LJ          -2.19953         -1.8181       0.0398472
LJ          -1.37764        0.864542          0.1379
LJ          -1.69237        -1.03023         1.73627
LJ          0.133451         1.77284       -0.120232
LJ          -0.79645          1.5792        0.123231
LJ              -nan            -nan            -nan
LJ            1.3765         1.08443      -0.0787072
LJ              -nan            -nan            -nan
LJ           1.83314         2.15467        -2.28104
LJ              -nan            -nan            -nan
LJ          0.905267          1.2182          1.1223
LJ         -0.603923        -1.35727       -0.240097
LJ          -1.51622        -1.87951        -1.48963
LJ          -1.00357         -2.2798        -2.16625
LJ           1.23983         2.07839         0.36885
LJ           1.53093        -1.20682         2.55242
LJ          -1.18235        -2.29599           1.416
LJ            2.1669       -0.638343        0.110671
LJ          0.713493         1.77969        0.115319
LJ           2.01056         2.42034        0.603027
LJ           1.75473      -0.0970245        0.285124
LJ          -1.78163        -2.47729        -1.49331
LJ           2.29225          1.9542       -0.250158
LJ          -1.32929        0.321447         1.18111
LJ           2.21002       -0.218061         1.37273
LJ          -1.72962        -1.50225         1.08445
LJ           2.24142        -1.53056        0.399217
LJ              -nan            -nan            -nan
LJ          0.365303        -1.33193        -1.10483
LJ           2.05275         1.97134       -0.202086
LJ         -0.616928        -2.17152        0.984623
LJ          0.414716         2.05823        0.836822
LJ           2.27338        0.685659       -0.853112
LJ          -1.50855        0.865389        -1.88246
LJ          0.965394         2.35852       -0.437624
LJ         -0.892678         -1.2986       -0.728296
LJ           2.01816        0.399189        -2.16773
LJ           0.40165         0.99587           1.201
LJ              -nan            -nan            -nan
LJ              -nan            -nan            -nan
LJ          0.795248        0.989576       -0.247149
LJ         -0.274234         2.02769         1.47448
LJ              -nan            -nan            -nan
LJ         0.0573171        -1.98161         -2.2044
LJ            2.3175        0.943334         1.02537
LJ         -0.743713        -0.10744         2.17855
LJ          -2.51906         2.43478        -1.42761
LJ           1.50338         2.28134         1.50154
LJ           1.86017        -2.52706         0.49279
LJ         -0.915163       -0.217608         1.89572
LJ           -1.1676        -1.35317        -1.26115
LJ         -0.290222        -0.45512         1.13998
LJ          -2.13519       -0.491479        -2.35724
LJ            -2.216          2.3479        -1.35616
LJ          -2.19769           2.558        -2.36746
LJ           2.41084        -2.56395        -1.86388
LJ          0.512362        -1.51813        0.614243
LJ          0.225379        0.189147         1.37793
LJ          0.158088       -0.282954        0.932003
LJ         -0.736723         1.23223        -1.11024
LJ           2.50498         1.95744       -0.621818
LJ         -0.947437        -2.11131      0.00220925
LJ           1.12948         1.73029         1.24982
LJ         -0.647772         2.55244          1.6506
LJ          -2.38922        -1.02674        0.306593
LJ              -nan            -nan            -nan
LJ           1.24435       -0.239654        0.235796
LJ         0.0587648        -2.27364        0.178789
LJ           0.87766       -0.372675          1.3194
LJ           1.39985       -0.923914        0.571688
LJ          -2.47493         1.54562         1.57545
LJ          -1.04248       -0.752799        -1.18643
LJ           1.05423        -2.14554        -1.32313
LJ              -nan            -nan            -nan
LJ         -0.856673        -1.46827          -2.074
LJ          0.609068       -0.384675         2.19735
LJ         -0.183896         1.37042        -2.00414
LJ          -0.76958       -0.998633        -2.41678
LJ           2.51639         1.29581         1.43626
LJ              -nan            -nan            -nan
LJ             -1.54         1.35574         1.54327
LJ          0.483176         2.16712       -0.283543
LJ              -nan            -nan            -nan
