108
#Comment!
LJ          -1.40326        0.462025        0.332458
LJ          0.885449        0.992533         2.41804
LJ        -0.0645888         -1.7125       -0.753192
LJ          -1.17006        -1.46685        0.818855
LJ          -1.81758        -1.06706        0.669254
LJ           -2.4577         2.45685       -0.934577
LJ         -0.047056         2.37513        -1.56902
LJ          -1.39796        0.482305        -1.46387
LJ          -0.84607         1.18793        -2.26842
LJ          -1.79395       -0.126319        0.313904
LJ              -nan            -nan            -nan
LJ           1.90965         1.94785         1.17284
LJ          -1.47605         2.19193         1.71167
LJ              -nan            -nan            -nan
LJ         -0.296301       -0.199555         1.86349
LJ              -nan            -nan            -nan
LJ              -nan            -nan            -nan
LJ              -nan            -nan            -nan
LJ          0.125107       -0.342995        -0.35998
LJ              -nan            -nan            -nan
LJ           2.55018        -1.62757         2.00507
LJ           1.03431         1.12786         1.04522
LJ           2.23764       -0.900852       -0.189233
LJ           2.48444        0.743862        -1.79343
LJ          0.605414        -1.64778        -2.04013
LJ           1.59385        0.208911         1.76661
LJ          -1.03547        -1.58066        0.863835
LJ          0.326817       -0.938622        -2.40721
LJ           -1.4801       -0.308396        0.700605
LJ           2.28811         2.49217         2.22428
LJ              -nan            -nan            -nan
LJ         -0.568651        -2.48422        -2.43773
LJ              -nan            -nan            -nan
LJ           1.66659        0.105543        0.102304
LJ              -nan            -nan            -nan
LJ          -2.48834        -1.25451        0.172936
LJ           1.44619        -2.31302        -1.25884
LJ           1.40377         2.30501       0.0920382
LJ         -0.876212        -1.06021         2.35174
LJ           -1.5534         1.13736        -1.22202
LJ            2.3862        0.320542        -2.19906
LJ          0.385073        0.977824          2.2252
LJ          0.186849        -1.54135        -1.12797
LJ          0.233657         2.48371       -0.849407
LJ          -2.10104        0.809882         1.28984
LJ          -2.02234         2.00403         1.91083
LJ          0.722297         1.50921         2.47965
LJ          -1.62076        -2.17536       -0.315613
LJ            1.1706       -0.271908         2.10567
LJ          -1.74295        -2.44363       -0.443066
LJ          -2.25389        -1.22492        0.124354
LJ         -0.480509       -0.686452         1.06633
LJ              -nan            -nan            -nan
LJ          0.801946         -2.0188         2.22017
LJ           2.26559        -1.36334        -2.19895
LJ           2.12836         1.56955        0.463266
LJ         -0.217767         2.51281        0.197908
LJ          -2.44641        -2.18048        0.945858
LJ           1.35072        -1.71308        0.962336
LJ             2.013         1.42347        -2.39201
LJ          0.600126        -1.29364        -1.79913
LJ          0.830492        -2.12535         1.02266
LJ           1.18211        0.984927        0.892967
LJ          0.160021         2.32485        -1.74284
LJ              -nan            -nan            -nan
LJ          -2.01803       -0.292517         1.46925
LJ         -0.774943         1.36925       -0.156735
LJ              -nan            -nan            -nan
LJ          -1.21982       -0.703128        -2.50496
LJ           1.11977         2.23119        -1.64101
LJ          -1.48829        -2.05466       -0.285808
LJ        -0.0254425        -1.33825         1.33373
LJ         -0.782985         1.49748         2.54032
LJ           1.38877         1.94484         -1.1875
LJ          -2.51061         -2.2051        -0.20781
LJ           2.05036        0.452853        -2.29135
LJ          -1.02941         1.94981         0.39656
LJ           1.76635         1.18156       -0.936085
LJ          0.693942         2.09765         2.26781
LJ          0.954305      -0.0142812       -0.195213
LJ          0.458246        -1.01469         1.75844
LJ          -1.76555         1.80364        -1.34295
LJ           2.26722         2.24928        -1.56794
LJ          -1.43819        -1.26534         2.46297
LJ           -2.0795        -1.00181        -1.17743
LJ            1.3228        -1.55832          1.6695
LJ          -2.49001         2.18865       -0.469231
LJ         -0.404864        0.361173         1.06381
LJ          0.930867        -1.69142        -1.94848
LJ           -1.2258         1.17111       0.0794319
LJ              -nan            -nan            -nan
LJ           2.24175         1.16523         1.41261
LJ              1.52         1.37894        -2.16631
LJ          -2.07903         1.55026        -2.50807
LJ          0.704324       -0.427924        -1.24164
LJ          0.930357       -0.154412        -2.51431
LJ          -1.14495         2.27277        0.426741
LJ          -1.51372         1.00443          1.0985
LJ              -nan            -nan            -nan
LJ         -0.760295        -0.41699         1.76904
LJ          -1.05828        0.792935       -0.242002
LJ          -2.17838       -0.436313        -1.62544
LJ         -0.881957       -0.287205       -0.241879
LJ           -2.0275       -0.178859         1.45786
LJ              -nan            -nan            -nan
LJ          -2.37785         1.98211        -1.36507
LJ          -1.64842       -0.762258        -2.16885
LJ              -nan            -nan            -nan
