108
#Comment!
LJ          0.564713         2.27922        -2.52681
LJ         -0.933085         1.49708         1.10998
LJ           1.39935       -0.561213         1.04583
LJ            1.7743        0.978299         1.93409
LJ           1.96839        0.663151         1.49449
LJ           2.35029        -1.23757         0.59431
LJ          -1.57066         -1.9819       -0.404418
LJ         -0.815037       -0.199992         1.27596
LJ          0.691417        -2.54786       -0.858556
LJ          -2.51516        0.472604         1.30831
LJ              -nan            -nan            -nan
LJ          0.965206         1.11945        0.530979
LJ          -2.20538        -2.02064         1.98932
LJ           1.60942         0.31697        -1.25843
LJ           1.83156         1.03036        -2.34281
LJ          0.328087       -0.847581       -0.330898
LJ          -1.00846           2.131         1.90611
LJ            1.5813         1.30139        -1.85859
LJ         -0.630884         1.08335        -1.40744
LJ         -0.523651        0.198413         -2.3301
LJ          -1.50928        -2.07401         2.03079
LJ         -0.559478        0.626253         -1.5141
LJ         -0.739691        -1.16793         1.52386
LJ          -0.81209        0.160975        -2.49689
LJ          -1.55018         1.05684        0.863979
LJ          -1.96537         2.42421         1.17711
LJ         -0.553161       -0.952519          -2.464
LJ        -0.0814327        -2.26703         2.20138
LJ           1.60374         2.10678       -0.339195
LJ          -1.13455       0.0648298         1.28382
LJ           2.10858        -2.50494       -0.402008
LJ         -0.374463        -1.15704         1.97271
LJ              -nan            -nan            -nan
LJ          -1.88048        -1.61612         -1.2386
LJ          0.238594         1.26168         1.70052
LJ          -1.00543         1.79519       -0.947054
LJ         -0.704579         1.62312       -0.236928
LJ          -1.52745        0.822782        -2.53905
LJ           -2.0941        0.873533        -2.31478
LJ           -1.6053         1.65792       -0.893176
LJ          -0.61071         2.36861        0.489425
LJ         -0.497063        -1.80449      -0.0113932
LJ           1.17801        -1.57753       -0.514102
LJ           1.32875         1.14823         1.39505
LJ           0.98435         1.14125         1.12199
LJ          -1.17802         1.00151       -0.324198
LJ          -2.24538         1.72821           1.437
LJ          -2.08214       -0.499044         1.54122
LJ          -2.42332         2.18852        -2.49398
LJ         -0.782878        0.290872        -1.64242
LJ           1.23825         1.87688        0.763521
LJ          -1.31431        0.890143         1.67725
LJ           1.96628        0.637227       0.0615534
LJ           1.01499       -0.158597        -2.56121
LJ          -1.02785        -1.27943        -1.58688
LJ          0.255689       -0.462393        0.754537
LJ           1.70322       -0.485048        0.610501
LJ           2.01098         1.37334         1.26786
LJ          0.489965         1.58557         1.55647
LJ           1.10684       -0.926902        -1.97466
LJ          -1.38125        -1.94594         1.53776
LJ          0.159356         1.90754        0.655112
LJ           1.80028        -0.61261        -1.59362
LJ         -0.639452        -1.59678        -1.06835
LJ          -1.90746        -1.83604         1.46723
LJ         0.0848897        -2.40053         1.78404
LJ         -0.142349       -0.396263        0.914942
LJ          -1.53421         2.03263       -0.704844
LJ          0.317292         2.43554        -1.78225
LJ          -2.36823        -1.70718         1.23999
LJ           2.44495         1.96623       -0.159512
LJ        -0.0136746         1.55078        -1.92475
LJ          0.900755         2.45174        -1.82609
LJ           1.74573        -1.48884         2.39612
LJ            1.4818       0.0150376         2.39943
LJ          -2.40976         2.45952         1.71765
LJ          0.122809        -1.43778       -0.285736
LJ          -2.44039          -1.908        0.974984
LJ           2.50523       -0.697361         1.76589
LJ         -0.937771        -1.59767        -1.74054
LJ          -1.32559       -0.759575        -1.05851
LJ         -0.914931        0.893065        0.986097
LJ         -0.340415         1.86618         1.72606
LJ          0.882405       -0.268841        -2.07721
LJ          -2.40391        -1.20661         -1.4942
LJ           1.29028         2.07922       -0.264318
LJ          0.228279        -1.13406        -1.48012
LJ           1.06049          2.3433        -1.88657
LJ          0.637645        -1.72642        -0.81121
LJ          -2.18287       -0.591992       -0.589915
LJ           2.50092        0.215062        -1.81833
LJ          -1.26737        -1.47162         2.23558
LJ          0.564764         2.32718        -1.59446
LJ           2.27793        0.713088        -2.31705
LJ          0.340767        -1.10303        0.829819
LJ          0.027779        -1.00068       -0.739966
LJ          -2.51374        -1.32657        0.157805
LJ          -2.00517         -1.8629       0.0157833
LJ           1.23694        -1.17172        0.972875
LJ         -0.167002          1.7786        -2.52816
LJ          -1.85414        0.362048         1.10964
LJ          -1.41636        0.816936       -0.484102
LJ          -1.89585        -2.04143        -1.26336
LJ          -1.51616        0.423784         1.01957
LJ          0.545817        0.609559        0.356691
LJ          -2.13702        -2.24637       -0.314338
LJ          0.570774       -0.772607       -0.983119
LJ           1.52323        -2.16751        -1.74751
