108
#Comment!
LJ         -0.376228         1.13686        0.910955
LJ          -2.43435        -2.35403        0.228081
LJ          -0.33582        -2.41494         2.05348
LJ          -1.02684        -0.16153        -1.58165
LJ         -0.984112         0.13559        0.405154
LJ          0.874806       -0.335226        -0.12639
LJ          0.638738        -2.27774        -1.86394
LJ          0.534723         2.33978         1.64281
LJ           1.12686         1.28088        -1.15567
LJ           2.09106        -1.20018        -1.67101
LJ              -nan            -nan            -nan
LJ          0.558451         2.49186        0.387941
LJ          0.375393         2.28281          1.7527
LJ              -nan            -nan            -nan
LJ           1.08733        -1.89569         2.55681
LJ              -nan            -nan            -nan
LJ              -nan            -nan            -nan
LJ              -nan            -nan            -nan
LJ          -1.54167        -2.37442       -0.712242
LJ              -nan            -nan            -nan
LJ        -0.0080724         1.99896         1.57749
LJ         -0.694055       -0.768861         2.06372
LJ          -2.42583       -0.932562     -0.00474632
LJ              -nan            -nan            -nan
LJ          -1.44437       -0.250846       -0.474355
LJ         -0.179593        0.227623        -1.45689
LJ          0.444904         1.55938        -1.87092
LJ           1.24586       -0.218058        0.282643
LJ           1.94144         1.89193         1.61522
LJ           2.10674        -1.46206         1.15287
LJ              -nan            -nan            -nan
LJ           2.00126         1.49151       0.0199959
LJ              -nan            -nan            -nan
LJ          -1.21108        -1.55147        -1.13465
LJ              -nan            -nan            -nan
LJ          -1.40231       -0.838742       -0.920705
LJ          -1.40231         2.45157         2.09868
LJ         -0.768695         1.89441          1.4757
LJ           -2.1759        -1.12331        -1.11216
LJ           1.16867       -0.783829       -0.985311
LJ          -1.32012         1.08676        -1.41765
LJ         -0.045743        0.881736        -1.52815
LJ           -2.4231       -0.920868         1.81435
LJ          0.841988        0.829286        -1.97026
LJ          -2.45273        -2.37237         1.39515
LJ          -1.83736        -1.14806       -0.313062
LJ          -0.19515        -1.22472         1.77452
LJ          0.964477       -0.406963        0.356703
LJ         -0.859808       0.0851041        -2.20197
LJ           1.03914         0.68288         2.50395
LJ           2.53739        0.559349        -1.01863
LJ           0.23922      0.00842188         1.88968
LJ              -nan            -nan            -nan
LJ         -0.254835        -1.06526        -2.29114
LJ          -1.13206         -1.9221        -0.80136
LJ           1.25264       -0.617412        0.996163
LJ          -1.08092        -2.16258         1.62773
LJ          -2.28694          1.7416       -0.335736
LJ          0.938964        -1.91893        -2.17043
LJ           2.28374         1.59408        -2.08825
LJ           1.35596        -1.11051         -0.8055
LJ         -0.744511        -2.19499         2.41632
LJ         0.0397431      -0.0944827        0.774458
LJ              -nan            -nan            -nan
LJ              -nan            -nan            -nan
LJ         -0.270606         1.71573       -0.386323
LJ         -0.104546         1.31346        -1.15014
LJ              -nan            -nan            -nan
LJ          0.165794        0.485095        -1.29735
LJ           1.39462       -0.565608        -1.51392
LJ         -0.232204         1.43031       -0.870509
LJ          0.537477        -1.55822        0.878426
LJ           2.43777        0.131525        0.558005
LJ         0.0881091        0.556116        -2.35665
LJ           0.68414        -0.78619        0.522503
LJ          0.711722         1.80892        -1.96055
LJ          -2.48113         1.98245         1.20101
LJ          0.608777         2.03028        -2.30374
LJ         -0.674598       -0.563607        -1.57633
LJ          0.206255       -0.673218       -0.482007
LJ           2.31235      -0.0463218         1.42165
LJ          -1.84572       -0.054817         0.94305
LJ          -1.83476         2.48743        0.426401
LJ          -1.17541         1.39645         1.46474
LJ           1.14727         -2.4309         1.56379
LJ          0.534542        0.128019      -0.0565035
LJ           2.04291        0.199346      -0.0374664
LJ           1.98212        -1.55149         2.28906
LJ          0.737279        0.902586       -0.214824
LJ          0.481833          1.9016         2.29167
LJ              -nan            -nan            -nan
LJ           1.36678        0.667923       -0.393643
LJ            1.2872         2.49722        -1.39277
LJ           1.86723      -0.0631379        0.615686
LJ         -0.642491         1.04122        -1.60661
LJ         -0.272758       -0.401669         -1.8914
LJ           1.55992        -1.62454        0.824891
LJ         -0.284525        0.929262        0.492458
LJ              -nan            -nan            -nan
LJ          0.390151         1.32598        -1.86683
LJ          0.855753         1.73345         1.73472
LJ          -2.45661        0.501897         2.34889
LJ          -1.78536         -1.0868        0.627896
LJ         -0.239745        -2.48682      -0.0465516
LJ              -nan            -nan            -nan
LJ          0.180324         1.99416        0.816866
LJ          -2.17524         1.75553        0.700557
LJ              -nan            -nan            -nan
