108
#Comment!
LJ          -2.52136        -1.67198         1.80006
LJ           1.69383        -1.21492        -2.41344
LJ          0.257701        -2.50849        0.722602
LJ          -1.38313         1.66539         1.65869
LJ          0.364557          -2.079       -0.377482
LJ           1.71737          -1.853        -1.81289
LJ          0.692228       -0.279502         2.10998
LJ          -1.73552        -1.09853        0.446974
LJ           1.02167         1.87744        -1.50685
LJ          -1.88176       -0.239134         1.43414
LJ              -nan            -nan            -nan
LJ        -0.0773369       -0.664209        0.342692
LJ         -0.134069       -0.790526       -0.220708
LJ              -nan            -nan            -nan
LJ          -1.50525        0.519575        -1.76159
LJ              -nan            -nan            -nan
LJ              -nan            -nan            -nan
LJ              -nan            -nan            -nan
LJ           2.38505       -0.817416       -0.608609
LJ              -nan            -nan            -nan
LJ           1.60008         -1.9224         1.65705
LJ          -1.24049        -1.10328         1.27946
LJ          0.512651        -1.03255         0.83912
LJ         -0.222468        -1.34338         2.54871
LJ          -1.90818         0.43933         2.53371
LJ         -0.673893       -0.773921       -0.264915
LJ           1.99514        -1.50197        0.922511
LJ          0.350128        -1.17001        0.797622
LJ          0.513629         1.28811         2.34875
LJ         -0.815683         1.18638       -0.159341
LJ              -nan            -nan            -nan
LJ           1.21757      -0.0684376       -0.593548
LJ              -nan            -nan            -nan
LJ          0.432619        0.100585        -1.84867
LJ              -nan            -nan            -nan
LJ          0.730113         2.45539         1.26639
LJ          -1.29418         1.18654       -0.715553
LJ          -1.92736         -1.9455        -1.70963
LJ         0.0325124        -2.48715         -1.5449
LJ           -2.3601         2.03568       -0.279887
LJ          -1.79202          2.1596        0.419285
LJ           1.55314       -0.618421        0.651007
LJ          0.210989        -1.44998      -0.0687965
LJ           1.71178        0.470395       -0.119918
LJ           1.97403       -0.322783         1.02659
LJ          0.584256         1.75375         1.39961
LJ          -1.45136         1.37985        -2.37055
LJ          0.776812        -1.07187        0.258399
LJ          -2.51262         1.75084        -2.20397
LJ           1.91514         -1.9681         1.24276
LJ           2.52958        -2.27053         1.18032
LJ          -1.53875         1.15639       -0.104175
LJ              -nan            -nan            -nan
LJ           1.97961        -1.66501        0.214526
LJ          -1.93063       -0.277044        0.802492
LJ          -1.64154        -0.23792        -2.14918
LJ          0.813175        -1.20592        -1.35011
LJ          0.508897       -0.753142         2.48547
LJ           1.12779         1.95351         2.06162
LJ           -1.0906         1.22158        -1.48222
LJ          -1.59645        -1.54203      -0.0431493
LJ         -0.299705       -0.740023       -0.716813
LJ          -1.78513          1.9448         1.46697
LJ           1.98295        0.324708          1.6191
LJ              -nan            -nan            -nan
LJ         -0.518602       -0.460736        0.674041
LJ          -0.67384         2.54999        0.940713
LJ              -nan            -nan            -nan
LJ           1.35272         1.54778        0.741458
LJ              0.61        -0.66779        -0.23712
LJ           2.41098         1.98124         1.48203
LJ          -1.11606         2.44548        -1.95233
LJ          -1.57206         1.37047         1.77531
LJ          -1.64071        0.983643       -0.744403
LJ           1.22014         1.58972        -1.73988
LJ           1.92403       -0.141483        -1.13614
LJ          -1.20214          2.1278       -0.431068
LJ         -0.318893        -1.82447       -0.502584
LJ          -1.71586        -0.49134         0.44564
LJ          -1.36827          1.6648         -1.1443
LJ           2.39989        -2.43791        -1.76739
LJ         -0.401045          1.7758         -2.1654
LJ          -1.59054        0.550012        0.330638
LJ          -2.11375        -2.09323         2.45141
LJ           1.95423        -1.79154        0.773777
LJ          0.109045        -1.80024         1.05163
LJ           1.30064        -1.13403        -1.09527
LJ        -0.0653451         -1.7453        -1.95205
LJ          0.943402        -2.40819       -0.547663
LJ         -0.764251         2.00906         1.27698
LJ              -nan            -nan            -nan
LJ          -1.97365       -0.798232         1.95177
LJ          -1.39566         2.35943        -2.38759
LJ          -2.12918        -1.12635         2.01737
LJ           2.11597         1.05473        -2.44771
LJ           2.30325         1.90516        0.300718
LJ           -2.1876         1.34204         1.38634
LJ           1.91085         1.41194          1.7967
LJ              -nan            -nan            -nan
LJ          0.967863        -1.77623        -2.03706
LJ         -0.312002        -2.35433        0.065431
LJ         -0.166763        0.264443          1.8738
LJ         -0.200944       -0.350927       -0.857609
LJ           2.47001         2.18856       -0.606578
LJ              -nan            -nan            -nan
LJ           1.43173        0.934784        -2.43893
LJ         -0.849019        -1.87387         1.65705
LJ              -nan            -nan            -nan
