108
#Comment!
LJ          -1.89538        -1.50511       -0.438349
LJ           1.22683        -0.10916        -0.25292
LJ          -1.36163         2.45831        -1.35253
LJ         -0.964997        0.073212        -2.16748
LJ         -0.970133       -0.823781         -0.6466
LJ          0.616817         1.32677         2.41108
LJ           1.68397         1.45886        0.792733
LJ           1.29228         1.69298        -2.02673
LJ         -0.240847        -2.29411        0.690877
LJ          -1.57459          1.9967        -2.45009
LJ              -nan            -nan            -nan
LJ          -1.54308         1.10045        -1.75039
LJ          0.940687      -0.0697276        -1.60832
LJ          -1.23507         2.34993        -1.58376
LJ          -1.34392        0.657044        -0.48897
LJ          -1.97569        0.274255         2.22278
LJ          0.871224         1.23192        -1.12797
LJ           2.19008         1.35941        -1.29006
LJ          -1.47405        0.413096         0.96842
LJ         -0.571148         0.68371        -1.58826
LJ         -0.306286        -1.84963         2.29861
LJ          -2.26111        0.119003        -2.18701
LJ          0.369908         1.32276        0.976215
LJ           2.35781      -0.0444181        -1.67989
LJ           2.06769         0.21918        -2.46681
LJ           0.60074       0.0917028        -2.25666
LJ        0.00447171        0.528215        -1.41474
LJ         -0.391954         1.91545       -0.201462
LJ           -1.3675         2.06745          1.6159
LJ         -0.206157         0.21546       -0.520127
LJ          -2.27403       -0.197418         1.34423
LJ         0.0394328        0.848589         1.51192
LJ              -nan            -nan            -nan
LJ         -0.110773        -1.11512        -2.39491
LJ              -nan            -nan            -nan
LJ         -0.491951         0.13707         1.25314
LJ         -0.309308        -1.85319      -0.0145859
LJ          -1.21616        0.406252         0.78601
LJ           1.65446       -0.680765       -0.107645
LJ          -2.47895      -0.0506976       -0.959466
LJ           1.63501        -2.16825        -1.43537
LJ           0.59895       -0.882628        0.783158
LJ          -2.40819        0.570188        -1.58246
LJ            0.5423         -1.4267         1.35147
LJ          -2.43591         1.63388       0.0532142
LJ          -0.69597         2.07601        -1.95227
LJ          0.873201         2.15764         2.26556
LJ           2.42487        -1.15356       -0.368089
LJ          0.288002         2.42706         2.47307
LJ          -1.60695        -2.34578        -1.55681
LJ         0.0278138          1.3868        -2.14719
LJ           1.77203         1.34924       -0.281056
LJ           1.16951         1.56133        0.521911
LJ          -1.79967        -1.86827        0.739891
LJ          0.799894          1.3936         1.31472
LJ          -1.53172       -0.234856         2.35262
LJ          -1.47267       -0.635242        0.954145
LJ        -0.0248024         2.33076        -2.16724
LJ           1.70662        -1.19139         1.77724
LJ          0.924416        -1.95872       -0.781501
LJ          -2.16471        0.409349         -1.5512
LJ           1.51499        -1.27419        0.748177
LJ           2.50162         1.91483         1.50372
LJ           1.96506         2.54594        -1.68249
LJ           1.98384             1.1         1.49714
LJ           2.37426        0.433791           2.533
LJ           1.09464        -1.05086        0.800465
LJ              -nan            -nan            -nan
LJ          -1.58382         1.11864        -2.45449
LJ           1.32112        0.530339          1.9484
LJ          -2.53018        0.964431        0.926555
LJ           1.26855        -1.00362        -2.13406
LJ           1.56496       0.0900525        -1.96959
LJ           2.41092        -1.65799        0.107371
LJ          -1.49687         1.53668         1.41431
LJ          0.344051         1.42044        -2.29068
LJ           -1.2802         2.51338        0.529521
LJ          -1.17281        -2.05025        -2.02033
LJ         -0.011347        -1.56987        -2.20022
LJ           1.10468         1.92539        -2.51639
LJ            -1.709         1.99673         1.08709
LJ           1.29025         1.33418        -1.60133
LJ           2.02315          1.5525        -2.14477
LJ         -0.807753        -2.30379         1.75722
LJ          -1.70703         1.05656        -1.26926
LJ            1.9786         1.69055       -0.363604
LJ          -1.45776          2.2506        -1.61755
LJ         -0.132713        -2.08943         1.53947
LJ          0.308962      -0.0554478         -1.7997
LJ          -1.41995       -0.142283        0.864287
LJ           2.29514          2.3744        -1.58299
LJ          -2.37399        -1.88564        -2.22459
LJ         -0.428506       -0.583413         2.04467
LJ         -0.313798         2.28986        0.983134
LJ          0.879242         2.13305        0.373044
LJ           1.22517        0.892968         1.05649
LJ          -1.16456         2.03522        0.588724
LJ           1.25331         2.22207         2.53595
LJ          0.126506        0.490351        -1.53689
LJ          0.316889         1.01369         1.00471
LJ          0.447805        -2.36511        -1.22334
LJ           2.07377       -0.791805         2.35608
LJ          0.120429       -0.963986        -1.80758
LJ         -0.401014        0.535048        -2.44316
LJ          0.714085         2.02893       0.0420091
LJ         -0.596131         1.40104         1.19592
LJ          0.787379         1.24798         2.06243
LJ          -1.03431        0.140059        -1.50219
