108
#Comment!
LJ           2.42283        -2.40747        -1.35876
LJ          0.990716       0.0228968         2.23111
LJ           -1.9209       -0.761764        0.146294
LJ           -2.2423         1.49469       -0.953442
LJ          -1.01776        -1.34658         1.34555
LJ          0.803609        0.907135        0.459638
LJ           2.51385        -1.71969         2.29787
LJ       -0.00849663        -2.49108        -1.35103
LJ           1.50387         1.22402       -0.448589
LJ           1.07469        0.231581        0.964726
LJ              -nan            -nan            -nan
LJ           1.47809         1.93272        -1.72864
LJ          -2.45179        0.591859           -2.36
LJ              -nan            -nan            -nan
LJ         -0.346576         2.48935        -1.46421
LJ              -nan            -nan            -nan
LJ              -nan            -nan            -nan
LJ              -nan            -nan            -nan
LJ          -2.25219         1.28851       -0.875975
LJ              -nan            -nan            -nan
LJ           -1.9361        0.862658         2.36846
LJ          -1.64614        0.678332        0.774172
LJ          -1.80958         2.49027      -0.0564513
LJ              -nan            -nan            -nan
LJ           2.24466         1.65372         1.97596
LJ           1.87179        -1.07742        0.347523
LJ         -0.513812         1.48937         -1.7325
LJ          -1.20229        -2.40529        0.833179
LJ          0.135066        0.611282        0.562626
LJ          -2.03958        -2.50486       -0.504616
LJ              -nan            -nan            -nan
LJ          -1.81075       0.0846776         -1.0127
LJ              -nan            -nan            -nan
LJ           1.70657         1.20865        -0.61996
LJ              -nan            -nan            -nan
LJ          0.942757        -2.23689         1.48238
LJ            -1.462         1.57152        0.969065
LJ           -1.6862        -1.51971         2.07648
LJ         -0.456315        -1.77625        0.645025
LJ          -1.48977         2.30493       0.0521233
LJ         -0.980433        -2.36852         0.80611
LJ          -1.14799        -2.05423         2.41359
LJ         -0.615158       0.0290714        -1.08142
LJ            1.7069      -0.0694906         1.83373
LJ         -0.117012       -0.768626       -0.300892
LJ          -1.19701        0.260325         1.65721
LJ           1.71136       -0.798682        -2.15109
LJ          0.556074        0.602161     -0.00211745
LJ         -0.766219         2.25645        -2.09739
LJ           1.26425          1.5801       -0.308911
LJ          -2.31362       0.0592041        -2.49812
LJ           1.86608       -0.524818         1.63206
LJ              -nan            -nan            -nan
LJ         -0.135788       -0.283897        -2.46465
LJ          -1.47384       -0.648704      -0.0859899
LJ          0.764397        0.511028      -0.0983953
LJ          0.393701        0.708453        -2.07056
LJ            1.3279        -1.78665        -2.15995
LJ           1.43425         1.28798        0.980642
LJ          0.657967        -1.91057        -1.42607
LJ         0.0777398       -0.149724        0.928494
LJ           2.01775         1.02296         1.13779
LJ           -1.2793         1.74924         -0.7929
LJ              -nan            -nan            -nan
LJ              -nan            -nan            -nan
LJ           2.32164         1.58489        0.381711
LJ           -0.5593         -1.5931        -1.56372
LJ              -nan            -nan            -nan
LJ          -1.19442        -1.25745         2.33201
LJ          -1.65429          1.1693         1.16625
LJ           1.36334       -0.612795       -0.580652
LJ            -1.175        -1.74062        0.676219
LJ           2.42903         2.51837       -0.125873
LJ           2.35658         1.47128        0.230923
LJ         -0.290357         2.11248        -1.27545
LJ           1.01579         0.17484        -1.83897
LJ           0.58226         1.97168         2.55899
LJ          -1.65141        -2.22426        0.232772
LJ          -1.56281        -2.22762        0.197055
LJ           2.04278        -1.74145       -0.673099
LJ          -1.61129       -0.771107        -2.26365
LJ           2.12187        0.362363        0.188513
LJ          -1.42974         1.73593         1.76704
LJ          0.713841        -1.99416         1.32909
LJ           -1.1978         2.45434        -2.24682
LJ          0.809413        -2.23796         2.29581
LJ          0.275726        -1.42096         1.08761
LJ          -0.67469         2.25271         1.19463
LJ           1.19777        -1.96506         2.49176
LJ         -0.112892        0.825627         1.68508
LJ              -nan            -nan            -nan
LJ          -1.29725        -1.25402      -0.0598999
LJ          -2.31251         2.08723         1.89562
LJ           1.48679        -1.81899        -2.26123
LJ           1.50271         1.61932         2.20993
LJ           2.51964       -0.236861         1.16279
LJ          -2.42199         1.73829         2.27572
LJ          -0.91861         1.01337         1.49722
LJ              -nan            -nan            -nan
LJ          0.530894        -1.95328      0.00928883
LJ          0.713278         1.01924         -1.4267
LJ           1.45006         2.01637       -0.823213
LJ         0.0350924        -2.21802         -2.4016
LJ           1.56237         2.35543         2.07853
LJ              -nan            -nan            -nan
LJ          -1.72928        -1.94715        0.647967
LJ           1.64603       -0.451487        -2.29502
LJ              -nan            -nan            -nan
