108
#Comment!
LJ         -0.507426        -1.08856        0.668306
LJ          0.912851          2.0221        0.849179
LJ           2.49268         2.37485        -1.08163
LJ          -1.92815         2.28837        -2.20825
LJ           2.19918        -1.16823         1.18548
LJ          -1.64189        -1.24483         1.69774
LJ           2.48431         1.01276        -1.00687
LJ           1.50832         1.77541         1.63224
LJ          0.827769        0.128358         2.03562
LJ          0.443414          1.2043       -0.107574
LJ              -nan            -nan            -nan
LJ          0.764558        -1.98582       -0.984063
LJ           2.53627         1.89766        0.823161
LJ           1.98245        -1.35954       -0.836668
LJ           -2.4398        -2.27109         2.53756
LJ              -nan            -nan            -nan
LJ              -nan            -nan            -nan
LJ              -nan            -nan            -nan
LJ           2.50684         1.90659        -1.61798
LJ              -nan            -nan            -nan
LJ           -1.8585       0.0804516         1.11157
LJ         0.0489071         1.97659          1.7651
LJ         -0.562018         1.72211       -0.524518
LJ           0.13295          1.1976        0.363421
LJ         -0.930605         1.81857        -1.15742
LJ         -0.614165       -0.650797       -0.378422
LJ          0.179023       0.0288215         1.77794
LJ           1.75033         1.53035         1.30069
LJ           1.78335         2.07249        0.644605
LJ          -1.12669         1.14976         1.57216
LJ           1.26104       -0.678926       -0.344215
LJ          0.782848        -1.83506       -0.543749
LJ              -nan            -nan            -nan
LJ           2.11077         2.32314        -2.18167
LJ              -nan            -nan            -nan
LJ           1.71187         -0.8525         2.02997
LJ         -0.518879         1.16494       -0.584917
LJ          -2.40695       -0.410755         2.29046
LJ          -2.38972        0.654817         1.69784
LJ         -0.461756       -0.279977       -0.767137
LJ         0.0580923          1.0452       -0.690052
LJ          -2.10738        -2.14258         1.56378
LJ          -1.17507        0.782001         1.58998
LJ           2.15873       -0.371561         1.32748
LJ         -0.297615        -2.53031       -0.860295
LJ          -1.17265         1.97797         -2.2291
LJ          -0.69766        -2.27602        0.752188
LJ         -0.478716         1.50158         0.14024
LJ          -1.44396        -1.90473         1.65848
LJ           1.52137        0.620833       -0.642792
LJ           2.02833        -1.90075        -1.88388
LJ          0.680061         1.08275        -2.34562
LJ              -nan            -nan            -nan
LJ           1.29251        0.133834       -0.511868
LJ          0.743114        0.453458         1.41336
LJ          -2.28057        -1.50903         1.08776
LJ          -1.49743       -0.683765        -1.17697
LJ          -1.11195        -2.46358         2.53686
LJ           2.51064       -0.875695        0.251071
LJ           2.29086         -1.2045      -0.0185603
LJ         -0.330186        -1.47043        -1.04841
LJ          0.100689         2.40865        -1.25016
LJ         -0.205403         1.97072        -2.11138
LJ           1.25971        0.286458        -2.28434
LJ          -2.13272        -1.48761         2.08626
LJ          -2.26052         1.45784         1.13434
LJ           2.52151        -2.38848        -1.47123
LJ              -nan            -nan            -nan
LJ           2.43975          2.4633       -0.178042
LJ          -2.07187         1.62759        -1.70343
LJ           2.44571       -0.779573       -0.480604
LJ          0.323026       -0.995758         2.12542
LJ          -0.74686        -1.96761        -1.59782
LJ          -2.27725         1.05254        -1.52488
LJ           2.22579         1.80195       0.0459704
LJ         -0.793149         1.81839         1.53629
LJ          -1.54358        -1.83703         1.89995
LJ          0.592919        -1.29005         1.10008
LJ           1.56726        -2.03164        -2.47821
LJ          0.510288        -2.02148         2.16729
LJ          -1.44071       -0.117301       -0.978885
LJ          0.214868         1.86718          1.8439
LJ          -1.30963        -1.27467        0.625028
LJ           1.46601         1.95218       0.0524233
LJ          -2.51487        -2.27471         1.94605
LJ          -1.77218        -2.00094         2.45626
LJ          -2.00209       -0.462848        -1.05102
LJ          0.456993         1.18197         2.06043
LJ         -0.728012         1.34731       -0.815632
LJ         0.0362159       -0.470465       0.0167762
LJ              -nan            -nan            -nan
LJ           0.26413        -2.06007        -1.24412
LJ          -1.57472         -2.1088         2.47581
LJ         -0.672143        0.914513        -1.18726
LJ         -0.918837        0.971324         2.45782
LJ           1.24235        -1.62523        0.580462
LJ          0.496898         1.71933       -0.036812
LJ           1.20271       -0.882305         1.24447
LJ              -nan            -nan            -nan
LJ           1.26956         1.04416        -2.27258
LJ          -1.85166        -1.50982         1.71498
LJ         0.0678342        -2.33703       -0.608318
LJ          0.442602        -2.51789       -0.496809
LJ          0.556781        -1.28584       -0.938346
LJ           2.01133        0.102542        0.495873
LJ          -2.44497       -0.419628        0.858042
LJ          -1.24243         2.52959         1.70702
LJ              -nan            -nan            -nan
