108
#Comment!
LJ           -1.9037        -1.40473       -0.687781
LJ          -2.46822          -2.534       -0.437069
LJ         0.0117973        0.215978        -0.89837
LJ           1.94073       -0.351867        0.517659
LJ          0.946024         1.20535        0.512725
LJ           1.64186         2.42742         1.77068
LJ          -1.43086        -1.32862       -0.101864
LJ          -2.00013        -2.28267      -0.0809518
LJ          0.718176        -1.79053        -2.35687
LJ         -0.834099        0.706959        -0.67678
LJ              -nan            -nan            -nan
LJ          -2.13478        -1.51971         1.21937
LJ          0.113459      -0.0650506         1.24565
LJ          -2.43892        -1.13019         2.01455
LJ           1.83246        -0.30836         1.43443
LJ          -2.28171         1.61145       -0.888197
LJ           1.26012         1.31707         1.25817
LJ           2.22426       0.0394741        0.346424
LJ          -2.31963        -1.00129        -1.71334
LJ        -0.0882794       -0.960358         1.36062
LJ          -2.12863        0.498212         2.35846
LJ           -2.1071        0.454314        -2.18241
LJ           1.97816        -1.84819         1.65566
LJ         -0.020453         -1.4723         1.08777
LJ          -1.37647        -1.52077         1.92799
LJ          -1.90173       -0.612961       -0.118154
LJ          -1.60456        -2.49801        -2.56117
LJ         -0.966566         1.51697        -1.95664
LJ         -0.419034         2.54341         2.54486
LJ           1.48242        -1.80128         2.53147
LJ           2.26183        0.226324        -1.12146
LJ            1.3112        -1.83979       0.0899721
LJ              -nan            -nan            -nan
LJ          0.604435         1.62123       -0.341829
LJ              -nan            -nan            -nan
LJ          -1.16882         1.56995       0.0648593
LJ           2.27824         1.43042         1.04087
LJ         -0.775207        -2.27945       -0.707985
LJ         -0.769104         -2.1672       -0.169165
LJ          0.772587         1.53143        -2.07591
LJ           2.43813         1.17743        -1.64105
LJ          -2.48635        -1.93431        0.257338
LJ          -2.49897        -2.42829         1.02983
LJ           1.12776       -0.256287         -0.9877
LJ           0.55881       -0.757109        -1.58567
LJ          -0.29047         1.02209        0.309933
LJ          -1.90452         2.42051         -1.7015
LJ          0.138193        -2.19344       -0.819326
LJ           1.66595        0.199221         -2.4166
LJ          -1.80597        -1.75354       -0.441517
LJ           0.68825         1.68761        -1.64597
LJ          -2.23601        -1.96633           -1.31
LJ          -2.39231         2.20661        -1.59484
LJ          -2.07206        0.668128        0.767071
LJ         -0.672452         1.07396       -0.667808
LJ           1.55412         1.16819       -0.510098
LJ          -2.19387       -0.230537       -0.332876
LJ          -1.13728         0.86674         1.87168
LJ          -2.40659         1.56226        0.676324
LJ          -1.18068         1.86874        -2.55524
LJ           1.15096       -0.743821         1.23599
LJ            1.9269         2.00252       -0.844047
LJ           1.68098        -1.23264        0.365532
LJ          -1.92498         -1.9143        -1.59134
LJ          -2.13116         1.70425        -1.74961
LJ         -0.255359         1.06977        0.425382
LJ          -1.38409        -1.88341        -2.47527
LJ              -nan            -nan            -nan
LJ          -1.74444        0.251053        0.660456
LJ         -0.808845        -1.05757        -1.93679
LJ           1.89769         2.31314        -1.89831
LJ            1.3846        -2.13154      -0.0733862
LJ           2.54419        -1.83985        0.356077
LJ         -0.483705        0.622551       -0.123645
LJ           0.96877        0.455553       0.0988338
LJ          -2.14392       -0.705158         2.51816
LJ          -2.51897         1.46661        -1.47465
LJ          -1.60536        0.916527         2.03202
LJ           2.50092         1.71175         1.00556
LJ         -0.905284         1.63524        -1.42993
LJ           1.12699        -2.36486        -1.69402
LJ          -0.65694        -2.35434         1.59788
LJ          -0.26237       -0.424367         1.27162
LJ           1.39039         2.29678        -1.12635
LJ         0.0523682        -2.14365        -2.51028
LJ          -1.92687         2.22386         2.42782
LJ          0.136621         2.01271       -0.734886
LJ          -1.26937        -2.47978       -0.787152
LJ           2.01886         2.06413         1.75823
LJ           1.15348       -0.511716       -0.214615
LJ           -1.6683         1.25193         2.40544
LJ           1.99435       -0.863362        -2.40155
LJ          -1.21283        -2.33401         2.53842
LJ          -2.42399        -1.04026       -0.157768
LJ         -0.168544        -1.78196         1.11309
LJ          -1.22714        -1.13778       -0.793572
LJ           2.20027         2.29691        0.257182
LJ          -2.51703         1.33434        -1.37798
LJ          0.650152        -2.14253        -1.53412
LJ          0.245812        -2.49487        -2.35204
LJ          -1.04252        -2.09588        0.858846
LJ         -0.829491       -0.321888       -0.304507
LJ         -0.908904        -1.69732          2.2378
LJ         -0.539118      -0.0943833        0.675034
LJ           2.03172          1.3405        0.533043
LJ           1.56046       -0.847696        -1.66695
LJ           1.29749        0.681546       -0.533881
LJ           2.23839       -0.134702        0.841014
