108
#Comment!
LJ           1.47921         1.96593         2.09437
LJ          -2.01061         1.33879        0.786808
LJ           1.86971        0.210765        -1.86434
LJ          -2.38118       -0.819728         1.26747
LJ         0.0415962        0.838043       -0.867091
LJ          0.106781        0.420778         1.11887
LJ           1.59863        -1.04279         1.73197
LJ           1.20017          1.7813       -0.945636
LJ         -0.938617        0.623967       -0.709585
LJ         -0.602233        -2.55639        -2.23116
LJ              -nan            -nan            -nan
LJ           2.34513         1.90643        0.924001
LJ          0.574203         2.56354       -0.285986
LJ           2.05161         2.38987         2.56381
LJ         -0.342852          1.8208         1.17964
LJ          0.320371       0.0345499        -1.12985
LJ              -nan            -nan            -nan
LJ              -nan            -nan            -nan
LJ           2.51976        -1.87195        -2.18212
LJ              -nan            -nan            -nan
LJ           1.18133       -0.766927            1.58
LJ          -1.10054        0.859014     -0.00822679
LJ         -0.252622       -0.556315        -1.46414
LJ          -1.54457         1.54675        0.179393
LJ          -2.21711        -1.12225        -1.95729
LJ          -2.36265        0.540935        -2.08436
LJ          -1.03303        0.925342        -0.51166
LJ          0.815999        -1.22245         1.09867
LJ          0.862447        0.640094       -0.213612
LJ          -1.45315         1.73648         1.80903
LJ          -2.19615        -2.36231          1.5327
LJ          0.458235       -0.362036        0.309117
LJ              -nan            -nan            -nan
LJ          0.613889        0.763394        -0.26176
LJ              -nan            -nan            -nan
LJ          -1.35661        0.839885         1.62571
LJ           1.99929        -2.53767         1.25432
LJ           1.77988        -2.20293        -1.06057
LJ          -2.07228        -1.07155         1.75815
LJ            1.2751       -0.448216          1.0288
LJ          -1.00909        -1.45194        -2.03041
LJ           1.56121         1.80284       -0.699566
LJ         0.0688929         1.73786        -2.01418
LJ         -0.977952        0.718958        -1.19302
LJ           1.35957         1.08046         2.28265
LJ          -0.97011         1.94547         1.61817
LJ           0.31736      -0.0687779         1.22241
LJ           -2.5062       -0.913641         2.13911
LJ           1.24276        0.309275         1.04579
LJ           2.35234         1.17443        0.389737
LJ           1.27692        -0.93386         2.44009
LJ           1.91407        -2.22189        -1.52662
LJ              -nan            -nan            -nan
LJ         -0.934071         2.52331        0.513047
LJ          0.349199       -0.780003         1.75844
LJ          0.166899        -1.90394         2.52416
LJ         -0.743555        -1.10848        -1.32395
LJ          -1.35282        0.464707        0.113806
LJ           0.57084        0.859548        -2.21326
LJ          0.845101        -1.41266        0.267373
LJ          -1.99661         1.80943        -0.49594
LJ           1.20641       -0.515975         -1.1726
LJ          -2.12976        0.446801           1.904
LJ         -0.554553        -2.26739        -2.07472
LJ           2.12531        -1.28108       -0.721916
LJ          -1.30334       -0.359434         1.76688
LJ           1.40539        0.919486        0.661327
LJ              -nan            -nan            -nan
LJ          -1.62325        -1.01804        -2.40312
LJ           2.42153        -1.84781         1.95266
LJ           1.87909        -2.12412        -1.84199
LJ          -2.28879         2.28248        -1.42106
LJ           1.62533       -0.319747         2.50628
LJ           2.33797         2.05332      -0.0859081
LJ          0.117579        0.976202         1.94706
LJ         -0.969688       0.0681109       -0.278032
LJ          0.301207        -1.64246        -1.57564
LJ          -1.04828         2.01245         2.51178
LJ          -1.65757        -1.49375       -0.533051
LJ           1.42442        -1.91809        -1.61517
LJ         -0.872102        0.047836         1.87021
LJ          0.918001      -0.0794964        -2.39794
LJ           1.69237        -1.98862         1.16182
LJ          -2.25872        -1.51472        -2.38772
LJ           2.50258         1.33664        0.409836
LJ          -2.01001         1.70511         1.32502
LJ            1.5531         2.45051         2.54771
LJ          0.858307        -2.07666       -0.227397
LJ          -1.44982        -1.27392        -0.48535
LJ           1.14517         2.30573          -1.425
LJ              -nan            -nan            -nan
LJ          -1.76984        0.598396          1.5991
LJ          0.403632       -0.423022        -1.83143
LJ          -2.26668        -1.82964       -0.663885
LJ        -0.0692916          1.2235         1.16336
LJ           1.89486        0.671583        -1.63947
LJ          -0.79084        0.158059      -0.0176273
LJ          -1.64006         1.62798         1.72296
LJ           1.18355        -2.25031         2.02898
LJ           2.51778         1.86744         1.31615
LJ          -2.30051        0.359634        -2.51545
LJ          -1.73299         1.06922         1.58647
LJ           -1.9265       -0.722908         1.46987
LJ          0.303784        -1.90123        -2.00301
LJ          0.754976       -0.395013        -1.18537
LJ          -1.27573         2.17425         2.19968
LJ            1.9942        -2.13241        -1.80358
LJ              -nan            -nan            -nan
