108
#Comment!
LJ        -0.0486113        0.813626          1.9014
LJ          -2.50324        -1.03488         0.27256
LJ          -1.29249        0.419618         1.07162
LJ           2.28297         2.46834        -1.02204
LJ          -1.04204        0.718198        -1.11127
LJ          -2.02317         2.33823          1.3859
LJ          -1.96815         0.33016         1.28953
LJ           2.49138       -0.908542       -0.178993
LJ          -1.16625         1.84871       -0.941718
LJ          0.426462        -1.11105          2.3918
LJ              -nan            -nan            -nan
LJ           2.04852        -1.78009        -1.12414
LJ         -0.096676       -0.523949       -0.499071
LJ              -nan            -nan            -nan
LJ          -1.98342         2.45186      -0.0589462
LJ              -nan            -nan            -nan
LJ              -nan            -nan            -nan
LJ              -nan            -nan            -nan
LJ           2.41289        -2.36834       -0.554933
LJ              -nan            -nan            -nan
LJ           1.90126         1.11064        -2.40989
LJ          0.189943         2.10847        -1.84349
LJ          -1.10106        -1.39016        -2.41058
LJ              -nan            -nan            -nan
LJ          -1.89517        -2.11057        -1.31728
LJ           2.49172        0.589778         0.25384
LJ           1.89952         1.82314        -2.55602
LJ           1.24937        -2.28824        0.198015
LJ         -0.862789         0.42616       -0.813438
LJ           1.44851         1.83084        -1.61008
LJ              -nan            -nan            -nan
LJ          -2.09599        0.706637         0.87281
LJ              -nan            -nan            -nan
LJ         -0.308486        -1.03338         1.40142
LJ              -nan            -nan            -nan
LJ           0.39082       -0.100356          1.7381
LJ          0.235631        -2.16115       -0.734915
LJ          -1.63926       -0.887918        -2.07516
LJ          -1.79665         2.32899         2.53603
LJ          0.998837            2.16        0.692874
LJ         -0.988813        -1.36806        -1.29921
LJ          -1.98773        -1.38928         2.38755
LJ          -2.10472        0.197448        0.451984
LJ          0.471963      -0.0419848        -1.93716
LJ         -0.467893         1.39618        0.640021
LJ          -1.68392        -1.33256        0.616267
LJ         -0.395666        0.113567         1.23772
LJ           1.18095        -2.30529        -0.65031
LJ           1.44221         -1.1524         1.83052
LJ          -2.19309         2.50193       0.0123942
LJ           1.65432        -1.45932          2.0365
LJ           1.11343       -0.521561        -2.23455
LJ              -nan            -nan            -nan
LJ            1.3023         1.83081         2.35937
LJ           1.55844         1.43237        -2.50772
LJ          0.945311        -2.44789        -2.15374
LJ          0.716957        0.702886          2.2117
LJ          0.573367        -1.54303        -1.97852
LJ         -0.399053        0.332866        -2.26135
LJ          0.252189         1.63616       -0.831829
LJ          -2.07283         1.76559        -2.45121
LJ          -1.14165        0.740301       0.0860224
LJ          0.729861        -1.39366         1.87683
LJ              -nan            -nan            -nan
LJ              -nan            -nan            -nan
LJ          -1.21025        -2.26235         1.94625
LJ           2.34699        0.484697         1.19764
LJ              -nan            -nan            -nan
LJ          -1.67924         1.13464       -0.542395
LJ          -0.99885        0.437021         1.02721
LJ          -1.98289         1.39838       -0.953611
LJ          -1.07442       -0.508548        -1.79151
LJ           2.45499        -1.37538        -2.09791
LJ           0.15171        -2.52833         -1.5733
LJ          -1.10676        0.777971       -0.965661
LJ           1.70626         1.49252         1.44889
LJ          -2.29198        -2.37583         2.40231
LJ          0.181504         1.00202        -2.19205
LJ         -0.903682         1.02392        0.757194
LJ           -0.3085        -1.56942         1.69791
LJ          -1.62881         1.39715        -2.17663
LJ          -1.61705        -2.38354        -1.32888
LJ          0.865221       -0.110628         -1.2403
LJ          0.872462        -2.49014         2.13352
LJ           2.43665         2.26527        -1.91084
LJ          -1.58651         -1.8283        0.915121
LJ          -2.55908         1.10638       -0.309309
LJ          -2.17334         2.10153        -1.46607
LJ          0.982076        -1.94085         2.11944
LJ          0.773591         0.54391        -1.34243
LJ              -nan            -nan            -nan
LJ           2.45685       -0.854538      -0.0931879
LJ          -2.15591          2.3567        -2.21045
LJ        -0.0155862        -1.65381         1.52541
LJ          -1.49329       0.0751045        -2.16489
LJ         -0.084036      -0.0863698         1.36872
LJ            1.1132        -1.15746        -1.19778
LJ          0.924894        -0.42383         1.45853
LJ              -nan            -nan            -nan
LJ          0.832516        0.831279         1.70978
LJ          -1.40107        -1.67007       -0.776547
LJ          -2.29061        -2.29449       0.0481829
LJ          0.970198        -2.05685        0.101154
LJ           1.88425       -0.082749       -0.355284
LJ              -nan            -nan            -nan
LJ          -2.02701          1.1092       -0.617194
LJ           2.51463        -2.12417        -1.51892
LJ              -nan            -nan            -nan
