108
#Comment!
LJ         -0.977822         1.94909        0.219213
LJ          -1.22612         2.31423       -0.590271
LJ          -1.90009         1.68615         -1.3488
LJ        -0.0261873       -0.514972        -1.58752
LJ           2.14666        0.393132        -2.38453
LJ         -0.673488       -0.949075         1.82916
LJ           1.11239       -0.960347        0.676707
LJ          0.241085        0.270644       0.0835471
LJ          -1.16077        0.741262        -1.72708
LJ          0.262013        -1.59679       -0.398731
LJ              -nan            -nan            -nan
LJ          0.107123       -0.869969       -0.234341
LJ         -0.373949       -0.771938         1.69118
LJ           2.48605        -2.15355         2.51818
LJ           2.43053        -1.46233         1.08886
LJ              -nan            -nan            -nan
LJ              -nan            -nan            -nan
LJ              -nan            -nan            -nan
LJ          -0.89719       0.0713257       -0.356083
LJ              -nan            -nan            -nan
LJ          -2.16238        -1.75369        0.486131
LJ           1.28423         2.38846        -1.15442
LJ           2.00583        -2.16108        0.553476
LJ          -2.18458          1.8398       -0.974471
LJ         0.0830614        0.468074        0.733017
LJ         -0.704112      -0.0156502         1.80929
LJ          -0.26067        -1.81894        0.213151
LJ          0.811358         2.06531        -1.94638
LJ         -0.354645        -2.42692        -1.61823
LJ          -1.86549         1.35849        -2.12539
LJ          -1.95407       -0.243538        -1.50078
LJ          -2.48147         1.91827        0.621072
LJ              -nan            -nan            -nan
LJ           2.50879        0.561285         1.70869
LJ              -nan            -nan            -nan
LJ          -1.86517        0.307871         1.60096
LJ          -2.08401        -1.78037        0.329199
LJ         -0.344122       -0.620733        -2.08589
LJ           0.10245        -2.13952         1.55533
LJ          0.940724         2.45119         2.32895
LJ           1.97316        -2.15557         2.21812
LJ           0.53253       -0.160199        -2.33896
LJ          0.984606       -0.182825         -1.9948
LJ          -2.27632       -0.999287         1.07872
LJ         -0.748656        -1.90268         1.85666
LJ         0.0578788         1.05309       -0.875986
LJ           1.36129         1.71788       -0.761592
LJ          -1.24581        -2.26403       -0.342711
LJ         -0.381283        -1.49286        0.100605
LJ           0.98905         1.75859        -1.00478
LJ           1.72654       -0.569258        0.886257
LJ          -2.32542         2.55874        0.974128
LJ              -nan            -nan            -nan
LJ           1.54799       -0.862289        -0.14512
LJ          -1.87849         1.60411          1.8504
LJ           1.27902        -2.29303        -2.55033
LJ          -2.48362         1.25757        -2.05032
LJ           1.55943        0.214957          2.2291
LJ           1.49178        -2.08236        -1.28664
LJ          0.848739         1.60372       -0.257955
LJ           2.41719        -1.33598        0.771207
LJ         -0.527169        -1.70422       -0.146789
LJ          -1.51727       -0.569798        0.506327
LJ           1.14401       -0.668855          1.7943
LJ            2.1885        -2.27656       0.0956733
LJ         0.0560304        0.187385        0.231609
LJ             1.121       -0.502587         0.98199
LJ              -nan            -nan            -nan
LJ          0.956958        0.367175         1.64125
LJ          -1.69661        -2.24248        -2.12748
LJ           1.63051        0.401138         1.73772
LJ          -1.05942       -0.096134          2.3821
LJ         -0.433861        -1.41457        -1.13987
LJ           2.39137        0.412754         1.23569
LJ           1.90259       -0.802227        -1.49766
LJ            1.7588        -1.33142         2.23672
LJ           -1.0781         -1.6599        -1.14599
LJ          -1.77511        -2.47042        0.727801
LJ          -1.21228      -0.0660154        0.498745
LJ           2.12442        -1.98789        -1.29363
LJ         -0.613092          1.5552        -1.91542
LJ          -1.04903       -0.709715        -1.33702
LJ           1.21066        0.264149         2.01352
LJ           1.48582        0.833341        -1.76772
LJ           2.30751        -1.85815         1.15563
LJ         -0.200968         2.18539        -1.91268
LJ           2.53986         2.44785        -1.20586
LJ          -2.29854         1.16049        -1.41769
LJ          0.263034         2.49613        0.638146
LJ           2.13692        -1.19977      -0.0627801
LJ              -nan            -nan            -nan
LJ         -0.842113        -2.36636        0.701408
LJ          -2.31624         1.25056         1.76536
LJ          -1.18025        0.910748        -2.23862
LJ          -1.46111         1.63598        0.223266
LJ          -1.33576        -1.81967        -2.50619
LJ           1.71389        -1.15847       -0.973991
LJ            1.3069        0.311252        -2.39799
LJ              -nan            -nan            -nan
LJ           0.57221        0.521173         1.12157
LJ          -0.44611        0.959173        0.676867
LJ           2.24737        -0.09625       0.0604755
LJ         -0.213504        -2.53715         2.44245
LJ           1.49211       -0.605852       -0.865112
LJ          0.394612         1.14328        0.358904
LJ         -0.596516       -0.610456         2.10689
LJ          -1.75961         1.34417        0.961103
LJ              -nan            -nan            -nan
