108
#Comment!
LJ           2.35398        0.523555         1.86509
LJ         -0.429008        0.921343        -1.67241
LJ         -0.799274        -1.74277        -1.12493
LJ           2.26517        -2.19878        0.765264
LJ          0.317727        0.895314       -0.133187
LJ          -1.64279        -2.11098         1.93158
LJ          -1.54027       -0.695511        0.598451
LJ          -1.70923        -1.79649         1.67808
LJ           1.49121         1.39989        0.698981
LJ         -0.791108         1.84904        -2.13528
LJ              -nan            -nan            -nan
LJ         -0.906555        -1.46726        -1.26944
LJ           2.43738        0.339434         2.07267
LJ              -nan            -nan            -nan
LJ           0.45617        0.168293         1.80436
LJ              -nan            -nan            -nan
LJ              -nan            -nan            -nan
LJ              -nan            -nan            -nan
LJ         -0.118746        0.638991       -0.535112
LJ              -nan            -nan            -nan
LJ            1.8886        -1.20048       -0.693814
LJ           1.78589       0.0861268        0.380816
LJ          -1.92236        0.147018       -0.160247
LJ              -nan            -nan            -nan
LJ           1.48675        -2.32507        0.299945
LJ          -1.20508         2.40831        0.617322
LJ          -1.84158        -1.49972        0.253164
LJ         -0.214698        -2.49161        0.924074
LJ           2.24686         2.32368        0.634657
LJ            1.2944         0.28976         1.43663
LJ              -nan            -nan            -nan
LJ          0.607459        0.460781        0.972992
LJ              -nan            -nan            -nan
LJ          -2.08714         1.11311      -0.0348373
LJ              -nan            -nan            -nan
LJ          0.108238       -0.894689         2.19203
LJ          0.699129        0.380189         -1.5847
LJ          -1.70247       -0.686598        -2.03706
LJ          0.043935        -1.19499        -2.53652
LJ          0.303075        -2.24233         1.95804
LJ           1.63773       -0.325396        0.642684
LJ           1.95338         1.56228       -0.823332
LJ           2.26729          2.4617        0.672612
LJ           1.56585         1.58489       -0.569775
LJ          -2.20173      -0.0238234       -0.839069
LJ          -0.60737       0.0617716         2.03885
LJ           0.17719        -1.57524        -1.07708
LJ          0.721047       -0.650748       -0.688936
LJ           1.74441         2.12465         1.59449
LJ          0.569989        -2.21562        -2.49128
LJ          -2.32594        0.705078       0.0974556
LJ          -2.26046        -2.10146        -1.39659
LJ              -nan            -nan            -nan
LJ         -0.932253         1.84588          0.9264
LJ          -2.14135         1.95819          -1.321
LJ          0.771598         1.16987        -1.36556
LJ           2.36612       -0.877741        -1.36565
LJ          0.711301       -0.788966       -0.991964
LJ         -0.768325        -1.75873        -1.50072
LJ         -0.852612         -1.2679       -0.460591
LJ           2.54144         1.60561        -1.63503
LJ          -2.09968         2.33371        0.939923
LJ          0.644718        -0.44978         2.36992
LJ              -nan            -nan            -nan
LJ              -nan            -nan            -nan
LJ          0.911092         1.54554        -1.92715
LJ           1.92565        -1.28088        -1.96701
LJ              -nan            -nan            -nan
LJ          -1.47399        0.574229          2.2948
LJ          0.497818         1.94245       -0.383527
LJ          -2.50069        -2.08676         2.23496
LJ           1.49788         2.31114        -1.71794
LJ             1.294         1.25356        0.613695
LJ           0.14214        -1.23309         1.74127
LJ            0.9702         1.70857         0.38916
LJ            1.8543        -2.08373        -2.49662
LJ          -0.25476        -1.57201        0.182167
LJ          0.729087        0.696376         1.63927
LJ          0.059623        -1.98266        -1.49775
LJ           0.98636         2.31366        -2.45959
LJ           2.14669        -1.50038       -0.305557
LJ          0.824092        -1.17725        -1.31189
LJ         -0.185807         1.79103        -2.17456
LJ          -1.22515        -1.90116       -0.584108
LJ         -0.787822       -0.816179       -0.926563
LJ            1.7612        -1.35181       0.0186482
LJ          -1.56257        0.288264       -0.162075
LJ          0.863162        0.205754         1.03867
LJ          -1.43177        -1.23747        0.449334
LJ          -2.53575          1.6905       -0.772005
LJ              -nan            -nan            -nan
LJ         -0.461801       -0.819802         1.71647
LJ          -2.16392        -2.05084         2.34821
LJ            1.7971         1.01113        -2.17995
LJ          0.724173        -1.67684          1.4225
LJ          -1.60624       -0.574575       -0.358324
LJ           1.16524        0.703936       -0.348424
LJ         -0.285648        0.875796        -1.41902
LJ              -nan            -nan            -nan
LJ           1.10718        -0.20051        -2.01087
LJ           2.35521        -2.34107         1.50773
LJ           2.34993        -1.21155        -2.39687
LJ           1.12036         2.30824        -1.60157
LJ          -2.50532         2.26846         -2.4603
LJ              -nan            -nan            -nan
LJ           1.96158       -0.985454        -2.50544
LJ           1.58501         2.28664      0.00265077
LJ              -nan            -nan            -nan
