108
#Comment!
LJ         -0.857603        -2.06855        -0.31904
LJ          -1.01747         1.36596        0.597431
LJ          -1.15391         1.21011         1.25472
LJ          -1.31369       -0.341699        -2.11514
LJ         -0.187862       -0.631837        -2.47024
LJ         -0.299782         2.42446       -0.286124
LJ          -2.44414          1.2471        -1.86574
LJ          0.613457        -2.09365       -0.312899
LJ           2.23312        -1.44566       -0.847201
LJ          0.929087       -0.579048         2.06264
LJ           2.22244        0.122122         -1.1903
LJ         -0.468558         1.63286          1.8926
LJ          0.689818         2.19973        0.947355
LJ          -1.45562        -1.18086        0.150478
LJ          -1.73765         2.36958        -2.33849
LJ          -2.37192         1.39001        -1.74029
LJ           -1.3781       -0.482186        -1.77196
LJ        -0.0049552      -0.0432918        0.396418
LJ           1.97387         2.24305         1.59961
LJ           1.99757         2.33433        -1.11779
LJ          0.593893        -2.13573         2.38591
LJ          -1.67243         1.38132       -0.986359
LJ           2.19203       -0.741194        0.538296
LJ          -1.38249        -1.08709         -2.0297
LJ           1.25336       -0.376716        0.338328
LJ            1.9596        0.665943         2.14578
LJ            2.1584       -0.414903        -1.39526
LJ          -2.47701        -1.25384        0.984112
LJ           1.75067         1.10681         1.89369
LJ           2.31178        -1.54959        0.483183
LJ         -0.476839       -0.639465        -1.99387
LJ          -1.32268       -0.568526        -1.00991
LJ           1.64563        -1.32067        -2.37934
LJ           1.13748       -0.542104        0.853972
LJ          0.423953         1.60851        0.181697
LJ          0.438088          2.5232         1.83491
LJ           0.11546         1.64645       0.0341246
LJ          -2.30544         1.84689         1.96119
LJ          -2.02127        -1.37362        -1.76327
LJ          -1.42118        0.640764        -2.23955
LJ          -0.77265       -0.815197       -0.189815
LJ           1.46485         1.45723        -1.32998
LJ          -1.50709         2.27588        -1.93959
LJ           2.49605         1.45445        -2.20735
LJ         -0.677346        -1.90814       -0.673688
LJ         0.0875605         2.16179        0.444598
LJ           1.57032        -2.48487          1.8081
LJ          0.435277        -1.96172        -2.23423
LJ          0.550294         1.96252       -0.334188
LJ          -2.08306       0.0468826       -0.686476
LJ          0.684709        -2.24319       -0.655006
LJ          -1.36156        0.981178        -1.41743
LJ          -1.62788        -1.67168       -0.315813
LJ           1.69623        -0.55676         0.63734
LJ         -0.118958        0.658404        -2.01692
LJ          -1.20837        -1.03487        -1.04181
LJ           1.91519       -0.725141         2.49323
LJ          -2.25249         2.00614         1.34432
LJ           1.65891        -1.92004        -2.24588
LJ         -0.712038         1.91363        -1.55996
LJ           1.44641         2.20329       -0.486961
LJ          0.079691        -2.25254        -1.71709
LJ           2.47487        -1.58253          1.2895
LJ          -1.10019        -1.30246         1.39479
LJ          -1.51755         1.26764         1.47701
LJ          -2.26914        -1.85846         -1.9402
LJ          -1.53631         2.43025         1.29986
LJ           1.29974         0.50226        -1.83164
LJ          -2.39707        -1.92936       -0.890749
LJ           1.02948        -1.88016         2.12015
LJ          -1.66877        -2.05222        0.799452
LJ           1.24251        0.169849       -0.346123
LJ            1.2253         1.64162         0.26734
LJ         -0.217628        -1.83095          0.9704
LJ          0.174421        -1.41045         1.09509
LJ         -0.513472         1.16974       -0.632798
LJ          -1.84396         1.23278        -0.48191
LJ          0.754907         1.86788         2.42474
LJ         -0.557689        -1.83719         2.08661
LJ            1.0461        -1.71019        0.251046
LJ           1.85356         1.68395       -0.476879
LJ          -2.36023        0.449691           1.479
LJ          0.985918         1.41881          -1.359
LJ           1.01735       -0.449962        -1.50995
LJ           1.46311        -2.05311         1.40961
LJ         -0.648974        -1.42657        0.443811
LJ          0.463186        -0.85158       -0.794218
LJ           1.46884        -1.52088       -0.719987
LJ           1.54733         1.98764        0.401715
LJ         -0.147963         1.24428        -1.55149
LJ          -2.01632       -0.468442        -1.55012
LJ          0.589628         2.53967        -1.70088
LJ           1.44023        -1.28134         2.10036
LJ          -1.88417        -1.06859        -1.25875
LJ         -0.122202         2.31413        -1.00748
LJ          -1.43648        -1.92049         1.16518
LJ           1.96689         1.63427        0.125924
LJ           1.78135        -1.99359       -0.265196
LJ           2.16197         1.21009        -1.28732
LJ          0.158783       -0.239096        0.931206
LJ          0.523835        -2.39523       -0.683313
LJ         -0.275634        -1.51039        -1.68468
LJ          -1.29958         1.90187        0.808202
LJ           2.04515       -0.840145        -1.44109
LJ          0.789127         1.92292        -1.34619
LJ           1.16694       -0.614876        -2.33556
LJ           2.51447       -0.226572       0.0454533
LJ          0.255046       -0.970725       -0.979913
