108
#Comment!
LJ          -1.67261        -1.79981        -1.68249
LJ           2.16062          1.9773         2.06709
LJ          -2.23549        -0.36182         1.93348
LJ         -0.598023        -1.92668         -1.8229
LJ          -2.30773         1.30037        -1.91695
LJ         -0.777416         2.00614        0.403413
LJ          -1.73247        -2.34922        -2.56337
LJ          -1.61687        -1.28562        0.799269
LJ         -0.117517       -0.483523        -2.23375
LJ          -2.51483        -1.46699         1.97961
LJ              -nan            -nan            -nan
LJ           2.32691        0.870989       -0.941299
LJ         -0.546763         1.08467         1.99628
LJ         -0.843555       -0.631153         1.43459
LJ          -0.43866       -0.826239        -2.32687
LJ           0.33327        0.629694         0.34959
LJ          0.620861        0.487548        -2.21335
LJ         -0.822303        -1.22479        -2.09776
LJ           1.03834         2.45093       -0.539623
LJ          -0.99311         2.33653         1.47197
LJ           1.16775         2.25741        0.723354
LJ          0.175722        0.608642         2.41348
LJ         -0.203585      -0.0914129       -0.519698
LJ           2.38283       -0.846199       -0.889094
LJ          -1.62955        0.646161        0.832426
LJ          0.312397        -1.36441        -1.26073
LJ        -0.0472373      -0.0840663        -1.81157
LJ          -2.20495        -1.66205        -1.02091
LJ          -1.81048        -1.85969         2.41697
LJ           2.00748        -2.20086      -0.0367213
LJ          0.600302        -0.75536         1.28534
LJ          0.347843        0.877195        -2.30212
LJ              -nan            -nan            -nan
LJ          0.301944         2.38231        -2.25662
LJ          0.835472      -0.0816541         1.05839
LJ          -2.01413         0.14304        -1.30273
LJ          0.792162        -2.00201        -2.00034
LJ         -0.568264        -2.07831         1.48002
LJ         -0.535888        -1.45508        0.238852
LJ          -1.93967         2.02246         1.92327
LJ            1.1756         0.84785        0.339785
LJ           2.30243        0.249316        -1.19552
LJ           1.11052       -0.555528          2.4697
LJ          -2.00077         -1.1904          2.1731
LJ           2.45295        0.473243        -1.24624
LJ            1.7744         2.33535        0.535261
LJ           1.49062         1.84588         2.03606
LJ           1.46475         1.25693        -2.35942
LJ          -1.80781        0.826667         1.49625
LJ           0.35817         1.29754         2.51148
LJ          0.930182         1.62325        -1.38276
LJ          -1.12579       -0.675888       -0.374698
LJ           -1.4132         1.17587       0.0920725
LJ          0.282431        -1.39476       -0.343823
LJ          -0.89332        -1.83937        0.819507
LJ           1.90658         0.53894        -1.40941
LJ         -0.315443        0.854469         1.83033
LJ          -1.01101        -0.29713        -1.00022
LJ          -1.83996        -1.73312        -2.26658
LJ           2.17023         1.06764        -1.05664
LJ          0.314183       -0.750046         0.51627
LJ          -2.00053       -0.576987         1.09155
LJ          0.387952        -1.10292       -0.133488
LJ           1.32556        -2.42268        -1.29952
LJ           2.02861         0.38615        0.827083
LJ          0.618719       -0.684041        -2.51565
LJ           1.16776      -0.0907192        -1.36847
LJ           2.33773      0.00946418       -0.142812
LJ           1.99302         2.55221        -2.53304
LJ          -1.70312       0.0103119         2.53213
LJ          0.260002        0.932341        -1.73081
LJ          -2.19937        -1.05279       -0.871908
LJ           1.15604         1.06518       -0.724621
LJ           1.78613         1.81029       -0.200751
LJ          0.363689       -0.370065        0.754672
LJ          0.166108        -0.53902        -0.20874
LJ          0.295969       -0.774969        -1.05283
LJ         -0.886219          -1.322         1.84838
LJ           2.48207        -1.19451         1.93125
LJ          0.135522        -1.08999       -0.663395
LJ           1.56008        0.605438         -2.0511
LJ         -0.420967      -0.0245922       -0.574811
LJ        -0.0293564         0.85786        -1.77639
LJ         -0.955629        -1.84253        -1.32467
LJ         -0.920423        0.749984        -1.45666
LJ          -2.50912        0.416791       -0.078145
LJ          -1.08412         2.39241         2.09909
LJ          0.585053       -0.280925        -2.21374
LJ          -0.51002      -0.0576272        0.703514
LJ         -0.800463        0.354414        -2.04546
LJ           2.33958        0.658083       -0.637987
LJ          -2.50472         1.77966        -2.00841
LJ          -1.72155         2.52306       -0.661068
LJ         -0.283665       -0.423269        -2.54107
LJ         -0.955176         2.28461        -2.35402
LJ          0.370916          2.0131        -1.45339
LJ           1.43612        -2.29913        -1.83375
LJ           2.16432        -2.12134       0.0682235
LJ           2.12372          1.3486        -2.12798
LJ           2.39353        0.599737        0.334176
LJ          0.119949         2.56084        -1.68157
LJ         -0.191316          2.1281       0.0224193
LJ           1.09489        0.256046        -2.07678
LJ          -1.14309        0.825052        -2.42003
LJ           2.49929         1.59639        -1.90446
LJ           -1.4647        0.396266          0.8723
LJ            1.6659        -1.19761        -2.52818
LJ           1.80333       -0.174717        -1.82823
