108
#Comment!
LJ          -2.52754         2.33835        0.819044
LJ          0.904483        -2.11695       -0.578383
LJ          0.988229         1.32507       -0.392422
LJ          -1.85169       -0.494142         2.00267
LJ          -2.40256        0.976371       -0.365366
LJ           1.74629       0.0290454       -0.364837
LJ           1.18745         2.39479         0.92359
LJ           1.19216        -2.48156         1.98242
LJ          -1.60876        0.171531         1.49198
LJ          -0.58024         1.74706       -0.734261
LJ              -nan            -nan            -nan
LJ          -1.77818        -2.41878        0.894277
LJ          -2.45118      -0.0109635        0.160199
LJ              -nan            -nan            -nan
LJ           2.13952        0.650503       -0.344116
LJ              -nan            -nan            -nan
LJ              -nan            -nan            -nan
LJ              -nan            -nan            -nan
LJ           1.79667         -2.3435       0.0423241
LJ              -nan            -nan            -nan
LJ           1.38755       -0.746819         1.20475
LJ           2.30139        0.716822       -0.513597
LJ         -0.771546         1.52352        -1.32238
LJ              -nan            -nan            -nan
LJ          -1.82933       -0.759939        -1.70862
LJ            2.5633        0.715168         2.55856
LJ          0.670293       -0.740258        -1.60676
LJ          -2.31856        -1.91911       -0.213112
LJ           -1.4905        -2.38543        -1.51589
LJ           2.13637        -1.37138        0.492226
LJ              -nan            -nan            -nan
LJ          -1.00578         1.65939         0.83737
LJ              -nan            -nan            -nan
LJ          -2.22589         0.21583         1.64006
LJ              -nan            -nan            -nan
LJ          -1.46293       -0.832269         1.45242
LJ            1.9796       -0.154919        0.895393
LJ          -2.44253        -2.23171        -1.51726
LJ          -1.38244          2.2168        0.604684
LJ           2.45317        0.336915       -0.166025
LJ          -2.29932        -2.43944          1.3441
LJ          -1.45076        -1.44362        -1.10254
LJ          -1.49807         1.02662        0.187811
LJ          -1.17787          2.1056         1.79132
LJ          0.121954         1.00768         1.87862
LJ         -0.412062        -1.32662       -0.332481
LJ         -0.605969        -2.28626        0.677429
LJ           2.08229        -2.13861        -1.50685
LJ           1.92548       -0.736265        -1.32785
LJ           2.33162        -1.87675       -0.646231
LJ           0.97347         2.38187         2.10465
LJ           2.39187       -0.578863         1.60381
LJ              -nan            -nan            -nan
LJ          -2.47911        -2.14102        0.455452
LJ         -0.616655         2.34586         1.52537
LJ          0.908345        0.887566        0.371143
LJ          0.873848        0.962169        -1.96007
LJ            1.7334        -1.94934         1.01607
LJ          -2.42199       -0.432898       -0.128411
LJ          -1.63426       -0.805392        0.465432
LJ          0.106142        0.529767        -2.20981
LJ          -1.24226        -1.60639        -1.65293
LJ          -2.09624        -2.25948       -0.200694
LJ              -nan            -nan            -nan
LJ              -nan            -nan            -nan
LJ          -2.11783         0.38552        0.149657
LJ          -1.13042        -2.05517         2.47949
LJ              -nan            -nan            -nan
LJ           1.54908       -0.875121        -1.54936
LJ          -2.07807         2.47782        -1.19277
LJ            2.0062        -1.97522         -1.7177
LJ          -1.69018         1.44681         1.17217
LJ           2.34831       -0.969323          -1.756
LJ         -0.412787        0.459285         2.09762
LJ          -1.40491       -0.376641       -0.639697
LJ          -2.21731         1.49126        0.057026
LJ           1.58551        0.891286        -1.36252
LJ          -2.10786       -0.949742         2.32036
LJ         -0.553161        0.672271        0.958712
LJ            1.5514        0.711869        0.759012
LJ          -1.01633         1.89928        0.842816
LJ           2.01372           1.737        -1.67197
LJ           1.82872        -2.43594         -1.7281
LJ           1.79593         1.13368         1.91487
LJ         -0.484475         2.22637        -2.22252
LJ           2.23893        0.957047        -1.75414
LJ           1.51641         1.53164        0.952016
LJ          -1.75364        -1.84903        0.473776
LJ           2.02816         2.25652        0.351493
LJ          -1.91344       -0.664502         1.33961
LJ              -nan            -nan            -nan
LJ          0.819587        -1.67172       -0.975701
LJ         -0.761314          1.5665        0.238275
LJ           2.43397         1.34181         2.16526
LJ           -1.6887       -0.296776         1.61592
LJ           2.04253         1.48787        -2.51709
LJ          0.411783        0.673158        0.361313
LJ            2.2835        -2.29192        0.862601
LJ              -nan            -nan            -nan
LJ           1.90965         2.30289         2.17106
LJ          -2.49771         1.84358         1.67316
LJ           2.12335         1.73868       -0.796186
LJ           2.56362         1.16415      -0.0691086
LJ          0.794308        -0.14961         1.71325
LJ              -nan            -nan            -nan
LJ         -0.748945       -0.508645        0.437428
LJ           0.84894        -1.78712        0.877299
LJ              -nan            -nan            -nan
