108
#Comment!
LJ           -2.3654        -2.47107        -1.82524
LJ           2.54732        0.490036         1.12594
LJ         -0.753975        0.886863        -1.41991
LJ           2.20157        0.621042       -0.455908
LJ          -1.87165        -1.00601        0.197572
LJ           2.21715         0.79481        -1.33301
LJ         -0.113476         1.09458         2.27685
LJ         -0.981193        -1.18129          2.2424
LJ           2.08202       -0.313807         1.86192
LJ           1.87616      -0.0356111       -0.709516
LJ              -nan            -nan            -nan
LJ          -1.45396        -1.64372        -2.12092
LJ         -0.165824        -2.09925        0.475679
LJ          -1.28311          1.2502         1.17876
LJ           -0.2143        -1.92784        -1.54995
LJ         -0.246618         1.10219         1.57403
LJ           -1.5366        -2.30071        0.153189
LJ          -1.73795        -0.81066       -0.504258
LJ           2.16932         1.53555        -1.63455
LJ           2.29459        -2.10522        -1.09439
LJ         -0.190762       -0.118856        -1.31645
LJ          -2.03135       -0.933148       -0.682793
LJ          -2.54117         1.77457        -0.16006
LJ          -2.24869       0.0494428         2.05857
LJ           1.78712        -2.51399        -2.36778
LJ          -0.68872        -1.16335         1.29646
LJ          -1.49369        -0.34074         1.23045
LJ         -0.807157         2.56345        -2.00557
LJ           1.32148        -0.32387         1.62926
LJ         -0.177896       0.0765679       -0.721973
LJ          -0.88149        0.619109         2.21161
LJ           1.75316       0.0642875       -0.571965
LJ              -nan            -nan            -nan
LJ           2.32409        0.598035         2.16775
LJ           1.04644        0.213783        0.702457
LJ           2.37038        -1.89782        -1.90528
LJ          -1.90821         2.05572        0.663602
LJ           1.74624        -1.62653         -2.2087
LJ          -1.09567         1.40932         -1.4936
LJ           1.94097          1.4568        -1.12755
LJ         -0.283546         2.34899        -1.42311
LJ          -1.27447        0.325665         1.10874
LJ         -0.949972         1.34207       -0.999577
LJ          0.270015          1.0218        -1.84765
LJ          0.584857         1.22657        -1.37773
LJ         0.0263036         2.52451        -1.98789
LJ            1.2118        0.589197       -0.991546
LJ          -1.90617        -1.94136        -1.94111
LJ           0.29328         1.46585       -0.506373
LJ         -0.224425       0.0563863        0.685774
LJ          -0.74474         0.79234         1.07197
LJ           1.67653        0.275635       -0.138223
LJ         0.0605169        -1.98759        0.595556
LJ          -1.58402       -0.984423        -1.04553
LJ          0.198306        -1.97855        -1.18594
LJ          -2.06918         0.20267        -1.61478
LJ         -0.607008         2.43445       -0.569492
LJ          -1.24912        -2.27655        -2.24719
LJ           2.38042        -2.36333         1.09449
LJ           2.24758        -2.29393         2.28157
LJ          -2.06879        -1.54762        0.355102
LJ         -0.811673       -0.615713           1.952
LJ          0.278939         0.78571        -1.37873
LJ           2.13887         1.49614        -1.18032
LJ          0.966768         1.72504        -1.15638
LJ           2.19328        -1.37077         1.21804
LJ         0.0762145        -1.54486        -2.38726
LJ         -0.233205         1.12129         1.87752
LJ          0.748998       0.0734726        -2.17007
LJ          -1.97438         1.65328        -1.86449
LJ           2.06867        0.477478       -0.422649
LJ          -1.97287        0.200662        0.249301
LJ          -1.80179        -1.44306       -0.180267
LJ          -0.26784          1.0599        0.373609
LJ          0.615324        -2.55058         1.33633
LJ        -0.0933129         2.18741        0.182272
LJ          0.253317         2.37147       -0.952055
LJ           1.25282        -1.41192         1.49696
LJ           1.14361        -2.14456        -1.22931
LJ         -0.693541        0.217133         1.89025
LJ            1.7458       -0.152865         2.03777
LJ          -1.78545        -2.31674       -0.762102
LJ           1.14371       -0.942784         1.07766
LJ         -0.469064       -0.975876         1.03494
LJ         -0.496115       0.0286674        -2.54029
LJ           1.89207        0.259905        0.287998
LJ          -1.28244        0.206754         -1.1388
LJ          0.691507       -0.518273        0.129492
LJ           2.42715         1.25398        0.218613
LJ           1.62438         2.25863         1.03904
LJ          -2.10058         1.57808       0.0769107
LJ           2.37234        0.122984        -2.17491
LJ          -1.86422         2.38345          2.1735
LJ           2.43767         1.46747        -2.06005
LJ          -2.12587        0.983448      -0.0254346
LJ        -0.0722044         -2.0912       -0.741442
LJ           1.47078        -1.10496        0.159197
LJ           1.99089        -2.13129       -0.110711
LJ          0.805406         1.77421        0.336069
LJ          0.796556        0.274548        -2.27741
LJ          -1.04093         1.29096        0.723991
LJ          -1.59279        -1.48276        -2.01947
LJ          -1.18658        -1.14836        -1.73777
LJ           1.88317         1.32106        -1.70933
LJ           2.30025        0.272639        -1.06595
LJ           1.45771        -2.15041        -2.39302
LJ           2.02884        0.681213        -1.71176
LJ          -2.01555         1.45682         2.54279
