108
#Comment!
LJ         -0.482886        -2.40652        -0.83722
LJ         -0.417114        -1.44501        -1.33613
LJ           1.26643          1.1175        -2.41274
LJ          -1.73988       -0.880493         1.97904
LJ        -0.0728606        0.435602        -0.93825
LJ           0.53407         1.52347        -2.04699
LJ           2.45589         1.24852         2.28415
LJ        -0.0832193        -2.18985        -1.77873
LJ           1.23368       -0.826299        -2.41728
LJ          0.284417        -2.06634         2.38275
LJ              -nan            -nan            -nan
LJ          -1.07799         2.14172         1.27659
LJ          0.444911        0.224282         1.69959
LJ              -nan            -nan            -nan
LJ         -0.827585        -2.44059         2.35145
LJ              -nan            -nan            -nan
LJ              -nan            -nan            -nan
LJ              -nan            -nan            -nan
LJ          0.239523         2.47986         2.29688
LJ              -nan            -nan            -nan
LJ           1.85043        0.869925        -1.81852
LJ         -0.931739         -2.3477      -0.0709231
LJ          -1.95207         1.62732         0.19106
LJ              -nan            -nan            -nan
LJ           2.29177       -0.285807         1.49698
LJ          -2.17953        -2.26149         1.07887
LJ           1.54944           1.096        -1.76635
LJ          -2.30171        0.896927         1.96161
LJ           1.35639        -1.22448       -0.915802
LJ        -0.0383236        -2.22832         1.21258
LJ              -nan            -nan            -nan
LJ          -1.65251       -0.251287        -1.37267
LJ              -nan            -nan            -nan
LJ         0.0791085      -0.0622021        0.490486
LJ              -nan            -nan            -nan
LJ           1.56861       -0.785467        0.592859
LJ          -2.37609        -1.20832         1.17128
LJ          -1.41028       -0.442386       -0.733559
LJ          0.196286       -0.314862       0.0705219
LJ           1.39774         2.12006         1.37888
LJ          0.682049        -1.61918        -1.29887
LJ         -0.783307       -0.544906          2.1464
LJ           2.40351         1.63924          -2.031
LJ            -2.123         2.08552        0.427005
LJ          0.107445        -2.18889         1.17713
LJ         -0.998645        -1.36516         0.35955
LJ          -2.42898         2.18565        -1.92606
LJ          -1.58429        -2.13993        -1.90884
LJ           2.10566       -0.717412        -1.16157
LJ         -0.838233        0.638763         1.21293
LJ          -1.07058        -0.24559       -0.413812
LJ         0.0949398      -0.0982642        0.189355
LJ              -nan            -nan            -nan
LJ           1.34936        0.975373        -2.01643
LJ          -1.78095         1.25777        -2.03203
LJ           1.34641        -1.27388         2.51816
LJ          -0.97357         2.05839         1.38119
LJ           1.24218         1.82156        0.830794
LJ           1.68077         2.18346         2.13461
LJ           1.01839        -1.67116         1.83233
LJ          0.965631         1.40892       -0.881751
LJ         0.0948927         2.02061        -1.13004
LJ           2.06691        -2.05975        0.646357
LJ              -nan            -nan            -nan
LJ              -nan            -nan            -nan
LJ           1.57437        -2.06124       -0.373944
LJ          0.851183        0.416738        -1.19757
LJ              -nan            -nan            -nan
LJ           1.43211       -0.819067        -2.55098
LJ           1.45184       -0.484629         2.26149
LJ           2.49946       -0.461641       -0.271415
LJ          -1.79058         1.05798        0.767198
LJ          -1.40802         0.47731        0.572801
LJ         -0.812303        -2.24751         2.42807
LJ         -0.638021        -1.90314         1.56551
LJ           1.60892        -1.05809       -0.683788
LJ          0.124861           1.381         1.89874
LJ         -0.584018        0.514574        -1.59274
LJ         -0.314872        0.314759        -1.16849
LJ        -0.0082694         1.39604          1.3449
LJ          -2.23524       -0.183506         1.27502
LJ          0.309609        0.753534       0.0592016
LJ        -0.0927607         1.62078        0.867167
LJ         -0.805458        0.292954       -0.420434
LJ           1.35213         1.36328         1.49307
LJ          0.118713         2.27646        -2.15006
LJ           1.92235         0.62619        -2.46533
LJ           2.02456     -0.00071185         2.36517
LJ          0.213879        0.468273        -1.25738
LJ           1.63621         0.33808         1.43541
LJ              -nan            -nan            -nan
LJ           -1.4072        0.506723        -2.42621
LJ          -1.16349       -0.584908        -1.27324
LJ          -2.11557        -1.96598         2.41369
LJ          0.304741       -0.653257       -0.485214
LJ           0.25782        0.329985        -1.34934
LJ         -0.794074       -0.240704       -0.455468
LJ          -1.56493         2.01252        -1.38761
LJ              -nan            -nan            -nan
LJ            1.4185         2.06101         1.69207
LJ          0.952581      0.00504959        0.782273
LJ         -0.844686         2.33611        -1.57519
LJ           1.94435       -0.604094       -0.992338
LJ           1.44373       -0.268568        -1.13518
LJ              -nan            -nan            -nan
LJ         -0.514744        -2.41463       -0.930401
LJ          0.129031        0.975295      0.00399787
LJ              -nan            -nan            -nan
