108
#Comment!
LJ          0.765796       0.0242338       -0.999615
LJ          -1.50245        0.414706       -0.978973
LJ          -2.12097       0.0837525        -2.18575
LJ          0.565304       -0.562594        -1.54657
LJ          -1.70683       0.0504824         1.10824
LJ          -1.90692        -2.03964        -2.07195
LJ           -1.2566       -0.739438         1.91056
LJ            -1.128        -1.91824        0.569607
LJ          0.366309        0.278009        -2.04171
LJ         -0.774345        -2.47329        -2.39408
LJ              -nan            -nan            -nan
LJ          0.158649        0.523876        0.325147
LJ          0.236973          1.7923         1.09835
LJ           1.99974         1.18812        -1.28376
LJ          0.932793      -0.0530849         2.41333
LJ          -0.86004        0.811824        -2.04255
LJ              -nan            -nan            -nan
LJ              -nan            -nan            -nan
LJ          -1.33759         2.01452        0.252894
LJ              -nan            -nan            -nan
LJ           1.19846        -1.22141        0.577489
LJ           2.47793         2.09807        0.147574
LJ         -0.292943        -1.93123         2.10322
LJ          0.378189         -1.2681       0.0626754
LJ          -2.15196        0.141687       -0.110554
LJ          -2.54192          1.8225        -2.44131
LJ          0.491261        -2.07574       -0.935251
LJ         -0.408677        -1.40768         1.86343
LJ          -2.00089        0.176854         1.01976
LJ          -2.06493         2.20843        -1.38024
LJ          -1.79885        -1.87913        0.232069
LJ           1.73217         -1.4549         1.27956
LJ              -nan            -nan            -nan
LJ            2.1081       -0.867846        -2.44112
LJ              -nan            -nan            -nan
LJ          -1.96646       -0.995557       -0.719926
LJ          -1.14631        0.263886         1.10559
LJ          -1.69122         2.05757       -0.445484
LJ           1.31174         2.06097       -0.542623
LJ          -1.80488       -0.463198        0.416199
LJ           1.68508       -0.261421       -0.123427
LJ           1.33715      -0.0199767       -0.920708
LJ           2.20916         -1.8757        0.134692
LJ          -1.33521       -0.112927        -1.57653
LJ         -0.207785         -1.2387        -1.71394
LJ          -0.33526       0.0764888        0.973198
LJ           2.34582        -2.12534        -1.30697
LJ          -1.36568       -0.377479       -0.971159
LJ          -1.08431        -2.48948         2.37892
LJ          -1.16183        0.338864       -0.831896
LJ          -2.45841        0.386413        -0.62862
LJ           1.87159        0.535648         1.56867
LJ              -nan            -nan            -nan
LJ         -0.436007         1.23822         1.29673
LJ           2.32514       0.0482782        -1.02608
LJ         -0.363361         1.97843       -0.983645
LJ           1.64453         1.07622       -0.842603
LJ          -1.64441         2.00036        0.677174
LJ           2.55392        -1.44452        -1.56944
LJ          -1.28137         1.46118         1.25935
LJ           1.46065        0.436981        -1.03788
LJ           1.86332       -0.988921        -0.34128
LJ          -1.53042        -0.21734       -0.972253
LJ           1.49203         1.42091        0.217283
LJ          0.142554         1.50445          2.1449
LJ          -1.10785         1.39381        -1.94113
LJ           2.15102          1.9921        0.986162
LJ              -nan            -nan            -nan
LJ          -1.66769        -1.96082        0.819888
LJ          -1.11258       -0.125721        0.342775
LJ         -0.893523        -0.14716         2.39711
LJ          0.461112         1.20304        -1.99474
LJ           1.04452        -2.27135          1.3045
LJ           1.92622       -0.233316        -1.51514
LJ           -2.2223        0.761078         2.10714
LJ          -2.55067       -0.407003        0.436027
LJ          -1.43677        -2.39412       -0.294461
LJ          -2.29295       -0.754649       0.0930617
LJ          0.201483        0.839436         1.31269
LJ         -0.805455         1.27743        0.177265
LJ           2.12393       -0.682915        -1.15808
LJ           1.85052        -1.37381        0.858805
LJ           -2.1761        -1.20508        -1.08164
LJ          0.262347      -0.0073439        -2.01384
LJ          0.430625        -1.46689       -0.472014
LJ         -0.676739         2.22072         1.50728
LJ          0.256814        0.784225        -2.24479
LJ           1.42877        -1.44172        0.550062
LJ           2.13798        -1.75206       -0.349467
LJ           2.12653       -0.218867         1.59557
LJ              -nan            -nan            -nan
LJ           1.88896        0.353816        0.566924
LJ          -1.43404        -1.91848         2.45194
LJ         -0.332207        -1.34994       -0.975067
LJ          -1.36327       -0.687706        -1.62583
LJ           2.18542        -2.04155       -0.417811
LJ         -0.129984         1.75687         1.49018
LJ          -1.54982        -1.31758        -1.16009
LJ           1.72323         2.43256        0.743151
LJ           1.61239         -2.4539         2.51373
LJ            2.1509        -2.24714        -2.28121
LJ            2.4725       -0.509562        -1.66701
LJ           -1.9325        0.392454       -0.768752
LJ         -0.940998        -2.12733          1.6423
LJ          -1.78342         1.42736       -0.567489
LJ          -2.46849         1.26799          1.3251
LJ            2.3114        0.805635        -2.11763
LJ              -nan            -nan            -nan
