108
#Comment!
LJ           1.13509        -2.08395        0.600722
LJ              1.86       -0.393612         1.39544
LJ          -1.26297       -0.298052        0.758488
LJ          -2.39543         -1.3256        0.758907
LJ            1.3414        0.508206        -1.21668
LJ          -1.15422           1.039        -2.14362
LJ           -1.5371        -2.15884          1.1812
LJ          -2.56146         1.19001        -1.92712
LJ          -1.61332         1.47929         1.93952
LJ          -1.93106        -1.78581        -1.76201
LJ              -nan            -nan            -nan
LJ           1.08034        -2.49324         1.99154
LJ         -0.970271        -1.16416          0.8134
LJ              -nan            -nan            -nan
LJ          -1.28403        0.751184        -1.31021
LJ              -nan            -nan            -nan
LJ              -nan            -nan            -nan
LJ              -nan            -nan            -nan
LJ           -2.3067      -0.0376867       -0.528587
LJ              -nan            -nan            -nan
LJ          -2.23381        -1.90001         1.09658
LJ         -0.730299         2.08598       -0.475802
LJ           1.59418        0.111392        0.847648
LJ              -nan            -nan            -nan
LJ          -2.47978        0.640529         -1.1481
LJ         -0.107614         1.71322         1.88502
LJ           1.72111         1.96104        -1.24844
LJ          -1.58927         1.93266         1.96416
LJ          -2.43916         2.15143        0.833409
LJ           1.40125       -0.885437         1.13467
LJ              -nan            -nan            -nan
LJ         -0.139233        0.316108        0.189743
LJ              -nan            -nan            -nan
LJ         -0.060482        -2.37151         2.43863
LJ              -nan            -nan            -nan
LJ           2.23433        -2.53127       -0.274622
LJ           2.10529         2.41289        0.107129
LJ           1.85099         1.32618        -1.33834
LJ          -1.73367        -1.18221         2.29081
LJ           2.50456       -0.301123         1.55704
LJ          0.111807         2.52127        -1.09877
LJ          0.166894        -2.15355        0.401551
LJ          -1.27495        0.375887        0.990505
LJ          -1.39239         2.15137         1.71667
LJ          -2.40025        -1.46904         1.06287
LJ          0.271364        -1.84601         2.38425
LJ          -1.35571         2.08013        -2.35104
LJ          -1.54419        -1.01991         -1.1687
LJ          0.529527         1.54651         1.15986
LJ          -2.07546       -0.425775        -2.53217
LJ          -2.05298         2.43679       0.0566584
LJ          0.705169        -1.60645        -1.26552
LJ              -nan            -nan            -nan
LJ          -1.02608        -1.63294         1.10706
LJ           -2.5428       -0.683447       -0.281984
LJ          0.298137       -0.406788        0.759518
LJ         -0.949138         1.49349       -0.758243
LJ           1.26025       -0.198753         1.41017
LJ          0.815606         1.33788        -2.18725
LJ          0.534385       -0.358452        -2.54285
LJ          0.225569        -2.46481        -1.49653
LJ          -2.00277        -1.85067       -0.625195
LJ          0.117966        -1.81626         1.15102
LJ              -nan            -nan            -nan
LJ              -nan            -nan            -nan
LJ           1.18987       -0.252599         1.05105
LJ          -2.27198        -1.83364         -1.0454
LJ              -nan            -nan            -nan
LJ          0.401161        -1.12803       -0.610054
LJ          -2.51988       -0.523808          1.0235
LJ          -2.12797         -2.5309         1.94214
LJ          -1.75903           2.388          2.4504
LJ          -1.04062         1.28065        0.784883
LJ          0.360134        0.184564       -0.544835
LJ         -0.176071        -2.24767         1.90744
LJ          -0.93325        -1.76021        0.462119
LJ          0.602459         1.67368         1.17996
LJ         -0.737064          1.5875         1.40346
LJ           1.27703       -0.685186        0.661715
LJ           1.30055       -0.622165        -1.82758
LJ            1.6141        0.988529       -0.283291
LJ           1.24913       -0.110177        -2.39803
LJ          0.662671         -1.6548          1.8207
LJ           1.27102        -1.18822         2.32695
LJ           2.38885       -0.992145        0.950343
LJ          -1.60037        -1.39054        -1.24691
LJ           1.01045       -0.958255        0.429289
LJ          -1.34785        -1.04138       0.0568721
LJ          -2.17701       -0.848954       -0.355335
LJ         0.0889304          1.6624       -0.600179
LJ              -nan            -nan            -nan
LJ          0.355045      -0.0988251        -1.86126
LJ           -0.4469      -0.0820034         1.95433
LJ          -1.97052        -1.31938         1.37717
LJ           1.20606        -1.67614        -1.68079
LJ           1.27963         -2.4031          1.7866
LJ           2.49977        -1.42536         2.50007
LJ           2.33779        -1.15339        0.686792
LJ              -nan            -nan            -nan
LJ         -0.516132         -1.7812       0.0135201
LJ           1.15792         2.40709        -1.95394
LJ           1.71941         2.26222         1.79273
LJ         -0.697441        0.977038        -1.92308
LJ         -0.453746       -0.292601        0.935553
LJ              -nan            -nan            -nan
LJ          -2.19302        0.251505       -0.348297
LJ          -2.09213         1.33573         2.10641
LJ              -nan            -nan            -nan
