108
#Comment!
LJ         -0.734546         1.35865         1.62244
LJ          0.347608        -2.21766       -0.710408
LJ           1.17898         -2.1019        -2.11092
LJ           1.75112         1.34675          1.7763
LJ            2.2547        -0.84197         1.86878
LJ          -1.28526         1.04725        -2.48811
LJ           2.42694        -2.15787        0.286219
LJ           2.54763        0.668818         -2.1832
LJ          -2.19773        -2.14848         -1.5293
LJ           1.98796        -1.13833       -0.343983
LJ              -nan            -nan            -nan
LJ          0.633455        0.382087         2.39875
LJ          0.528211         1.03581        -2.09209
LJ          -1.62333       0.0461254       -0.324466
LJ          -1.76529        -2.35732         2.22319
LJ          0.849914       -0.203434        -1.30677
LJ              -nan            -nan            -nan
LJ              -nan            -nan            -nan
LJ           1.49309         1.78717        0.290409
LJ              -nan            -nan            -nan
LJ          -1.17016        0.663322      0.00390079
LJ         -0.635571         1.39426         1.69573
LJ           2.16005        -0.88723       -0.850029
LJ           1.09122        -2.39048        -0.90102
LJ         -0.638469        -2.27846        -1.23213
LJ           0.74413        -1.27919        -1.90374
LJ           2.55105       -0.605646        0.243853
LJ           2.55906       -0.665831        -2.53083
LJ          -1.42552        -2.56381         1.18004
LJ          -1.71453        -1.55161        -2.56409
LJ          -1.07825        -1.56226       -0.964679
LJ          0.942492         1.52558         1.44453
LJ              -nan            -nan            -nan
LJ         -0.359172         1.12308       -0.191428
LJ              -nan            -nan            -nan
LJ           1.59956         -1.7872         1.73406
LJ          -2.46412       -0.388934       -0.257283
LJ            -2.543         -1.5317         1.31308
LJ          0.683742        -1.17244        -1.27067
LJ           -1.8523         2.32468         1.47969
LJ          -0.16633        -1.60228        -1.73385
LJ           1.77703        0.368662         2.38702
LJ           -1.4917         -1.7212       -0.683954
LJ          -1.98484       -0.240933        -1.57998
LJ          -0.38081        -1.45247         1.31897
LJ           1.22183       -0.343691         2.32551
LJ           2.09222        0.987092        -1.66316
LJ           1.79775        -1.46288        -1.28271
LJ          -1.77552         1.16368         1.40699
LJ          -2.36055          0.3491       -0.201155
LJ          -1.53701       -0.542392        0.964682
LJ          0.040674         1.11524        -1.40357
LJ              -nan            -nan            -nan
LJ         0.0887523       0.0136642      -0.0812684
LJ          -1.40928          -1.432       -0.416073
LJ         -0.805133        -1.95578         1.46844
LJ         -0.739346        0.381974        -1.11153
LJ           1.42936          1.1531        -2.53638
LJ         -0.683566          1.8288        -1.40199
LJ          0.855548       -0.800237        -2.45835
LJ           1.65385         2.47998        0.934587
LJ          -2.52558         -2.0828        0.833046
LJ         -0.466614         1.22438        -2.02382
LJ          0.702643        -2.02061        -1.17947
LJ          -2.14687       -0.302561        -2.09833
LJ          -1.99814        0.507071      -0.0904994
LJ           1.89537        -1.67716         2.52639
LJ              -nan            -nan            -nan
LJ          0.996352       -0.619437         2.49158
LJ           1.20066        -1.63029        -2.16949
LJ          0.331448         2.05786       -0.309797
LJ      -0.000435205        -1.49132       -0.967761
LJ           1.77198         1.20192         1.51255
LJ          -1.02633       -0.196826         2.50817
LJ           2.13087        -1.92983       -0.361562
LJ          -1.57272        0.799185         1.76787
LJ           1.40198       0.0311093         0.69871
LJ         -0.261976        -2.21783        -2.42388
LJ          -1.77768         2.43737        0.749455
LJ          -2.51027        -2.43579         1.41778
LJ          0.931549        -1.88134          1.2191
LJ          0.166264       -0.571812        0.958543
LJ          0.793202         1.00551      -0.0337345
LJ         -0.922496        0.407761        -0.33632
LJ           0.30246        -1.84527        -1.85213
LJ          -1.81772         2.13989        -0.84606
LJ          -2.14192        0.666638       -0.219011
LJ           1.88851        0.870845        -2.23716
LJ           2.36735        0.883481         1.29362
LJ           1.81594         1.36703         1.25634
LJ              -nan            -nan            -nan
LJ          -0.44911       -0.777911         -1.8386
LJ           2.36081         2.25335        0.679293
LJ        -0.0266291        -1.69714        0.974743
LJ           2.38984        0.410463        0.579513
LJ         -0.655324        -1.67958       -0.857583
LJ          0.965031        -1.76848         2.38287
LJ          -2.04426        -1.86689         1.22071
LJ           1.09615         1.63977        -1.69949
LJ         0.0833989        0.688081       0.0447629
LJ           1.16916       -0.797965         1.76609
LJ         -0.729728         1.77237       -0.973653
LJ           1.34404         -1.1013         -1.1591
LJ          -1.94975        -1.83215        0.492607
LJ          0.798613        0.301981        -1.84201
LJ         -0.666759       -0.302224        -1.04404
LJ           1.57859         1.85038          1.9947
LJ              -nan            -nan            -nan
