108
#Comment!
LJ           2.41981          -2.101        -0.58209
LJ         -0.239754         1.22699        0.267501
LJ          -1.06173         2.00259        -1.63486
LJ         -0.941957        -1.02627       -0.269611
LJ          -1.64693          2.1995       -0.957374
LJ         -0.101554        -1.50778      -0.0640232
LJ           2.26049        -1.87972          1.9367
LJ           1.06309        -1.28325       -0.773704
LJ           -1.9636        0.130236        -1.33348
LJ           -1.0896          1.7927        -2.23115
LJ              -nan            -nan            -nan
LJ          0.524188        0.115844       0.0582939
LJ          -1.31649        -1.74164        0.444467
LJ           2.16427       -0.922887          2.3574
LJ          -1.95155        0.144464         2.03628
LJ          0.014198        0.873919        -1.58068
LJ              -nan            -nan            -nan
LJ              -nan            -nan            -nan
LJ        -0.0613257       -0.948206        -2.49051
LJ              -nan            -nan            -nan
LJ         -0.268201           2.056        0.608269
LJ          0.573154        -1.76875         1.21714
LJ          0.385429        0.308857       -0.162416
LJ           1.58756        0.259698         2.52837
LJ          -2.15046         1.25683         1.99893
LJ           1.46784       -0.960456        -1.12471
LJ          0.385134        -1.39473         2.49337
LJ           -2.3022         1.48185         2.00936
LJ           2.48494         1.05864         1.24337
LJ          -1.90397        0.721926        -1.16649
LJ          -2.53119       -0.268355         2.25443
LJ           1.03231        0.887956        0.499912
LJ              -nan            -nan            -nan
LJ         -0.981435        -2.20901         1.58813
LJ              -nan            -nan            -nan
LJ          -2.10963       -0.985524        -1.38393
LJ           2.05802       -0.891554         1.35296
LJ           2.54216        0.596001         1.22803
LJ         -0.652427        -1.00507        -1.58257
LJ          0.142579        -1.13383          2.5372
LJ          0.379368       -0.291286      -0.0170973
LJ         -0.324329        -1.69874       -0.661062
LJ          0.785916         1.78784        -0.92435
LJ           1.23834        -1.73638        0.621975
LJ         -0.437097         2.48985        0.423661
LJ         0.0417244         2.29846         1.12325
LJ          0.857692       0.0901441        -2.12117
LJ          0.109068         1.17972       -0.143159
LJ         -0.123807        -0.19383        -1.70851
LJ         -0.643797       -0.670292        0.655134
LJ          -1.85183         1.24244        0.560137
LJ          0.809789        -1.49426        -1.61168
LJ              -nan            -nan            -nan
LJ           1.64899         2.56188         0.83805
LJ           -2.2797        -1.62384        -1.62319
LJ         -0.512352         1.73467          -1.736
LJ          -1.51926         1.42932        -1.51897
LJ          0.970567       -0.988092         1.99891
LJ          -2.16121         1.46847        0.902168
LJ          -2.02602         1.67753        0.208082
LJ           -2.0318        -1.26807        0.941229
LJ          -1.41792        -2.26235         2.47809
LJ          0.471857        -1.56421         2.04548
LJ         -0.430402        -1.61187         1.15238
LJ          0.857298         1.80369       -0.612049
LJ          -1.56733        -1.74939        -1.80505
LJ          -2.17095      -0.0501133        -1.85018
LJ              -nan            -nan            -nan
LJ          -1.60507       0.0348576         1.12132
LJ          -2.11769        0.597787         -2.3658
LJ          -1.29068         2.27714         2.10202
LJ           1.88168        0.606045        -1.90024
LJ           2.07801       -0.274001        -1.55631
LJ          -1.88268        -2.40872        0.592886
LJ          -2.04601        0.121925       -0.451182
LJ         -0.361019        0.987945         2.06276
LJ          0.642068         2.13674       -0.908765
LJ           1.80575         1.27078         1.92033
LJ            0.2527       -0.530078        0.645347
LJ          0.145013        0.741269        -0.73514
LJ          -1.36704        -1.20697        0.685343
LJ         -0.340275       -0.375886        0.525892
LJ           2.27444       -0.388177         1.45732
LJ           2.48894         1.70574       -0.712237
LJ           -1.2871        0.819599        -1.05925
LJ          -1.78564          1.0055       -0.127247
LJ         -0.177047       -0.682109         1.76379
LJ          -1.84634      -0.0726747       0.0149192
LJ           1.66864        -2.35658        -2.12944
LJ          -2.11957        -1.04961        -1.72756
LJ              -nan            -nan            -nan
LJ         -0.791154         1.27171        -0.32514
LJ            2.2168         2.23048       -0.233843
LJ          -1.04827        0.361112        0.356525
LJ           1.97751        -1.10056        -2.47748
LJ           1.91493        -1.39733         2.00044
LJ           0.46739         1.52589         0.33527
LJ         -0.119354        0.889222         1.61959
LJ          -1.94427          2.2425       -0.350021
LJ         0.0049898         1.90519          1.0784
LJ           1.89083        -2.21542        0.433731
LJ          -1.37941         -2.5068        -1.58175
LJ          -1.10489          2.4833         1.90299
LJ          -1.77305       -0.894345         1.89916
LJ          -1.96539        -1.56855         1.02489
LJ          -2.13837       -0.976811        0.278558
LJ          0.472213          1.4241         2.30707
LJ              -nan            -nan            -nan
