108
#Comment!
LJ           -1.2179         2.07369        -1.75524
LJ           1.09738        -1.21237         1.21458
LJ            -1.454        0.988741        -1.68751
LJ          -1.65954       0.0399895       -0.678559
LJ            1.4876        0.898591        0.089927
LJ          -1.07573         2.20342         2.11659
LJ           1.80472         1.98571        -0.71334
LJ           1.96669        0.970848       -0.924468
LJ           1.37946        -2.20792        -2.40134
LJ          0.333331         1.27949        -2.34816
LJ              -nan            -nan            -nan
LJ          -2.00485       -0.925207        0.931633
LJ           2.53729         2.29342       -0.537505
LJ              -nan            -nan            -nan
LJ         -0.696731        0.749777        0.953309
LJ              -nan            -nan            -nan
LJ              -nan            -nan            -nan
LJ              -nan            -nan            -nan
LJ           1.71973       -0.883929        0.896198
LJ              -nan            -nan            -nan
LJ           2.02036        -1.46319         -1.3215
LJ         -0.328304         2.35521        0.129893
LJ          -2.25849        -2.26327       -0.912722
LJ           1.53698         -1.1711        -1.22257
LJ          -1.37526        -1.14537       -0.599721
LJ           2.55818        -1.77864          1.4306
LJ          -2.09218        -1.84214        0.551887
LJ          -1.30067         1.93457        0.537746
LJ           2.03498       -0.276651       -0.639189
LJ        -0.0942041       -0.276834        0.581141
LJ              -nan            -nan            -nan
LJ          0.935164       0.0287056        0.165486
LJ              -nan            -nan            -nan
LJ          -1.00596        -1.42929         1.62316
LJ              -nan            -nan            -nan
LJ          -1.89608        -2.30403        -2.51377
LJ           1.50178        -1.40454       -0.346763
LJ           2.04704        -1.89189       -0.866035
LJ           2.43351         2.36947        -1.61984
LJ          -2.38174       0.0704794        -1.09905
LJ          0.438356       -0.827593         0.13032
LJ         -0.206617        -1.70778         1.92251
LJ         -0.612844         1.32392        -1.33964
LJ          -2.20719        0.376386        -1.81877
LJ         -0.579748         1.17195         2.32506
LJ          0.410213        0.863231       -0.438476
LJ            1.7234         1.42453       -0.377696
LJ           1.02639         1.26816         2.55877
LJ           1.87426        -2.37687        -2.54087
LJ           1.89429         2.09777         1.85083
LJ          0.722512          2.2633         1.78307
LJ           1.19233       -0.607262         1.52251
LJ              -nan            -nan            -nan
LJ            2.5317        -1.48429        -2.15814
LJ           2.19325        -2.32151         1.48327
LJ          0.416836        -0.79643        -1.14681
LJ           1.04589        0.935877         2.15068
LJ         0.0685659        -2.14426         1.54032
LJ          0.357206        -2.22137        0.479375
LJ           0.74045         2.41853        0.461692
LJ          -1.04148        -1.50612        -0.61972
LJ          -1.02275        0.354881         2.41867
LJ          -1.78657        0.276612        -1.78769
LJ           1.28624         1.22079        -2.04353
LJ              -nan            -nan            -nan
LJ        -0.0263847        -2.15162        -1.86423
LJ           2.30728         2.45884         1.46274
LJ              -nan            -nan            -nan
LJ            1.8085         1.78632        -1.16217
LJ          -2.13801        -2.01769        -2.17789
LJ         -0.793422        -2.37618        -2.40782
LJ         -0.938577       -0.399204        0.206861
LJ          -1.45073       -0.614587        0.298462
LJ           1.07299        -2.54593         2.07096
LJ          -2.30764         2.05242        -2.31784
LJ          -2.19516        0.175851         1.84913
LJ          -1.15077         0.71971         1.33536
LJ          0.120497       -0.401796        0.789737
LJ           -1.8638        -2.32238       -0.469955
LJ           2.02923        -1.11025       -0.864705
LJ          -2.13471         2.33189       -0.942959
LJ         -0.668099         -2.3306       -0.655503
LJ         -0.434644        0.690854        -2.35684
LJ          -1.14073         1.19452        -1.32638
LJ          -1.15664        -1.00912       -0.440537
LJ          -1.73533         1.11295       -0.557829
LJ          0.124498         1.42055        -1.06407
LJ         -0.571127       -0.306448        -2.14878
LJ          -2.21164         2.01353        -1.57581
LJ          -2.39175         2.09001        -1.07042
LJ              -nan            -nan            -nan
LJ            1.1681       0.0249396       -0.269559
LJ           1.96367         1.99392         0.87744
LJ           2.39804       -0.676432         2.04029
LJ           1.00829         1.08757         1.16491
LJ         -0.258251        -1.95033        -1.58461
LJ          -2.55767       -0.698312         -2.3825
LJ           1.06081         1.79629         -1.8889
LJ              -nan            -nan            -nan
LJ          -1.12014         1.37146         2.39104
LJ         -0.375704       0.0305218         1.10585
LJ           1.02443         0.72611         1.20913
LJ           2.43278         0.18184        -1.93158
LJ           -0.3535         1.74405         0.51262
LJ              -nan            -nan            -nan
LJ          0.562827        -1.84271        -1.63623
LJ          -1.54543        -2.22598       -0.233592
LJ              -nan            -nan            -nan
