108
#Comment!
LJ          -1.38807         1.42337        -1.06818
LJ         -0.878115       -0.893774        0.802963
LJ          -2.39979          -2.453         1.03264
LJ           1.16233        -2.46446        -1.29986
LJ         -0.142523         0.41844      -0.0413418
LJ           1.81347         -1.7494       0.0310632
LJ           -2.1464         1.45777        -1.92098
LJ           0.15086         1.39154         1.05476
LJ           1.36409        0.658162        0.814667
LJ          -1.20246          2.0001         1.67764
LJ              -nan            -nan            -nan
LJ          0.389424       -0.104396       -0.441206
LJ          0.996694         1.85091         2.30834
LJ          -1.53401       -0.660516        -2.41763
LJ           -1.2455        -1.00036        -2.25949
LJ           1.60231        0.417385        -2.54669
LJ              -nan            -nan            -nan
LJ              -nan            -nan            -nan
LJ       -0.00392539        0.282435        -2.27341
LJ              -nan            -nan            -nan
LJ         0.0093647       -0.832111        -1.37826
LJ           1.73426         1.12992        -2.02924
LJ          -1.70956        -1.87547        -1.65982
LJ           2.37658        0.847178        -2.05828
LJ        -0.0599366        0.519293        -1.51784
LJ         -0.733712        -1.83128         2.34773
LJ           1.09518         1.10414        -1.34577
LJ          -1.31239         1.43144       -0.616483
LJ          -0.35445       -0.423986        -1.13603
LJ         -0.110565       -0.601849        -2.05905
LJ           1.39662         1.04703        -2.39169
LJ          -2.32542        0.653741         2.27521
LJ              -nan            -nan            -nan
LJ          0.544403        0.966107        -1.60126
LJ              -nan            -nan            -nan
LJ           1.72211       -0.758016         1.40341
LJ         -0.137181       -0.506296         2.43247
LJ         -0.604899         1.60134           1.117
LJ           1.85839         1.29356         1.98476
LJ          0.361234        0.418287         1.32525
LJ           2.30404      -0.0766467         0.88289
LJ          -1.03864        -0.65761       -0.440891
LJ           2.53086       -0.385266      -0.0870536
LJ          -1.80161       -0.902385        0.780668
LJ           1.37505       -0.737075       -0.705208
LJ          -1.90158        0.448382        -1.61648
LJ           -1.4387         1.31276        -1.87999
LJ          -1.97052        -2.51147       -0.422361
LJ          -1.42073         1.40441         1.67385
LJ         -0.212849         1.44303       -0.950449
LJ          -2.28684        -1.87523        -1.30609
LJ          -0.30924         -1.4681        0.697112
LJ              -nan            -nan            -nan
LJ          -1.64854         1.32213        0.638442
LJ         -0.937675        -1.30989         1.81551
LJ           1.86728         -1.5451       -0.129588
LJ          -1.34576       -0.320452       0.0752783
LJ          -1.86056         -1.1356          -1.712
LJ          -1.73176       -0.195675        -1.94871
LJ          0.513835      -0.0618324        0.651041
LJ        -0.0743057        -0.24807         2.34372
LJ          -1.44039       -0.797374          1.5756
LJ           1.95224       -0.811543        0.182489
LJ           1.07455         1.09677        -2.32429
LJ          -1.51896        0.305808       -0.206991
LJ          0.909819         -2.5358         1.58304
LJ          -2.06061         2.17183         1.54368
LJ              -nan            -nan            -nan
LJ          -1.81046         -1.2601        -0.56548
LJ          -1.91097         1.17608        -1.67317
LJ           2.26064        -1.62615        0.425652
LJ          -2.10435         1.08294        0.490933
LJ          -2.24318        -2.47392       -0.785638
LJ          0.737977        -2.09501         2.25005
LJ          0.609926         2.03665         0.83705
LJ        -0.0324199        -1.86194        -1.17193
LJ         -0.163867       -0.792119          1.6609
LJ        -0.0908752       -0.541586         1.73693
LJ           2.39307         2.15392       -0.652386
LJ          -1.25776         1.30546          1.7416
LJ         -0.836097       -0.996772         2.43246
LJ          0.748079        0.873016        -2.08194
LJ          0.757768       -0.904893        -1.30473
LJ        -0.0460561          1.6819        -0.32334
LJ        0.00641572        -2.25865         1.74033
LJ          -1.07562        0.448978        0.881907
LJ        -0.0154937        -1.51194       -0.105881
LJ           1.48695        -1.38719        -1.46461
LJ          -2.05412        -2.43372        -1.76087
LJ           1.80487        0.108132        -1.27524
LJ              -nan            -nan            -nan
LJ         -0.488928        0.265387        -2.24231
LJ        -0.0820173       -0.155754        -2.23322
LJ           1.34462       -0.470729        -2.13293
LJ         -0.777328        -1.08523        -1.73437
LJ            -1.862         2.09729        -1.52175
LJ          -2.42373       -0.609641        0.886274
LJ          -1.83067         1.02964        -1.55147
LJ           2.07217       -0.203524        0.808758
LJ            2.2705         1.52223         1.93049
LJ          -2.27632         1.08995        -1.44493
LJ            2.1702        -2.20764         1.04495
LJ           2.14077        0.159402       -0.104254
LJ           2.46236        0.527368        0.786265
LJ         -0.914004         1.08319       -0.414784
LJ          0.761919        -2.32995        0.797787
LJ          0.989808      -0.0995857        -1.66207
LJ              -nan            -nan            -nan
