108
#Comment!
LJ          -1.89325         1.50706         1.31003
LJ          0.155605        -2.30544        -1.37034
LJ         -0.513884        -1.95476         1.13423
LJ          -2.14976        -1.25859       -0.736433
LJ          0.345484         1.34507         1.86776
LJ          -2.36159       0.0419814        -2.38197
LJ          0.924671        0.797846         2.44849
LJ          -1.78063        -2.18919        -2.19522
LJ           1.19272          2.0111        0.847166
LJ           2.50782         2.04607       -0.905102
LJ              -nan            -nan            -nan
LJ          0.455537        0.656617         2.45671
LJ          0.171321         1.35384         2.15209
LJ          -2.51756        0.775058         1.49189
LJ           1.32339         2.40731         1.32877
LJ          -2.05427        -1.14358        0.939655
LJ              -nan            -nan            -nan
LJ              -nan            -nan            -nan
LJ          0.315064        0.472909        -1.87257
LJ              -nan            -nan            -nan
LJ           1.81008          1.9352         2.46401
LJ         -0.214737        0.934939        0.737048
LJ           1.26342        -1.23071        0.618326
LJ          -1.31786         -1.4874        -2.06065
LJ          -1.12106        0.704896        -1.63439
LJ         -0.196584       -0.438402        -1.98553
LJ         -0.301966        -2.30453        -2.11189
LJ           2.13181       -0.638735        0.316214
LJ          -1.24185         1.98467        -2.00986
LJ          -1.59717        -1.56612       -0.448948
LJ         -0.974716         2.42427      -0.0248251
LJ          -2.30671       -0.271782        -2.07662
LJ              -nan            -nan            -nan
LJ          0.467851          1.9037        -2.30916
LJ              -nan            -nan            -nan
LJ          0.489638       -0.248866        0.186887
LJ          0.442192         2.28084        0.573241
LJ          0.134212        0.818417       -0.160782
LJ           1.45589         1.89819        0.208762
LJ          0.284386           2.023        0.853491
LJ           2.39636          1.8961        -1.88103
LJ          -2.09597        -2.53671         1.40072
LJ          0.798983         1.28454         1.24052
LJ          -1.68606         2.47853        0.783169
LJ           0.51205         -2.3051        -2.36605
LJ            1.0442         2.32219        0.501728
LJ           1.54659        0.792701        -1.61156
LJ         -0.739317        0.654578       -0.291946
LJ          0.669062          2.2998         2.41485
LJ           1.34628        0.122593        -1.72033
LJ           1.34016        -2.54795       -0.440818
LJ          -1.64978        -2.11095         2.33368
LJ              -nan            -nan            -nan
LJ           2.45269       -0.704348       -0.932386
LJ           2.11267        -2.54637        -2.23217
LJ          -2.41725       -0.660503       -0.675951
LJ         -0.628978        -1.30456         1.03249
LJ          0.830511       -0.276851         1.94607
LJ           1.90103         1.12108       -0.584099
LJ         -0.420764         1.28347        -2.35326
LJ         -0.926872       -0.277274       0.0856516
LJ          0.476266       0.0105896        -1.79871
LJ           2.27112        -1.85285          0.8954
LJ          -2.46837       -0.454246        -2.44184
LJ          0.663999         2.06099        0.497878
LJ          -1.25102         2.15436         1.17454
LJ          -2.43076        0.185077         2.12996
LJ              -nan            -nan            -nan
LJ         -0.208422        -2.29276       -0.330702
LJ           1.06428        0.715778        -1.74072
LJ         -0.349784        -1.37436        -1.26715
LJ         -0.100388        -2.42356         -1.3036
LJ          -1.77064       -0.332676        -2.49826
LJ         -0.953256        -1.80815        0.115193
LJ           1.65348        -2.43754         1.03991
LJ         -0.702433        -1.14439          1.1954
LJ          -1.68459         2.14344        0.236499
LJ            -1.219        -2.16713        -2.49492
LJ         -0.953205        -1.35125        -1.24044
LJ          -1.49163          1.6333       0.0285998
LJ           2.53495         2.05674         -2.4695
LJ           2.00598         2.31986        -2.04173
LJ           1.58949         2.20045        0.900142
LJ         -0.581036        -1.69777       -0.651236
LJ          -1.64628        -2.13641        0.387571
LJ           1.83624       0.0646325         2.46913
LJ          0.309464         1.41072        -1.91926
LJ           1.24529         2.10697        -2.24267
LJ           0.25614        0.587981        0.841076
LJ            1.3666       -0.468005        0.878507
LJ              -nan            -nan            -nan
LJ           1.42633       -0.843826         1.15247
LJ          -1.03239        -2.56417        -2.46694
LJ           0.97341         1.00947      -0.0887856
LJ           1.13616        -1.79107       -0.393993
LJ         -0.604886         -2.5224        0.586741
LJ          0.222588         0.58921        0.343265
LJ          -1.84837        -1.65808        0.307374
LJ         -0.876394      -0.0681197        -2.01054
LJ          0.603186         -1.2248         1.30349
LJ           1.62228         2.25843        -1.30204
LJ           2.48232       -0.787114        -1.91904
LJ         -0.871574        -1.02633        -1.70314
LJ         0.0998407         0.10202        -1.15902
LJ          -2.28471         1.40344       0.0218866
LJ          -2.27231         1.58592        -2.04391
LJ            2.3369       -0.032899         2.03069
LJ              -nan            -nan            -nan
