108
#Comment!
LJ          -1.28415        0.697521      -0.0608414
LJ           1.70276        -1.84718        0.817155
LJ           1.73307     0.000411484         1.93693
LJ          0.552479          2.2652          1.6621
LJ          0.961012         1.82719         1.36499
LJ          0.574891        -1.82051        -2.24157
LJ         -0.262844         2.30548       -0.704773
LJ           1.50572        0.399737         1.37317
LJ         -0.762096        -2.37498        -1.77696
LJ          -2.19068         -1.9006         1.60455
LJ              -nan            -nan            -nan
LJ           1.01144        -2.33052        0.820034
LJ          -2.42701         2.35703        0.869151
LJ              -nan            -nan            -nan
LJ          -1.92169        -1.74039        0.942601
LJ              -nan            -nan            -nan
LJ              -nan            -nan            -nan
LJ              -nan            -nan            -nan
LJ          0.031295          1.1421        -2.24076
LJ              -nan            -nan            -nan
LJ           2.00614         1.67477        0.105345
LJ         -0.690045        0.142362        0.103477
LJ          -2.42049         0.80216        -1.72228
LJ           2.52185        0.520755          1.3571
LJ          -2.00708       -0.912792         2.00558
LJ           1.65229       -0.268443        0.784738
LJ           1.40432         2.38677       -0.410834
LJ           1.29043        0.339614        -2.35598
LJ            1.0498        -2.47831        0.674279
LJ          0.493749        0.994626        0.571074
LJ              -nan            -nan            -nan
LJ         -0.340704         1.44426       -0.616439
LJ              -nan            -nan            -nan
LJ           2.30372        -1.49389       -0.579314
LJ              -nan            -nan            -nan
LJ         -0.570873       -0.144227        0.457395
LJ            1.1936       -0.412268        -1.77182
LJ           1.15987          1.2661        0.548501
LJ        -0.0682785         2.08107       -0.846632
LJ          0.803994         1.42426        -2.54328
LJ          -2.33067         1.07115         2.56382
LJ          0.698177         1.63825       0.0688388
LJ           1.58553         1.23002          1.6142
LJ           1.77911          1.9545        0.843364
LJ           -0.3819        0.522132        0.723619
LJ          -2.09286           0.248        -2.03647
LJ         -0.399462        0.134796         1.28825
LJ           2.15665         2.30237        0.574915
LJ           1.88061         1.69523        -1.32425
LJ         -0.861595          1.3916         2.09214
LJ          -2.49432         1.81252           1.265
LJ           1.95496         1.02052        -1.39102
LJ              -nan            -nan            -nan
LJ         -0.201659         1.87161       -0.241427
LJ          -1.31696        -2.46733         1.74845
LJ         -0.510563         2.49662        -1.56123
LJ         0.0596739         2.32353        0.280725
LJ          -1.02149        -2.43237        -1.87171
LJ           1.94418         1.19902        -2.12179
LJ           1.10377        0.469223          2.2487
LJ          -1.93978        0.847806        -1.43848
LJ          -2.48394       -0.934379        0.442094
LJ           1.51526         0.85895         -1.0441
LJ          0.159424        0.689302       0.0589694
LJ              -nan            -nan            -nan
LJ         -0.146878        -2.17283         1.12133
LJ          -1.99938       -0.583927        -1.16684
LJ              -nan            -nan            -nan
LJ           2.18038         2.09859       -0.497795
LJ          -2.23527        -1.47781         2.31662
LJ          0.124248       -0.485383        -1.02008
LJ           2.42036          2.0614       -0.511962
LJ          -1.31771        0.854272        -1.51561
LJ           2.55802       -0.872228        -1.50037
LJ           1.81904       0.0823279        0.493734
LJ           1.53621         2.08924         1.71462
LJ           1.12641         1.80135         0.70167
LJ          -1.81841        -0.26418        -0.88626
LJ          0.842602        -2.13254         2.50287
LJ          -0.22973       -0.422266        0.256074
LJ           -1.6227      -0.0885559         -1.4267
LJ           -1.0762        -2.39595        -1.81509
LJ          0.994861         2.12696        0.891946
LJ           2.15801        -1.70232       -0.383653
LJ           2.02367        0.933863        0.621549
LJ          -2.28898        0.395896         1.46782
LJ           1.75249      0.00823981          2.3744
LJ          0.947288          -2.524         -2.3502
LJ          -1.39469         1.75491         2.46191
LJ          -1.00089        0.130164         1.40226
LJ              -nan            -nan            -nan
LJ           2.51101        -2.16083         2.38508
LJ          0.297169         1.87633        -1.67328
LJ           1.67337         1.65378       -0.976317
LJ           -2.2968         0.35861        -1.72541
LJ         -0.804885        0.847697         1.32141
LJ          -2.09916         1.57558        0.772306
LJ           1.98756         1.41478       -0.441799
LJ              -nan            -nan            -nan
LJ           1.86292         1.61404        0.718795
LJ          -2.31081       -0.206673        0.315095
LJ            1.3022        -0.39089         2.20464
LJ          -1.74795       -0.702481        -0.32257
LJ          -1.14242        -1.84153       -0.248647
LJ              -nan            -nan            -nan
LJ          -2.35149         1.71669        0.461684
LJ          -1.19356         1.69749       -0.410596
LJ              -nan            -nan            -nan
