108
#Comment!
LJ         -0.683349         2.33103       -0.946815
LJ          -1.45439       -0.648075        -1.07601
LJ         -0.596729         2.42678        -1.92239
LJ          -1.06136         2.52583       -0.383671
LJ             1.577        0.163796        -2.03754
LJ           1.58015         0.44531        0.888824
LJ           0.30693         2.18557         1.71994
LJ          -2.02599        -1.46064         2.07039
LJ           1.65688        -2.19067         1.10147
LJ         0.0983008        -1.80111        0.336105
LJ              -nan            -nan            -nan
LJ          -1.52383       -0.022634         2.54191
LJ           1.51878      -0.0984409        0.203951
LJ         -0.597519        0.953844          -1.677
LJ          0.625549        -2.32137        -1.40202
LJ           2.27245           -1.82        -2.24262
LJ              -nan            -nan            -nan
LJ              -nan            -nan            -nan
LJ         -0.359561        -2.48487         1.62221
LJ              -nan            -nan            -nan
LJ          0.132516      -0.0725216        -1.09573
LJ            1.7207         -1.5889        0.754601
LJ          -1.74788          2.3294        0.240502
LJ          -1.28427        -1.05048         2.30254
LJ         -0.672609         2.48603        -1.31768
LJ         -0.274845        -1.62078        -0.17443
LJ           1.49297         1.28299         1.57896
LJ         -0.230941        0.307939        -2.49019
LJ           -1.4344        0.965924          1.4206
LJ         -0.174953       -0.146235         1.14735
LJ          -2.17075       -0.672768       -0.303798
LJ          0.643362        -1.91965         2.23234
LJ              -nan            -nan            -nan
LJ          -2.46629       -0.754411       -0.821268
LJ              -nan            -nan            -nan
LJ           2.56404       -0.624245        -1.37714
LJ         -0.467464         0.86925       -0.268921
LJ           -2.3197         1.97316        -1.81928
LJ          0.527589         1.00421        0.939986
LJ          0.516173         1.07902        -1.08776
LJ          0.910029        -1.31365        -1.46497
LJ         -0.466247        0.151049       -0.956559
LJ          -1.91453       -0.981525         2.38229
LJ         -0.437605        0.699668       -0.626528
LJ           1.45665         2.14822        -1.82598
LJ          -1.50694        0.194577          1.7462
LJ       0.000250357         2.18663        0.694481
LJ        -0.0322675        -1.37204         1.37969
LJ          -2.15682         2.24385         1.75072
LJ            1.7513         1.09675       -0.989746
LJ          -1.47141         -1.6971        -1.71959
LJ         -0.261125         -2.0765        0.114231
LJ              -nan            -nan            -nan
LJ           2.40957        -1.92342         0.75589
LJ         -0.776504         1.20561        -1.36107
LJ          0.646577        -2.02027        -2.55219
LJ          0.291075       -0.985356         1.48387
LJ          -1.33236       0.0020883       -0.512573
LJ          -2.17464        -2.30337        -1.37092
LJ           1.80304       -0.491094        -1.15487
LJ           1.30152       -0.693391        0.307513
LJ           1.96793          1.5054        0.753256
LJ          -1.28066          2.1863        0.121295
LJ          0.769834        0.328897        -2.10631
LJ          -1.90716          1.6217        0.516642
LJ         -0.420951         2.46583       -0.253684
LJ          0.641195         2.28481       -0.513446
LJ              -nan            -nan            -nan
LJ            1.9188        0.325883        -1.52198
LJ           1.36309        0.943431         -2.5457
LJ         -0.449901        0.873066        -1.50529
LJ          -1.61374         1.34766         2.24721
LJ          -2.51786        -2.39235         1.03381
LJ          -1.60189        0.348186         2.53891
LJ          0.146912         1.22909        -0.83248
LJ         -0.196417         2.11146         0.63558
LJ          -1.71943        0.585188         2.03817
LJ           1.79155       0.0748148       -0.236637
LJ         -0.496007         1.04043        0.261871
LJ          -1.32004         -1.3586       -0.129122
LJ          -1.34625        0.286493        -2.14753
LJ           -1.0227       -0.463039        -1.17215
LJ           1.98107       -0.473667         -1.4561
LJ          -2.10042        0.510912         2.39534
LJ         -0.148813        0.483943         -1.6947
LJ            1.1408        -1.16516         1.61813
LJ         -0.455536       -0.100363         1.04049
LJ           0.90755       -0.135866       -0.245532
LJ          0.231994         1.68612       -0.751459
LJ          -2.15638        -2.10756        -1.00551
LJ              -nan            -nan            -nan
LJ         -0.671356         1.06004       -0.149097
LJ           1.12312        -1.57826         1.81177
LJ          0.177535         1.54309        -2.33026
LJ           2.45537          1.2264        -1.50639
LJ           2.11547       -0.264564        0.682465
LJ         0.0561304          2.4067         2.52076
LJ          -1.53993         2.04292         1.84886
LJ         0.0601577         0.67715         1.27558
LJ          -1.21866       -0.617985        0.456078
LJ         0.0786392       -0.222416        -1.28893
LJ          -1.16438        -2.39308        -1.56857
LJ          -1.84876        0.115868        0.605026
LJ          -1.59717        -1.98698        -1.61029
LJ          0.658811        -1.08712         1.95907
LJ          -2.01632         -1.9834        -2.16081
LJ          0.256894       -0.864192       -0.256161
LJ              -nan            -nan            -nan
