108
#Comment!
LJ         -0.688613        -1.01895        -0.91148
LJ         -0.930797         2.50007         1.01038
LJ          -2.40742        -1.76461        0.710908
LJ           -2.3884         1.28857        -1.78511
LJ           1.89876         1.97367        -1.67873
LJ         -0.449037          1.1848       -0.340259
LJ           0.16837        -1.33968       -0.209582
LJ          0.676615          2.0478           1.739
LJ         -0.965267        0.627853       -0.491612
LJ            1.8745         0.43714        0.927689
LJ              -nan            -nan            -nan
LJ           1.08187       -0.697558         -2.4759
LJ          0.063002       -0.441863         1.88264
LJ          -1.99572        0.714955        -2.19647
LJ          -1.49957       -0.348618         2.40283
LJ          -1.19135         1.89586        -2.01845
LJ              -nan            -nan            -nan
LJ              -nan            -nan            -nan
LJ          0.623948         1.39502       -0.929315
LJ              -nan            -nan            -nan
LJ          0.254758         1.95777         1.90763
LJ           2.12336          1.6438       -0.144957
LJ          0.492488        0.257102        -1.77614
LJ          -1.87167       -0.240828         1.08193
LJ          -1.09423        -1.11757         2.26008
LJ         -0.538277          1.2035         1.84517
LJ         -0.964336        -1.58926       -0.695941
LJ        -0.0541108       -0.299146         1.45499
LJ          -0.18514        -1.32989       -0.459182
LJ         -0.849063       -0.586451       -0.786455
LJ           1.94046         2.36088        -1.42891
LJ          -1.62607         2.08079        0.171974
LJ              -nan            -nan            -nan
LJ          -2.40848        -1.24644     -0.00616331
LJ              -nan            -nan            -nan
LJ           1.23487        0.865231        -1.37368
LJ           1.78296         2.31379        -1.32344
LJ          -1.53422         1.87543         1.03094
LJ           1.49338          2.5436        0.339806
LJ          -1.60981       0.0734973       -0.882994
LJ          -2.28786         1.93286       -0.902088
LJ          0.117427        0.126451         1.12499
LJ           1.02401        0.117481        0.732598
LJ          0.019373        -2.27887       -0.689353
LJ           0.88318         2.21642        -2.33629
LJ           1.62602        0.403683       -0.345837
LJ       -0.00326181           2.125        -2.34351
LJ           1.08633         1.56738         0.11087
LJ          -2.41403        0.227032        0.838703
LJ            1.3381        0.400957         1.41318
LJ         -0.360581        -1.03216       -0.993424
LJ          -1.15646         -2.1738        0.377309
LJ              -nan            -nan            -nan
LJ           1.51305       -0.761021        -2.42958
LJ         -0.836086         1.19249       0.0497741
LJ          -1.76422        0.497403         1.35581
LJ           1.84995        0.681582        -1.27062
LJ           1.61129         2.16651        -1.09847
LJ          -2.55303         1.93846        -2.01654
LJ           1.49724          1.6014         1.39482
LJ         -0.732243        -1.81816          2.0281
LJ            2.1139        -2.52822         -0.4387
LJ          -1.72153         2.03381        -1.36843
LJ           -1.8603        -2.50062         1.70605
LJ          -1.83711         1.43443         1.32829
LJ         -0.892184        0.318912         2.23248
LJ           2.34083        0.302777         1.56769
LJ              -nan            -nan            -nan
LJ           -1.1424        0.909804         2.01767
LJ           2.38902         1.66571        0.943597
LJ          -1.30935        0.440254         1.77371
LJ          0.924108         2.00544        -1.56738
LJ           2.17377         1.58653       -0.803241
LJ           0.60323         2.34959        -0.22801
LJ          0.698452       -0.603455        -1.02614
LJ          -1.74962         1.19469       -0.730923
LJ          0.120959        -1.84668         1.09853
LJ          -2.52755        0.270773        0.264709
LJ          -2.19957         1.14959        -2.34615
LJ           1.95304         2.08755        0.937882
LJ          -1.45666       -0.454854         1.68002
LJ         -0.961122        0.677418        -1.69245
LJ          0.829529        -2.39504         2.04008
LJ           1.57657        -2.05536        0.757941
LJ            1.1866        0.761454       -0.179973
LJ          -1.74269         -2.0604         1.16167
LJ           0.34791        -2.42053         1.33483
LJ          0.894688        -2.50966        0.321086
LJ            1.2297         -1.2549         2.40673
LJ          -2.35806         2.37657         2.34077
LJ              -nan            -nan            -nan
LJ           -1.1529        0.387002         1.24718
LJ          -1.23728         2.03825         2.55869
LJ         -0.907987         0.01501        -1.76501
LJ          0.545949        -1.15429        -1.01131
LJ          -1.64042        -1.37414         1.46472
LJ         -0.436753        -1.80092         1.41068
LJ           2.05833         2.18643        0.308767
LJ         -0.360379        -1.05922        -1.62567
LJ          0.582064       -0.622381        0.334704
LJ           2.12307        -2.31614          0.3099
LJ          -1.28473         2.11517      -0.0675435
LJ          -1.30622         1.59101        -2.47904
LJ           1.44075        0.102553        -1.32853
LJ           2.39354         -2.1937        -1.48328
LJ          -1.30467        -1.58665         2.17094
LJ           1.42199        -1.05051        -2.02195
LJ              -nan            -nan            -nan
