108
#Comment!
LJ           2.21934       -0.986316        -1.80323
LJ           2.27863        -1.20018        0.879761
LJ           1.70656         2.49029        -1.12971
LJ        -0.0727047         1.67527       -0.913376
LJ           2.41569       -0.703116        -1.32799
LJ          0.883441       -0.197536        -1.38111
LJ          -2.44058         1.36483        -1.79643
LJ          0.204604        -2.51612        -1.86369
LJ           0.20386          0.4485         -0.3427
LJ           1.40653         1.24546         1.00748
LJ              -nan            -nan            -nan
LJ          0.157957        0.159272         1.12816
LJ          -1.20629        -1.90328        -1.33995
LJ              -nan            -nan            -nan
LJ         -0.494784         -1.0189         2.35944
LJ              -nan            -nan            -nan
LJ              -nan            -nan            -nan
LJ              -nan            -nan            -nan
LJ          -1.74596        -0.61955        -1.32399
LJ              -nan            -nan            -nan
LJ          0.493565        -1.69345        -1.06773
LJ          -1.36608        -2.32739         1.07343
LJ          -2.11894         2.07691       -0.996894
LJ         -0.133676        -1.74066        -2.53925
LJ         0.0318209         1.57424         2.01009
LJ          0.367489        -1.10951        -1.66807
LJ        -0.0971766          2.3501         1.34372
LJ          -1.32929        -1.38431         -1.9968
LJ           1.59078        -2.21006        0.285184
LJ          -1.91502        0.252576         1.65352
LJ              -nan            -nan            -nan
LJ          -2.13296        -1.02752         2.40151
LJ              -nan            -nan            -nan
LJ           2.27518        0.722637       -0.456472
LJ              -nan            -nan            -nan
LJ           2.11334         2.47607        -0.41253
LJ           -1.9056         1.00133          2.3046
LJ           1.68743        -0.31814        0.519733
LJ          -2.05353        -1.94256        0.228288
LJ           1.35093        0.360551        -2.45256
LJ         -0.263396         2.04633         1.87388
LJ          0.976026        0.491074        0.834624
LJ           1.51512         2.03941        -1.55846
LJ          -2.42472        0.933517        -1.42497
LJ           1.88941      -0.0415014       -0.661321
LJ           1.78826         1.95639        -1.52075
LJ           0.78342        -1.92355        -2.30503
LJ          -2.29239         2.04416         2.33427
LJ          -2.47885       -0.843522        -2.09003
LJ           1.86325         1.28658        -1.32793
LJ          0.583939        0.495995        0.572475
LJ          -1.97355       -0.225608        0.261013
LJ              -nan            -nan            -nan
LJ           1.47078        -2.19317         2.47925
LJ         -0.456651         1.72001          -1.002
LJ          -1.75217        -1.04159         2.21236
LJ        -0.0802029        -2.42092        -1.26284
LJ         0.0955891        0.486516       -0.216939
LJ         0.0953078        -1.27407         -1.5884
LJ          0.489329       0.0754908      0.00388486
LJ          -2.05512         1.19684         0.21515
LJ           2.19887         2.12552       -0.653133
LJ          -2.39308         1.01176        -2.47518
LJ          0.126398       -0.339164       -0.713768
LJ              -nan            -nan            -nan
LJ          -1.90549        0.727828         0.53191
LJ           2.15221       -0.919382       -0.373668
LJ              -nan            -nan            -nan
LJ         -0.375754         1.04021       -0.571445
LJ           1.24181         2.49789         1.31038
LJ          -1.75197         1.85962       -0.900113
LJ           1.89223        -1.67372        -2.32882
LJ           1.68338          0.1783        -1.95783
LJ           2.36004       -0.176897        0.477747
LJ         -0.399959        -2.28581       -0.306893
LJ          -1.12348         0.28061        -1.55667
LJ           1.93719        -2.11217         1.37963
LJ          -2.55283       -0.150102        -2.04251
LJ           2.19539       -0.606794          -1.187
LJ          0.587655         2.28604       -0.499374
LJ         -0.776608         2.47122        -1.72949
LJ          0.196393        -2.01536       -0.283223
LJ          0.996773        -1.31492        0.928104
LJ           1.02727        -2.32168       -0.869854
LJ          0.374782        0.424603        -2.25376
LJ          -1.99453       -0.606012        -1.73964
LJ          0.128577        -2.12413         1.77298
LJ           2.18147         -2.2705        0.609774
LJ          -2.24339       -0.818694        -1.92906
LJ          -2.17608        -1.47087        -2.31653
LJ              -nan            -nan            -nan
LJ            1.1787        -1.10287         2.22886
LJ          -1.47928        -2.14563         1.15515
LJ           -1.0692        0.044932        -1.04421
LJ           1.81654         1.32563       -0.108003
LJ          -2.33877        0.609272        -2.55358
LJ         -0.326561        0.157429        0.221424
LJ           1.02642       -0.279994         2.29084
LJ              -nan            -nan            -nan
LJ           1.13956         2.04697        -2.26958
LJ          -1.98149       -0.304216        0.452714
LJ          0.741994          2.0094         1.45335
LJ           1.09743        -1.78517        0.970451
LJ          0.562735         1.32418         1.42549
LJ              -nan            -nan            -nan
LJ           2.19672       0.0780433         2.39538
LJ           2.54189       -0.243704         0.35823
LJ              -nan            -nan            -nan
