108
#Comment!
LJ            2.2779         1.14481        -1.45351
LJ            0.9531        0.375118       -0.554263
LJ          -2.38777         1.33067        0.873952
LJ          -1.92868         1.37473         1.81956
LJ           2.15726        -2.28382        0.313512
LJ          0.897827        -0.42565        -1.52236
LJ           2.25278        -1.40044        -1.93934
LJ           2.44312        -1.92402        -2.45492
LJ           1.83122       -0.356405        -2.47221
LJ          0.644469        0.196682         1.69175
LJ              -nan            -nan            -nan
LJ            2.3564        -2.48273         1.03371
LJ          -1.46716       -0.448675         1.34948
LJ           1.29464       -0.853158        -2.48612
LJ           1.19904         2.34981         1.56011
LJ         -0.409805        -1.43702         0.89346
LJ          -1.15113        -1.64457          1.3491
LJ          -1.62202         1.01893        0.431709
LJ         -0.550003         1.53004       -0.617019
LJ          -1.40012         -1.9148       -0.574242
LJ           1.69457        0.656453        -0.54245
LJ          0.832452        -1.22144         2.00642
LJ         -0.330176         1.74953         0.93437
LJ           2.17362       -0.100575         1.82053
LJ         -0.938779        -1.02703         0.35283
LJ          0.310608       -0.817187         1.78493
LJ           0.30692        0.100073         -1.7237
LJ          -2.49111        -0.58925        -0.99943
LJ         -0.788189        0.562329         0.83463
LJ           -1.0437        -1.10365         1.83676
LJ           1.09538       -0.410483         1.70047
LJ          -0.24644         1.39653        -1.29442
LJ              -nan            -nan            -nan
LJ          0.506539         1.56072          2.2922
LJ              -nan            -nan            -nan
LJ         -0.689277        0.810453        -2.32753
LJ           2.54096         1.55478         2.30862
LJ           1.43435       -0.575988         2.05406
LJ           1.77564         0.35397       0.0597137
LJ           2.42316        0.197811        -1.43234
LJ           -1.4879       -0.733469         2.46878
LJ           1.25365      -0.0855183        0.262362
LJ           1.44114        -2.07801     -0.00153321
LJ           0.44543        -1.03503        -2.36321
LJ           -1.7699        0.267389         1.81821
LJ          0.582805        0.348431         1.80707
LJ          -1.39796        0.502235        -1.09077
LJ           2.08457         1.42652        0.686749
LJ          -1.77759        0.842698         -2.1395
LJ         -0.537685        -1.83793         1.33539
LJ           1.02702        -1.34634         1.00149
LJ            1.9713        -1.09102        -2.08285
LJ          -2.38866        -2.55447         0.74606
LJ          -1.92044        -1.16961        -1.99176
LJ           1.41742        -1.88885      -0.0371527
LJ           1.78438         1.83035          1.7113
LJ         -0.889157        0.692186        -2.29754
LJ          0.941618         2.50524         1.89654
LJ           1.06134         -1.3918         1.61854
LJ          -1.68419         2.31154        -1.65681
LJ          -2.19406        -1.70787        -1.51974
LJ         -0.315121         2.31192        -1.80981
LJ          0.626699       -0.826504        -2.48148
LJ          0.579424         1.23811        -1.10807
LJ           2.08884        0.219272         -1.8268
LJ           1.22441        -1.01435       0.0502348
LJ           1.12473       -0.192299         1.56223
LJ              -nan            -nan            -nan
LJ          -2.44327       -0.296057        -1.56403
LJ          -1.00786          1.5085      -0.0218764
LJ          -1.56883         2.32862         2.01018
LJ         -0.514922         2.35644       -0.969503
LJ          0.318684         1.07742        0.471786
LJ          0.922725        -1.84273       -0.275818
LJ         -0.766378        -2.52518         0.11394
LJ           1.01626       -0.920719         1.99125
LJ           1.27123       -0.879993         -2.1548
LJ          0.865828      -0.0744271        -2.46009
LJ        -0.0137421         2.54041        0.883296
LJ           0.36479        -2.24899       -0.398009
LJ          -1.34354       -0.818479         1.16312
LJ          -2.26118        -1.70106        0.202943
LJ          -1.32708        -2.13575         1.33607
LJ          -0.26418       -0.410449       -0.500551
LJ           2.56312       -0.654173        -2.39869
LJ           1.67761         0.65682        -0.60533
LJ           2.06975       -0.361412         1.58957
LJ         0.0919573       -0.147589         1.82832
LJ          0.792779        -2.24547       -0.162516
LJ          0.161562         1.09907       -0.684846
LJ         -0.288895        0.465348         1.17247
LJ          0.678694        0.339888        -1.79306
LJ          -2.27441          1.8815        -2.22016
LJ          -2.40141         1.09636         1.74448
LJ          -1.95589        -1.64568       -0.661594
LJ          -1.30643         2.30134         1.81389
LJ          -2.33279         1.92925        -2.10183
LJ           1.26813        -1.47857       -0.646192
LJ          -1.35142       -0.989139       0.0901641
LJ           2.56444       -0.213622         2.13447
LJ          -2.06917       -0.586463         1.58802
LJ          -1.58086       -0.198678        -1.06552
LJ          -1.98359        -1.75013        -1.42455
LJ           2.37413        -1.21257        -1.10342
LJ           2.01351        0.715448       -0.282596
LJ           1.85992        0.624448         1.10862
LJ         0.0266371        0.730896         2.01751
LJ           1.31824          1.1843        -2.08462
