108
#Comment!
LJ          -2.02412       -0.711447      -0.0913447
LJ          0.364429        -2.30962        -2.33216
LJ          0.278725        -1.76712       -0.160467
LJ          -2.32091         1.91061        0.682144
LJ          -2.01901         1.08224        -1.83343
LJ           2.23838          -1.492        -2.52812
LJ          -2.48635        0.430334         1.91699
LJ           1.86033        0.745569         0.28601
LJ          0.395339        -1.06861         1.66689
LJ           0.37062         1.50393         2.37211
LJ              -nan            -nan            -nan
LJ          0.684086     -0.00978947        -2.28541
LJ           2.40724          2.0181        -2.08344
LJ              -nan            -nan            -nan
LJ           2.03239         2.09889       -0.947453
LJ              -nan            -nan            -nan
LJ              -nan            -nan            -nan
LJ              -nan            -nan            -nan
LJ          -0.80374       -0.583744          2.1332
LJ              -nan            -nan            -nan
LJ          -2.30416         0.81513         1.72524
LJ          -2.03786        -1.53403        -2.44486
LJ          -2.43682          1.1351       -0.441464
LJ              -nan            -nan            -nan
LJ         -0.742956           0.824        0.514438
LJ          0.762744        0.689234        0.881228
LJ          -2.20129       -0.754825        -1.53751
LJ           2.43447        -1.38873        -1.25468
LJ         -0.491771       -0.749644         1.17471
LJ           1.38936         2.28676        0.640426
LJ              -nan            -nan            -nan
LJ         -0.959061        -1.65936         2.27499
LJ              -nan            -nan            -nan
LJ            1.6172        0.323285        -2.40486
LJ              -nan            -nan            -nan
LJ         -0.276336         2.26101        -2.30511
LJ          -1.83042        -1.85874       -0.486249
LJ           2.34203         1.15725       -0.417324
LJ         -0.442192        0.315812       -0.192045
LJ           2.39931         1.73341        -1.40661
LJ          -1.63575        0.712314        0.381627
LJ         -0.235914       -0.982823      -0.0712059
LJ          0.915722         2.04242         1.53767
LJ           2.08336       -0.774219         1.79184
LJ          -2.04791         2.33503       -0.506694
LJ          -1.23688         2.18279       -0.464883
LJ          0.587046        -1.90071      -0.0991497
LJ          -1.56002         2.33508         1.52962
LJ           2.51019        -2.20578        -0.41031
LJ            1.3707       -0.935987       -0.238017
LJ          -1.08852        0.242175        -2.44509
LJ         -0.755709        -2.54085      -0.0626781
LJ              -nan            -nan            -nan
LJ          0.899552        0.731799         1.47781
LJ          0.735849        -1.13551        0.691433
LJ           2.38035         2.03058         1.31732
LJ         -0.359194       -0.126864       -0.583605
LJ           0.17652        0.868592       -0.876224
LJ          -1.89116        -1.04498         1.92211
LJ           1.55562         1.09565        -2.12715
LJ         -0.958804        -1.52486        -1.95453
LJ        -0.0591295        -2.34343         -0.4872
LJ          -2.16611         0.69534        0.290522
LJ              -nan            -nan            -nan
LJ              -nan            -nan            -nan
LJ          0.493858       -0.454459       -0.797502
LJ          0.542454        0.203764        0.524826
LJ              -nan            -nan            -nan
LJ         -0.182547        0.530045        0.936818
LJ          -2.43125       -0.136707        0.845644
LJ           1.02156         2.25665        0.123158
LJ          -2.51745         1.57654        -0.12082
LJ          0.306807       -0.258733         2.50175
LJ         -0.771121        -2.49571        0.323027
LJ          -1.62589        0.970735         1.64997
LJ           1.33435        -1.72146         1.59067
LJ           -2.1507          1.9862         1.02527
LJ         0.0779214        -1.53269        0.743168
LJ          -2.19431         1.05127        -2.48035
LJ          -2.46626         1.18056        0.641305
LJ          0.808461         2.05061       0.0453941
LJ         -0.981665        -2.06446        -1.31451
LJ           -2.0203         2.14281       0.0067575
LJ           2.29703      -0.0915841        -2.11128
LJ         -0.329528       -0.934596       -0.708515
LJ          -2.42021       -0.804355       -0.943926
LJ          -1.20218         1.47347        0.311115
LJ          -1.40087         2.15777       -0.603837
LJ          -1.53782        0.386039         2.52743
LJ          0.563987        -2.12087         1.13496
LJ              -nan            -nan            -nan
LJ         -0.572852        -1.60168         1.21923
LJ           2.07531        -1.73935          1.9162
LJ          0.687235         2.02446       -0.668349
LJ         -0.583635        0.165949         1.65866
LJ           1.10921        -1.53716       -0.573876
LJ          -1.53541        -1.62536         1.00134
LJ          -1.95139         -1.4426        -0.11366
LJ              -nan            -nan            -nan
LJ          0.468064       0.0617604         1.64543
LJ         -0.751475        0.813314         1.98404
LJ          -1.31279       -0.959887        -1.62218
LJ          0.513849        0.543424         2.23909
LJ           1.74415         1.64231         1.14927
LJ              -nan            -nan            -nan
LJ           1.24043         1.78084          2.3422
LJ           2.00034        0.502969        0.372516
LJ              -nan            -nan            -nan
