108
#Comment!
LJ          0.726179        0.713421         2.37354
LJ          0.869244        0.144971        -1.20776
LJ           2.22827       -0.270026         2.47324
LJ           1.97463        -1.09202        -2.30834
LJ          -2.17885        0.954648        -1.26487
LJ           2.42777         1.34805         0.48721
LJ            0.9352        -1.19073          -2.278
LJ            2.3905       -0.395778      -0.0382425
LJ           2.49595         1.70941         2.32803
LJ           1.56515         1.32733        -1.46296
LJ              -nan            -nan            -nan
LJ           2.22323        -2.54896       -0.432604
LJ          0.181904         2.40833        -1.80631
LJ         -0.427187        -1.55096       -0.172661
LJ          0.864094        -2.50085         2.24003
LJ              -nan            -nan            -nan
LJ              -nan            -nan            -nan
LJ              -nan            -nan            -nan
LJ          -2.05379       -0.235169       -0.194514
LJ              -nan            -nan            -nan
LJ             2.518        -1.35356        -1.41584
LJ         -0.976618        0.954125        0.719232
LJ          -1.72897      -0.0176537        0.912764
LJ          -2.18423        -2.30251        -1.88098
LJ           1.36413        -1.12806        -1.37148
LJ           1.78847        0.609751        -1.97804
LJ           1.29776        0.485635        -2.04683
LJ           1.47232        -1.07297        -1.85741
LJ          0.357846       -0.768682        -2.31194
LJ          -1.73257       -0.560799        -1.04259
LJ            1.1225       -0.635465        0.621087
LJ           -1.6254         1.47167       -0.129168
LJ              -nan            -nan            -nan
LJ           1.74185       -0.443507         1.74567
LJ              -nan            -nan            -nan
LJ          0.244178        0.681141       -0.226988
LJ          -1.27856        -1.63888        0.301853
LJ           0.46579        -1.13064        0.125261
LJ           2.04722        0.527987        0.655185
LJ            1.6348        -2.27744         1.71578
LJ         -0.435514        -1.87802        0.361491
LJ          -2.10271        0.292975         2.48462
LJ          0.773054         1.06195       -0.869783
LJ           2.55232         -1.0251         -2.0897
LJ           1.96103        -2.52502        -1.39998
LJ           1.30695       -0.177506        -1.90138
LJ          -1.31634         1.47103         0.63806
LJ          -1.79427       -0.150318         2.32995
LJ           2.38122        0.657041        0.399015
LJ          0.250909        0.732458       0.0777742
LJ          -1.03106        -1.46419        -2.40735
LJ           2.29515        -1.34658         1.22513
LJ              -nan            -nan            -nan
LJ         -0.695815        -1.14885         1.88071
LJ           0.44444         1.83599        -1.75065
LJ           1.14175         2.27722       -0.672531
LJ           1.06654         -2.1321      -0.0205966
LJ          -2.25507        0.351586        0.150766
LJ            0.2722         2.10084          1.7937
LJ          -1.30881        -1.07331        -1.16732
LJ           2.53778         1.49378       -0.658367
LJ          -2.24398        -1.58453        -2.42064
LJ           1.19566        -1.53738        -2.22381
LJ           0.23988         1.77531         1.67997
LJ         -0.492506        0.114393         1.76636
LJ          -1.32161        -1.47868        -2.26523
LJ          -1.96572         1.04264        0.343145
LJ              -nan            -nan            -nan
LJ         -0.451905        -1.57772        0.879726
LJ           2.09303       -0.307026        0.752971
LJ          0.215318       -0.863359       0.0881179
LJ         -0.936197       -0.920455         1.80115
LJ          -2.48836        0.808661        -1.63061
LJ         -0.300175         1.47329          2.4803
LJ           1.58733        -1.85444        -1.84471
LJ          0.496498        -2.14516         2.49306
LJ          -0.44844        -0.11274         1.02717
LJ           2.37379        0.410948       -0.687556
LJ          -1.41404       -0.813354         1.51402
LJ         -0.300057         2.52879       -0.510411
LJ          -1.43775        -0.35682         1.34052
LJ           2.34417         1.76292        0.913233
LJ          0.769799        0.434789         2.46706
LJ           2.32174       -0.540561       0.0525481
LJ           -0.5407        -1.19286       -0.805185
LJ          -2.11573        0.744769         -2.3672
LJ          0.305178        0.757644        -2.46481
LJ           2.02269         1.46061         2.42999
LJ           1.20379        0.642496        -1.94943
LJ             1.493       -0.933122         2.56092
LJ              -nan            -nan            -nan
LJ          -2.14626         2.52485        -1.06609
LJ         -0.145751         2.47025         2.26911
LJ        -0.0391181         1.58519         1.47662
LJ          0.698104         0.16062         1.97354
LJ          0.770994         2.47835         1.22922
LJ        -0.0418016         1.92118       0.0476659
LJ          -2.25994        0.823965        0.881675
LJ              -nan            -nan            -nan
LJ          -2.17684        -1.12817       -0.452797
LJ          -2.00235          1.7963        0.593475
LJ         -0.192222        -1.74693         1.14183
LJ           2.55348       -0.152375         1.05651
LJ           2.13738         -2.3547       -0.966234
LJ          0.518567        -0.89925        -2.28365
LJ          0.838249         2.00954        0.314931
LJ         -0.442719        -1.45522        -1.69672
LJ              -nan            -nan            -nan
