108
#Comment!
LJ          -1.23847        0.344194         1.97627
LJ          0.395405         1.24333         1.00553
LJ           -2.2947         1.04756         1.99594
LJ         -0.120624         1.61062       -0.257843
LJ          -1.70139       -0.874083       -0.146624
LJ           1.26124         1.10046        -2.24458
LJ          -2.49289        -1.83809        0.374589
LJ          -1.64324        -1.43093         1.07784
LJ          -1.99551       -0.826517        -2.04577
LJ           1.61588         1.12782       -0.882122
LJ              -nan            -nan            -nan
LJ          -1.34706        0.777006         2.08462
LJ           1.14081         1.03702         2.40078
LJ         0.0353288        0.168577        -2.06934
LJ           2.36726       -0.794122        -1.96719
LJ             1.421         1.86645        0.953818
LJ           2.42738       -0.323083      -0.0617208
LJ           0.50106        0.551829        0.878773
LJ           -2.3013         2.39623        -1.35187
LJ          0.293298         2.08229       -0.200708
LJ           1.42884        -1.32528        0.874928
LJ          -1.68377         1.04529        -1.77821
LJ           -2.3162         2.37759        -1.28082
LJ           2.06501      -0.0124743         1.91277
LJ         -0.906327        -1.51859         1.28736
LJ          0.923945         1.90059       -0.412923
LJ          -1.39372       -0.149202        0.892553
LJ           2.30762         2.01051       -0.302066
LJ          0.883528        -1.90037         1.77947
LJ          0.464126       -0.966453        0.829644
LJ          -1.04168         1.97323         -1.7132
LJ         -0.375343         0.40451        -1.60663
LJ              -nan            -nan            -nan
LJ         -0.276565       -0.161881         1.05061
LJ         -0.862513        0.232461       -0.975755
LJ         -0.612885        0.926716         1.70637
LJ           0.13877       -0.112766       -0.872777
LJ           2.46537        0.342342       0.0909551
LJ          0.350178        0.102223          1.0625
LJ          -0.53028        -2.43161         1.17213
LJ           2.02937        -1.39283        -1.95474
LJ          -1.54116         1.34777        -1.49447
LJ          0.814879         1.75096        -1.47288
LJ          0.533113         2.30384        -2.40746
LJ           1.83791        -2.36653         2.45205
LJ          -1.83729        -1.70236       -0.889226
LJ           2.53248        -0.46837         2.05337
LJ          0.793394        -2.40323         1.35866
LJ          -1.42899       -0.998242        -1.63525
LJ          -2.45066        -1.12314        -0.11518
LJ          -1.86692        -2.27726         2.54953
LJ           2.03412        0.780897       -0.754611
LJ           2.26628        -2.55634        -1.85087
LJ          -2.06634         1.57675         2.56073
LJ            1.2257       -0.439214        -1.68448
LJ         -0.209878        0.430701        -1.08275
LJ          0.998067        0.148377       -0.348641
LJ           1.45077        -2.26174         2.02167
LJ          0.187667         -1.2983       -0.779796
LJ           -1.1485        0.772303       0.0814823
LJ           1.04909        -2.25146       -0.768244
LJ            1.3894         1.82031        0.698891
LJ          0.610458        -2.54357       -0.300865
LJ          0.355056        -1.04635          1.3849
LJ         -0.245436        0.773642        -2.36898
LJ           1.09325        0.621544        -2.46584
LJ          -2.37176        -1.13559         -1.0629
LJ           2.56131        0.948991        -0.50551
LJ          0.105585         1.83144        -1.89678
LJ           2.21625         -1.8698        -1.17056
LJ          -2.54795       -0.447049       -0.552908
LJ         -0.702782        0.401816        -1.98493
LJ         -0.414346        0.327168        -1.59348
LJ         -0.733809        0.121405        0.894658
LJ         -0.811117        0.588597        0.159113
LJ          -1.77829         1.05073         1.20071
LJ          -1.28237        -1.51941         2.11314
LJ           1.35527       -0.903266        0.186854
LJ          -1.61746         2.10829        0.905782
LJ          -1.16726        -1.43245        0.172015
LJ          -2.05372        -2.01178        -0.69967
LJ          -0.31988       -0.440871        -1.99361
LJ         0.0141175        -1.37615        -1.01829
LJ            1.8696        -1.97532          2.5168
LJ          -2.39756        -1.93614          1.3859
LJ          -1.08988        -2.56317       -0.282731
LJ          0.135176        0.602035        -1.97198
LJ          -2.12415       -0.724617        -1.52602
LJ           1.49678        0.453421        0.627269
LJ             -2.49      -0.0180911         2.44429
LJ            1.0939         1.87505        0.622239
LJ          -1.60059         1.96183       -0.263645
LJ          -2.34821         1.49835        0.580401
LJ           2.11947        0.391597        -1.33059
LJ           1.90486        0.836682        -1.09819
LJ         -0.067869         1.76037         2.21628
LJ          0.263979       -0.570614         -2.0397
LJ           1.27093       -0.873861        0.901009
LJ          -2.53215        -1.06867         2.17291
LJ          -1.97962         1.12113       -0.629658
LJ          -1.24649       -0.902247       -0.914326
LJ         0.0479442        0.669538        -1.80496
LJ          0.553282       -0.862235        -0.96976
LJ          -1.06284         1.92285         1.09485
LJ         -0.831559       -0.704467         1.21081
LJ           1.08826         1.65891     -0.00945113
LJ          0.434616       -0.404297         1.89411
LJ           1.62558        -1.61297       -0.452918
