108
#Comment!
LJ         -0.222686        0.161945        -2.19912
LJ          -1.03184        -2.15811        0.445363
LJ           1.32646        -2.54327        -2.38022
LJ           1.93974         1.38952       -0.521294
LJ           1.46479         -2.2954        -1.36059
LJ          -2.10351        0.485546        -1.11292
LJ           1.58281         2.05702         1.16751
LJ           1.90321        -1.82319       -0.519874
LJ           1.56545         2.45464         1.89966
LJ           2.10909        -1.76777         1.51717
LJ              -nan            -nan            -nan
LJ            1.1358          2.2217       -0.936663
LJ         -0.219224         1.85319         1.83916
LJ          0.673747         1.24678        -0.86221
LJ         -0.635985         1.79973          1.3141
LJ           1.30123       -0.851981        -1.10787
LJ            0.6149          2.4186        0.436023
LJ           1.56899         1.91335         1.91532
LJ         -0.304784         1.16658        -1.36108
LJ           1.86928       0.0551547        0.761107
LJ           2.18204         1.03247        -1.98077
LJ         -0.510374        -1.30763         2.09016
LJ          0.511009           1.144        -1.32784
LJ         -0.201478        -1.34219         1.94059
LJ          -2.12267      -0.0154388         1.21054
LJ         -0.794007         2.47703        -1.65118
LJ         -0.291948        -1.02259       -0.691474
LJ          -2.45338        -1.93119        0.194565
LJ           1.75718       -0.352651       -0.494123
LJ          -1.98729        0.898226       -0.606625
LJ          -1.67155         0.75513         1.64256
LJ           2.41864         1.40133         1.09476
LJ              -nan            -nan            -nan
LJ          -1.41734         1.30636         2.41104
LJ          -1.22321         1.65434         1.16339
LJ          -2.01667        -2.19158         2.08423
LJ          -1.85438       -0.430863        -1.79614
LJ          0.559565         1.80069        0.494818
LJ         -0.113896        -1.27864       -0.408694
LJ           1.65437         1.35468       -0.797791
LJ          -2.48841       0.0522033         1.18583
LJ         -0.766673         1.30148         -2.3512
LJ         -0.107949       -0.380289         1.83602
LJ           1.03227         2.27835        -1.40382
LJ           -2.1111         1.32977         2.48577
LJ           2.19746        0.657545        -1.31145
LJ           1.87369       -0.843991         1.28421
LJ         -0.906905         1.10456        -1.65102
LJ          -1.18941       -0.706472        0.426622
LJ          0.021723        -2.01149         1.13152
LJ           -1.4298         1.25309          2.5094
LJ          -0.18957       -0.190908         1.61659
LJ           1.28993        -2.48543        -2.22781
LJ           -1.8071      -0.0426843           1.727
LJ          0.191363        0.441839        -1.69108
LJ         0.0898251        0.456886        -1.25023
LJ         -0.119995         2.17339          1.4702
LJ        0.00397242      -0.0875061        -1.18768
LJ           1.40739        -1.96077         1.52502
LJ            2.5473       -0.329489        -1.57422
LJ            1.6104      -0.0670022        -1.30639
LJ           1.97927        0.257612         2.24152
LJ         -0.608134          1.4437         1.76064
LJ          -1.95684         2.29147        -1.31097
LJ         -0.585731        0.423724         2.34123
LJ           2.04612        0.946982        0.693419
LJ         -0.208036         2.40386       -0.817813
LJ          -2.36657       -0.383472         2.33717
LJ           2.16236        -1.90297         1.97027
LJ          0.137135        0.416221         1.45321
LJ         -0.866524          2.2075         2.25261
LJ         -0.674541        -2.37959       -0.187786
LJ            -1.805        -2.28368         1.81438
LJ         -0.670095       -0.593985       -0.515311
LJ          0.203713       -0.132601        0.476562
LJ         -0.825708         1.17411        -1.10389
LJ          0.852276         1.14171        -1.71328
LJ           1.80428        -1.51468         2.53237
LJ           1.55456        -1.59704        -2.02582
LJ          -1.61191        -2.20895       -0.773628
LJ           -1.5941         2.30927          1.6046
LJ          -1.07198         2.45237        0.903051
LJ         -0.744597       -0.372137         1.04503
LJ          0.366538      -0.0880935         -1.6255
LJ          -2.29001         2.39326        -1.23739
LJ          -2.54035         0.98124       -0.141336
LJ          -1.71776        -1.06738        -1.21984
LJ         -0.301422         1.15227         1.64888
LJ         -0.254598        -2.09894         1.48802
LJ         -0.729402         -1.9525         -2.1231
LJ          -1.56112        0.470384       -0.114372
LJ        -0.0309857        -1.23436        -2.29394
LJ          -2.13452         2.27399        -2.19309
LJ           1.39239         1.90549       -0.810629
LJ           1.27973         1.15105         2.36927
LJ          -1.64474       0.0728377         -0.3805
LJ         -0.803542        -1.05803         2.49948
LJ          0.990827        -1.26471         2.29942
LJ         -0.352693        -2.40079         1.46216
LJ          -1.42699       -0.798749        0.308564
LJ         -0.871155       -0.741776        -0.58593
LJ        -0.0762626        -1.83365         1.39578
LJ          -2.31589       -0.309762       -0.628949
LJ           1.23635       -0.288835         2.34128
LJ         -0.879943         1.97156         1.89641
LJ         0.0722469        -2.47031       -0.718073
LJ         -0.955289         -0.7423        -0.17323
LJ          -1.90429        -1.61108         1.10159
