108
#Comment!
LJ           2.30772          1.7704         1.06374
LJ          0.663375         0.65461         2.52122
LJ         0.0838458        -1.11348        0.227159
LJ          -1.51693        -1.08512        -1.12854
LJ           0.90782       -0.511551         1.26916
LJ           2.20347        -2.03449         1.74434
LJ         -0.744711       -0.608207         1.79891
LJ          0.766855        -1.23013         2.08528
LJ         -0.844012      -0.0772034        -2.03301
LJ          -2.14827        -1.90955        -1.30577
LJ              -nan            -nan            -nan
LJ             2.508        0.337604        -2.35154
LJ           0.53129       -0.715947        -2.14676
LJ          -1.20283         1.92691         2.26664
LJ          0.605706         1.19786         1.62585
LJ          0.891756          2.3814        -1.79312
LJ              -nan            -nan            -nan
LJ              -nan            -nan            -nan
LJ          -1.56425        -1.69825        -1.92066
LJ              -nan            -nan            -nan
LJ           1.41021        -1.43414           1.588
LJ          -1.93881         1.81409        0.126959
LJ         -0.570353         2.02754        -2.50467
LJ          -2.05074        -1.90973        -1.32189
LJ          -2.26866         1.64831       -0.743505
LJ           1.98928         1.56996         2.34105
LJ         -0.141322         1.91667        -1.45378
LJ          -0.03344       -0.736867         2.17198
LJ           1.33233        0.168016         -1.5697
LJ          -1.03219        -1.13491        0.592041
LJ         -0.738339        -1.60541       -0.878944
LJ           1.23951        -2.54188          2.2446
LJ              -nan            -nan            -nan
LJ           2.21631         0.38063        -1.56408
LJ              -nan            -nan            -nan
LJ           1.53546        -2.39779         0.30662
LJ           -1.0806        0.569644         2.19779
LJ         -0.866122       -0.234213        -2.23202
LJ          0.899573       -0.317088        -2.39952
LJ           2.47813         1.24075       -0.551201
LJ           1.31161         1.06748        0.172629
LJ           2.54792        -2.05965         1.25612
LJ          -2.37814         1.72859         1.50428
LJ          -1.82224        -1.94931        -1.33396
LJ          -1.20818      -0.0351311        -2.36144
LJ         -0.666451        -2.45516        0.342058
LJ          -1.61502        -1.16926         1.44983
LJ         -0.600908        -1.93901         1.91042
LJ          -1.11771       -0.758741        0.315011
LJ         -0.629247          2.4219        0.416633
LJ          -1.44852         2.31334       -0.500211
LJ           1.28201       0.0916046       -0.301698
LJ              -nan            -nan            -nan
LJ         0.0544865         2.00434        -2.08467
LJ          0.834772         1.49301        -2.05834
LJ          -1.73629        -2.11542         2.34983
LJ          -1.28997        0.341404        -2.14436
LJ            2.0956         1.74677         2.47819
LJ          0.320191         2.31733        -1.47981
LJ         0.0610377       -0.520122       -0.395385
LJ           1.17252         -1.0686        -2.52195
LJ          -1.11773       -0.924305        -2.38625
LJ          -2.00154        -0.25085        -1.67837
LJ         -0.947495         2.01793         2.47186
LJ         -0.374165         1.60404         1.73509
LJ           1.19593        -1.83464        -2.13403
LJ          -1.70417        0.452271         2.46027
LJ              -nan            -nan            -nan
LJ          -2.49476        0.702487        0.162254
LJ          -2.28555         2.41317        -1.80519
LJ         -0.214952       -0.330874       -0.642031
LJ          -1.02868        -2.07876         1.17852
LJ          0.273625        -1.14358        0.708262
LJ          -1.95154       -0.774244        0.114839
LJ         -0.359655       -0.682579         2.15379
LJ           2.16774        -2.04814         1.71573
LJ           1.76198         2.08592         1.27479
LJ         -0.830299       -0.854017         2.09321
LJ           2.30179         1.33413        0.612012
LJ          0.870347         0.62206        0.489157
LJ          -1.05147         1.05284      -0.0371514
LJ           1.26471         2.38993       -0.742677
LJ         -0.504307        -2.30497       -0.367251
LJ           2.10876        -1.51889         1.30632
LJ           2.21256       -0.289608        0.852754
LJ           1.24761         1.70352         2.05237
LJ          -1.69212       -0.928592        0.478468
LJ          -2.52126       -0.165181        -1.88947
LJ           0.16018         2.08836         1.12827
LJ          0.575879        -1.41259        -1.01965
LJ              -nan            -nan            -nan
LJ          0.839525        -1.17604        0.104368
LJ            1.3821        -1.11645        -2.18447
LJ         0.0776801        -1.30217        -1.74233
LJ           1.99944         -2.2426       0.0658137
LJ         -0.521339        -1.67705        0.194894
LJ         -0.510265       -0.757049         2.48796
LJ          -1.98515        -1.31357         1.95668
LJ         -0.234046        0.713523        -1.14603
LJ          0.523344          0.9367         1.26987
LJ         -0.146803         2.28755       -0.536721
LJ          -2.18047        0.446724        0.112305
LJ          -1.29582        -1.76119       -0.422275
LJ           1.96763        -1.70352         1.83006
LJ          -1.11948        0.784182         1.29839
LJ          -1.78163         2.13323         1.51515
LJ         0.0726699       -0.748838        -0.31504
LJ              -nan            -nan            -nan
