108
#Comment!
LJ         -0.268806        0.797189        -1.86371
LJ         -0.417114        0.511041         1.81427
LJ           1.59454         2.43486         1.05886
LJ         -0.950736         2.28456       -0.106574
LJ         -0.757669         -1.0842         2.46767
LJ          0.724715          1.9733         1.45506
LJ         -0.807418        -2.23259        -0.46222
LJ            1.5341         1.00151         1.16088
LJ          0.795195         1.61232       -0.221539
LJ           2.39478        0.591023        -1.42328
LJ              -nan            -nan            -nan
LJ           1.90947       -0.243518        0.395999
LJ          0.346724         2.30081        -1.00672
LJ              -nan            -nan            -nan
LJ         -0.867576        -0.81494         2.10378
LJ              -nan            -nan            -nan
LJ              -nan            -nan            -nan
LJ              -nan            -nan            -nan
LJ          -1.61491       -0.102732       -0.313774
LJ              -nan            -nan            -nan
LJ          -1.59421        -2.24426         2.18568
LJ           1.94319        0.564151         1.84393
LJ         -0.578339        0.913245         2.55481
LJ              -nan            -nan            -nan
LJ         -0.666986         2.42092        0.748745
LJ          -2.51559         1.88327         2.33649
LJ           2.39005         2.07643         2.13904
LJ           1.15857         1.93331         -1.7783
LJ           1.95592        -1.00691         -2.5288
LJ          -1.22866        -2.23829         2.42994
LJ              -nan            -nan            -nan
LJ           2.52349        0.252228       -0.325521
LJ              -nan            -nan            -nan
LJ           2.27078         1.59782        -1.25573
LJ              -nan            -nan            -nan
LJ          0.153177        -2.28437         1.37303
LJ          0.330456        0.338795        -1.56085
LJ          -1.29766        0.916097        0.821087
LJ          -1.85778        0.515591         0.72958
LJ         -0.944145         1.44801        -1.45699
LJ          -1.00969        -1.71573       -0.120503
LJ         -0.567887        -2.30027        -1.43705
LJ           2.24839         1.86799       -0.559553
LJ         -0.502619         -2.4417         1.19942
LJ           1.21548       -0.622219        -2.01705
LJ         -0.902263         1.97254       -0.646966
LJ          -2.31952       -0.233527        -1.39236
LJ           1.67965        -2.15185         1.54863
LJ          -2.00699         2.19677        0.280834
LJ           1.22875       -0.271684       -0.796446
LJ           2.15991        -2.02267       -0.722762
LJ           2.31958       -0.783861      -0.0270237
LJ              -nan            -nan            -nan
LJ          -1.92344        0.671989       -0.619154
LJ         -0.957343         2.31787         2.44924
LJ          -2.54866         2.42538        -1.76478
LJ          0.388586        -1.75457         -1.4707
LJ            1.3708         1.87069         1.85102
LJ          -1.38202        0.540101         1.80072
LJ         -0.244878       -0.910999        -1.86094
LJ          -1.94463         2.25223        -1.82697
LJ          0.516963         1.79047        -2.51456
LJ           1.83572         1.62579        -1.35637
LJ              -nan            -nan            -nan
LJ              -nan            -nan            -nan
LJ         -0.435028         -2.5051       -0.113643
LJ           -1.3132       -0.309532         1.67497
LJ              -nan            -nan            -nan
LJ           2.24337         1.87849        -1.30116
LJ          0.860325         1.05855        -1.37805
LJ          0.729264        -1.68024         2.48197
LJ          -2.33193       0.0227734       -0.143392
LJ          -1.35615        -1.99486        0.818609
LJ           1.92104        0.233452        0.476123
LJ          0.718376         1.92034         2.24944
LJ         -0.565192       -0.684325       -0.963662
LJ            2.4072        -1.38589        -2.03601
LJ           2.10591       -0.549404        0.619914
LJ          0.640528        -1.69826         2.50648
LJ           -1.0748         2.34643        -0.84197
LJ          0.926772        -1.60501        -1.01504
LJ          -1.55474        0.263081         2.09882
LJ            2.0805        -1.70228         1.41652
LJ           1.53962          0.1698         2.40173
LJ           1.03843       -0.395046       -0.953724
LJ            1.9043         1.47491        -1.90351
LJ         -0.833093        0.460078         1.24817
LJ           2.24553        -1.89761        -2.24202
LJ           1.36436         2.32767        -1.50201
LJ           1.77055        -1.64794        -0.68863
LJ              -nan            -nan            -nan
LJ           2.40503        -1.61227        -1.60968
LJ          0.633194        -1.68926         2.03815
LJ          -1.52927        0.172893        0.862936
LJ         -0.856417          -1.994        -2.42925
LJ         0.0251054        -1.86903       -0.326205
LJ           1.40578       -0.203428       0.0615501
LJ           1.76932         1.21496        -1.62706
LJ              -nan            -nan            -nan
LJ          -2.19886        -2.13715         1.58401
LJ           1.86314        0.355683         2.42321
LJ          -1.18661         1.94635       -0.555565
LJ          -1.31562         2.04775        -2.55211
LJ         -0.150928        -1.38923        0.960777
LJ              -nan            -nan            -nan
LJ          -1.55464      -0.0579544         2.43382
LJ          -2.53832        -1.73861        -2.15947
LJ              -nan            -nan            -nan
