108
#Comment!
LJ           1.75754         2.04356         1.20853
LJ            0.5022       -0.215921        0.436364
LJ           1.02427        -1.03828         1.00324
LJ         -0.173542          0.9058         -1.2055
LJ           1.45243         -1.4746         1.23413
LJ           -1.8777        -1.17201         1.74785
LJ         -0.859017        -2.00306          2.2775
LJ           1.82191        -1.30691        -1.87757
LJ           2.32484        -1.59572        0.105073
LJ          -2.06339       -0.646552         1.43012
LJ              -nan            -nan            -nan
LJ          0.610753         2.36269        -2.36957
LJ          -0.22658         2.15772        -2.35796
LJ         0.0295467         2.24826        0.134034
LJ          -1.81472         2.46042      0.00521144
LJ           1.79288        0.856464        0.263293
LJ           2.45082       -0.994254       -0.531451
LJ          -2.17317       -0.783915       -0.579263
LJ           1.22156       -0.188118         1.10261
LJ           1.80334         2.35899        -1.85857
LJ          -1.68606        0.580252       0.0533801
LJ           2.38144         2.14914       -0.540465
LJ          0.652267         -1.3727       -0.647554
LJ          -0.23097         1.34539        -1.13153
LJ          0.479077         2.35242       -0.315986
LJ          -1.52774        -2.40927        -0.39704
LJ           2.28037        0.222999        -1.73326
LJ          -1.85285         1.73916        -1.06122
LJ          -1.58806        -2.51605        -2.41332
LJ          -1.74297       -0.717154       -0.445104
LJ          -1.03772         1.74961         2.52705
LJ          -0.15102         1.31482         1.09783
LJ              -nan            -nan            -nan
LJ           1.23992         1.02569         1.79592
LJ          0.618063          2.0029        -1.70929
LJ          0.903895         1.64718       -0.738931
LJ          -1.20128       -0.851827         1.50827
LJ           1.92425        0.870743         1.33849
LJ          0.901639         1.65708        -1.21866
LJ          -1.97095        0.511439        -2.56171
LJ          0.532974        -1.16074       -0.233838
LJ            0.4789          2.5395        -2.39559
LJ          -1.35565        0.953431         -2.4118
LJ          -1.80446        0.239739        -2.03077
LJ          -1.03972        -2.17131         1.72765
LJ          0.849754        0.408204        -1.93408
LJ          0.211197       -0.999489        -2.33789
LJ            0.7889         1.44758        -1.46477
LJ           2.15711        -1.96598        0.428184
LJ          -1.37606        -1.65011       -0.984568
LJ           -2.3306        0.774289         2.21333
LJ           2.10085        -1.30949         1.46907
LJ         -0.586062         1.25176         -1.9814
LJ          0.476077         2.44679         2.46054
LJ            2.2501        -1.19793        -2.12114
LJ         -0.949194        -1.00954        -2.43899
LJ          0.843341         -1.2562        0.241691
LJ         -0.218412         1.23121        -0.48075
LJ          -1.68522        -1.61406        -1.90651
LJ          0.532781       -0.467255        -2.08351
LJ         0.0524426        0.711785        0.831529
LJ         -0.839752       -0.819416        0.776152
LJ          0.147053        0.224704         2.08692
LJ           1.84142        -2.40219         1.36807
LJ          -1.29798        -1.20505       -0.987724
LJ          -1.22711        -1.69251        0.416132
LJ         -0.073999         1.08871        -1.40082
LJ           2.04061       -0.886629       -0.607504
LJ        -0.0504106         1.49009       -0.460132
LJ          0.312485        0.818689         2.30304
LJ          0.577675        -1.10487        -1.83331
LJ           1.51609       -0.973411        0.589032
LJ           1.13077         -1.5457         1.14317
LJ         -0.178392        -1.27242         -2.2061
LJ         -0.986269         0.15859         1.46708
LJ            1.2329        0.504159       -0.333238
LJ           -1.7249        -2.40624         1.51036
LJ         -0.273603       -0.532109        0.269957
LJ          -2.12095        0.190592        -0.47342
LJ         -0.617072        -1.16189        0.420527
LJ          0.667872        -1.22839        -2.44647
LJ          0.717436        -2.25751        -1.26657
LJ         -0.889461         2.08864          1.0835
LJ           -1.5371        0.180045        -1.24586
LJ          0.960457         1.18542         1.25944
LJ          -2.56098        -1.67038       -0.567651
LJ          -2.34437        0.487259         1.77531
LJ          -2.11728        -1.86523        0.384942
LJ           1.02822        0.699528        -1.05725
LJ          0.841854         1.06251        -1.83624
LJ         -0.740243         2.19444        -1.45832
LJ         -0.709517        -1.18089         1.34456
LJ          0.690752         -1.0898         1.63655
LJ         -0.812959        -0.29178         1.78697
LJ           -1.5969        -1.14208         1.97113
LJ           1.79381        -1.76991        0.269598
LJ           0.20694       -0.792264        0.799603
LJ          -1.82535        -1.40278       -0.919761
LJ          -1.48751          1.5622        0.550365
LJ          -2.22726         2.08186        -1.48029
LJ          -1.76222         2.21265        -1.27551
LJ          -1.37083         -1.5604       -0.554886
LJ           1.61046         1.31507        -1.10431
LJ           2.18094        0.310442          1.4083
LJ          -1.44856        0.744206        0.819566
LJ          -2.32473        -2.37476        0.736872
LJ           2.18389          -1.017         2.21123
LJ         -0.946418         1.94736         1.56321
