108
#Comment!
LJ          0.244654         2.39951        -1.45273
LJ           2.44059        -2.00664       -0.812667
LJ          -1.15309          2.4233       0.0128755
LJ          0.832673        -1.39832        -1.23315
LJ           -2.3196        0.691144        0.195395
LJ          0.882143        0.955025        -0.96046
LJ         0.0156894       -0.397982       -0.778394
LJ           1.70384        -2.17894        -1.73173
LJ         -0.690914         2.53821         2.50533
LJ         -0.553004         1.03037       -0.483881
LJ              -nan            -nan            -nan
LJ           1.38872         2.01077         2.38437
LJ          -1.00462        0.532858       -0.684143
LJ          0.670666         1.49657         1.53711
LJ            1.4193        -1.44798         2.50151
LJ          -1.42426         -1.7251         1.56751
LJ              -nan            -nan            -nan
LJ              -nan            -nan            -nan
LJ          -1.87719       -0.407033       -0.361712
LJ              -nan            -nan            -nan
LJ         -0.616982         1.10755        -2.35002
LJ          -1.70627         2.42469       -0.856035
LJ          -1.76041        -1.12652        -1.78773
LJ         -0.366085        0.767839        -2.24466
LJ           1.40475        -1.57685        -1.06855
LJ         -0.792594       -0.410826        -2.23752
LJ          -1.31311        -1.11911        -0.68672
LJ           1.62069         2.41855      -0.0633247
LJ         -0.179999          2.4918      -0.0465703
LJ           1.04897        0.745879       -0.223163
LJ           -0.4419        -1.96583        -1.28037
LJ           2.43307         0.68313        0.979701
LJ              -nan            -nan            -nan
LJ          -2.01037        -1.87273        0.315795
LJ              -nan            -nan            -nan
LJ          0.941547        -1.64161       0.0911609
LJ          -2.24609         2.27396        -1.44122
LJ           2.03779        -1.60414         -1.7127
LJ          -1.04807       -0.512149         1.92293
LJ          -2.56246       -0.519423        0.178425
LJ          0.428676         1.31208           -2.12
LJ           1.85679        0.500674         2.24696
LJ           1.74868        -2.18608        0.597433
LJ         -0.847904       0.0705124         1.05991
LJ          -1.41865        0.766271        -2.54986
LJ          -1.08023       -0.547624        -1.77927
LJ          -2.43907         1.43776         1.36617
LJ          -1.13413       -0.174698        0.937981
LJ         -0.579366        -1.67266        0.771033
LJ          0.992567        -1.33041         2.46596
LJ        -0.0523824        -1.23226         1.98428
LJ         -0.237628       -0.144976         1.42251
LJ              -nan            -nan            -nan
LJ         -0.197352       -0.281856        -1.06242
LJ           1.70756        -2.40047         1.54148
LJ          0.793248         2.30638        -2.29807
LJ         -0.280282          1.4803        0.371784
LJ         -0.530426        -1.08834        0.415236
LJ            2.1241        0.635211       0.0627158
LJ          0.752228        0.284584       -0.530678
LJ           2.54308       0.0617777         2.15568
LJ         -0.504425       -0.435621       0.0475498
LJ           1.86812         1.28763          1.3757
LJ         -0.529128       -0.680716        -1.11023
LJ         -0.349806         2.10024        -1.49489
LJ           2.03176       0.0556272         2.44812
LJ           1.90754         0.79681        -1.98796
LJ              -nan            -nan            -nan
LJ           2.08362        -1.29494        0.457999
LJ         -0.265871        -2.23603       -0.874882
LJ          -2.08508        -1.90098         1.24222
LJ           2.52179        -1.07699        0.848797
LJ          -1.39736         1.86192        0.398968
LJ           2.06105        -2.10359       -0.622919
LJ         -0.178435        0.854837        -1.91606
LJ            1.8318          1.5386        -2.09899
LJ           1.33625        0.536735       -0.918762
LJ          0.201131        -2.30756        -2.16592
LJ            1.5717       -0.664859         -1.5974
LJ           1.55882         2.47007          2.0992
LJ         -0.761787        -1.43856       -0.981104
LJ          -2.42226        -2.05803        0.622812
LJ          -0.15249       -0.487717        -1.80944
LJ         -0.700056         2.43975         1.86535
LJ          0.696417        -1.34901        -1.66107
LJ           1.43841       0.0476218         1.09274
LJ           2.27264        -2.28841       -0.468377
LJ          -0.21563        -1.55993        -2.02922
LJ           1.76501        -1.49867         1.18356
LJ          0.214354          0.3822         2.18485
LJ              -nan            -nan            -nan
LJ         -0.169845       -0.370139         1.69391
LJ            1.1152         1.43294        0.308723
LJ         -0.909724        -0.19012        -2.41752
LJ           1.12762         1.39303         1.23629
LJ          -1.20499       0.0620814       -0.846393
LJ          -1.42579        0.884811        -1.81471
LJ            1.2885       -0.568741         -2.4032
LJ          -1.32352         2.40197      -0.0295238
LJ          -1.34649        0.763601         1.43893
LJ            1.3155        -1.30076       -0.842945
LJ          -1.66884         1.64204         2.32901
LJ            1.3146         1.66046       -0.460371
LJ          0.509363        -2.31554         0.11897
LJ           2.55787        -1.84616         -1.0402
LJ       -0.00395543       -0.842846         1.85962
LJ          0.460934         1.90321        0.928121
LJ              -nan            -nan            -nan
