108
#Comment!
LJ          -1.62597        0.810335        -0.21539
LJ          -1.74525        -1.19271          2.4873
LJ           1.55293         1.24731        -2.29399
LJ           1.51205      -0.0224795         1.12089
LJ          -2.01179        0.351266       -0.242338
LJ         -0.505688        -2.06308       -0.785918
LJ           -1.2103         1.41376        -2.45222
LJ          0.965079        -1.49088         1.16709
LJ           1.82794        0.990596        -1.04936
LJ          -1.46335        -2.01352         2.33549
LJ              -nan            -nan            -nan
LJ           2.02411      -0.0218345         2.09732
LJ          0.303153        -1.21661       -0.568601
LJ              -nan            -nan            -nan
LJ         -0.652761         2.15542        -1.34588
LJ              -nan            -nan            -nan
LJ              -nan            -nan            -nan
LJ              -nan            -nan            -nan
LJ         -0.238645       -0.284917        -1.90409
LJ              -nan            -nan            -nan
LJ          -1.60484        -1.20112        -1.76402
LJ          0.202365        -2.49692         2.45462
LJ        -0.0613722        -1.33067        -1.79313
LJ              -nan            -nan            -nan
LJ          -1.54742         2.47056       -0.170118
LJ          -1.40608         2.31368       -0.839936
LJ          -1.30073       -0.299949         1.21464
LJ         -0.655393          1.4519        0.164832
LJ         -0.307318        0.783211        -1.43274
LJ             1.957        -1.53552         2.12714
LJ              -nan            -nan            -nan
LJ           2.00838        -1.07888        -2.09273
LJ              -nan            -nan            -nan
LJ          0.682644        -1.28054         1.60683
LJ              -nan            -nan            -nan
LJ          0.468087        -1.73394       -0.823104
LJ           2.01983        -1.56057         1.61594
LJ           -2.5229         2.29122        -1.12737
LJ         -0.046572        -1.53356       0.0752341
LJ           0.74855        -2.33622        0.420536
LJ          -0.41683        0.232376      0.00133451
LJ         -0.433717        -2.27976        -2.03801
LJ         -0.114375        -1.24194        0.408153
LJ          -1.39491         -1.9682         1.52437
LJ          0.678416        -1.85982        -1.56724
LJ          0.276761       -0.364862        0.281389
LJ           1.45248       -0.964676        0.437668
LJ          -0.79672       -0.730203        -0.94627
LJ          0.125925         1.30574       -0.577882
LJ          -2.18048       -0.551783         1.65245
LJ         -0.933203         -1.3464         -1.1571
LJ          -1.07489        -1.96976        0.909247
LJ              -nan            -nan            -nan
LJ           1.87698       -0.686447        0.190207
LJ           -2.0697        -2.30042         1.24895
LJ         -0.049649        -1.47658        0.443986
LJ          0.466801         1.52333         2.24558
LJ          -2.22834        0.661299         1.60144
LJ           1.80858       -0.352262         1.27672
LJ           1.75542          1.4301        -1.51898
LJ            1.7425        0.337078        -2.14572
LJ          -1.95727        0.250044         1.94963
LJ         -0.449527       0.0911318         1.61958
LJ              -nan            -nan            -nan
LJ              -nan            -nan            -nan
LJ          -2.29225        0.109091       -0.399319
LJ         0.0331059       -0.216267         -1.3172
LJ              -nan            -nan            -nan
LJ          0.484216        0.763811       -0.226965
LJ          -1.45621        -1.87302        -0.55175
LJ         -0.791246       -0.726603        0.220131
LJ          -2.37565        -2.02601        -2.28712
LJ          -2.10922        -1.79965         2.21323
LJ          -1.51965        0.472471        -1.45032
LJ         -0.902914        -2.06447        -1.91964
LJ         -0.659234       -0.383088        -1.19335
LJ           1.78921        -1.75077        -1.38946
LJ           2.38234        -1.98909        -1.15163
LJ          0.612039        0.484234         1.65541
LJ         -0.708676         1.72324        -0.30217
LJ          -0.26727     -0.00111528        -2.55542
LJ          -1.01287         1.42318        -1.01099
LJ            1.9412         1.64646          -1.836
LJ           2.40543        -2.20112        -1.69203
LJ         -0.822815         2.27401         1.88374
LJ           2.55844       -0.736986        0.581523
LJ           2.03011         2.09895         2.45019
LJ           1.87572       -0.118173       0.0810378
LJ          0.982798         2.53424         1.42847
LJ          -1.66358         -2.4498        -1.24144
LJ              -nan            -nan            -nan
LJ          -2.40971        0.475401         1.68321
LJ          -1.43897        -2.37407        -1.77139
LJ           1.69758        -1.57572          2.1472
LJ          -1.24287        -1.32123         1.39347
LJ         -0.726642         0.37241      -0.0353364
LJ          0.826445       0.0941893         1.25401
LJ          -1.36671          0.5841         1.37353
LJ              -nan            -nan            -nan
LJ          0.674179        0.217039        -1.37085
LJ           -2.0823        -1.37963       -0.150611
LJ          0.788264        0.503702        0.484622
LJ         -0.439274         -2.4651         2.54208
LJ           1.65381       -0.521714        -2.48087
LJ              -nan            -nan            -nan
LJ          0.452896        -1.47484        0.892487
LJ          0.761393         1.93996        -1.72446
LJ              -nan            -nan            -nan
