108
#Comment!
LJ         -0.527013        -2.41482         2.55495
LJ          -1.75557        -2.39203         2.27617
LJ          0.444346        -1.47904       -0.966015
LJ           1.90095        -0.03052         2.10927
LJ           1.73139         2.48916        -1.46023
LJ          -2.18233        -0.50821        -1.63493
LJ           2.12689        -2.25978       -0.172928
LJ          -2.05656        -0.24051       -0.745886
LJ          0.921167        0.393293       -0.462068
LJ          -1.48744         2.28962        -2.47629
LJ              -nan            -nan            -nan
LJ          -1.34325        -1.14706        -1.58318
LJ          -1.25107         1.72647         2.12216
LJ              -nan            -nan            -nan
LJ         -0.610579        0.974054         1.40651
LJ              -nan            -nan            -nan
LJ              -nan            -nan            -nan
LJ              -nan            -nan            -nan
LJ           2.52977         2.20445         1.04775
LJ              -nan            -nan            -nan
LJ           1.19098        -1.28272        -0.30389
LJ          -1.50423         2.12021        -0.59674
LJ           0.96392        0.241663       -0.788649
LJ          -1.77174       -0.307474         1.39594
LJ           2.07733        -2.22205       -0.165296
LJ          -2.18933         2.55694         1.39905
LJ         -0.201409       -0.189507         1.67474
LJ           1.56919         2.44603         2.37776
LJ           -1.7839        0.533671         2.39019
LJ          -1.58817        -1.43392       0.0171478
LJ              -nan            -nan            -nan
LJ          0.213664          1.3239        0.575363
LJ              -nan            -nan            -nan
LJ           2.04563       -0.721394        -1.22659
LJ              -nan            -nan            -nan
LJ          -2.09167       -0.429571        -1.89634
LJ          -2.13766       -0.637068        -2.31302
LJ           2.45822      -0.0981634        0.235634
LJ          -1.44621         1.42494       -0.924937
LJ          -1.89794        -2.48882        -1.83601
LJ          0.849717         1.57802        -2.18683
LJ          0.661365        -1.49713       -0.543798
LJ           1.03516        0.104602       -0.952367
LJ         0.0560458          -1.649        -2.44951
LJ          -1.31813        -1.14716       -0.371278
LJ           2.01743        -1.36367        -1.44493
LJ          -1.15449        -2.45399         1.10595
LJ          -1.60759       -0.792326        -2.35364
LJ          -0.69475        0.679348         2.00223
LJ          0.832157       -0.942205       -0.665554
LJ          -1.38322        0.719084          1.1156
LJ          0.989522        0.879423        -0.59858
LJ              -nan            -nan            -nan
LJ           0.49971       0.0384713         2.55356
LJ           1.75588        0.809633          1.8985
LJ           -1.4556        0.596604         -2.2464
LJ          -2.54568        0.759908       -0.823171
LJ          -1.12977        -1.04352        0.646076
LJ          -2.06163        0.642427         1.90436
LJ         -0.998149         1.10156         -2.2227
LJ          -2.41471        -1.35172       -0.520539
LJ            2.2625        0.978043         2.27709
LJ           2.50077       -0.491197        -1.68164
LJ           1.45396        0.900421       0.0120213
LJ              -nan            -nan            -nan
LJ           2.51713        -2.21881        -2.28237
LJ          0.120105       -0.901497        -1.48318
LJ              -nan            -nan            -nan
LJ          0.903255       -0.941165       -0.852483
LJ         -0.696059       -0.802334       -0.717877
LJ        -0.0250228        0.507115        -1.72553
LJ           -1.7088        -2.52628         1.45376
LJ           2.01409         1.65475        -2.38032
LJ        -0.0716996         1.20148       -0.427359
LJ           2.24708        -1.72446         1.87432
LJ            2.5375         2.52532        -2.20022
LJ          0.158297        0.337742         2.42318
LJ           2.30777       -0.923345         1.37956
LJ          0.262624         2.53722        -2.09585
LJ          0.349371         2.13695       -0.519665
LJ         -0.595325         1.48619         2.49609
LJ           1.11527        -1.48738        0.995697
LJ           1.55845         1.44685         1.75361
LJ          0.480998        -1.25904         1.36899
LJ          0.149525        -1.92791         1.97433
LJ           2.20343         1.30933            2.13
LJ            1.5002         2.09329        -2.32586
LJ           2.12379        -1.48944         -2.1065
LJ          -2.22959        0.182434       -0.837494
LJ           2.35139        -1.90757        -1.19768
LJ              -nan            -nan            -nan
LJ          -1.13802         1.13523       -0.413424
LJ          0.881422        -1.40002        -1.03436
LJ          -1.12835        -1.02301        -1.10119
LJ          -1.04557        -1.35721           0.436
LJ           1.37995       -0.340789         2.09112
LJ           2.53597        0.172568       -0.224514
LJ           2.15856       0.0936606       -0.144688
LJ              -nan            -nan            -nan
LJ         -0.445376        0.744885        -1.63054
LJ           2.21194        0.639668         1.16217
LJ         -0.697159        -2.16661         1.84436
LJ           1.68745        0.239268        -1.03502
LJ          0.527107        0.204845        -2.19045
LJ              -nan            -nan            -nan
LJ           -1.2102         1.34606        -2.35325
LJ         -0.696727        -2.12419        -2.06937
LJ              -nan            -nan            -nan
