108
#Comment!
LJ           1.60708       -0.395807       -0.349502
LJ          -1.18561        -1.89783         1.71094
LJ          0.481136        -2.54843         -2.0084
LJ          0.834447       -0.396912        -0.89593
LJ        -0.0574375         1.90086       -0.479115
LJ          0.446195        -1.65471        -1.34435
LJ           1.93717          1.6393         1.48707
LJ          0.183444        -1.62968        -1.80875
LJ           2.41072        -1.67211        -1.44602
LJ           2.15289       -0.414281       -0.933061
LJ              -nan            -nan            -nan
LJ        -0.0081996        -0.81131        -1.49357
LJ          -2.22094        -1.73464       -0.480411
LJ            2.3682         1.45157       -0.478172
LJ          0.831268        0.664327        -1.90556
LJ         -0.815554        -2.06519         1.79164
LJ              -nan            -nan            -nan
LJ              -nan            -nan            -nan
LJ          -1.47255         2.07897       -0.248914
LJ              -nan            -nan            -nan
LJ           1.80663       -0.527743        -1.93956
LJ          -1.81091         1.78948         1.73757
LJ           2.01315         1.33665        0.718805
LJ          -1.27509        -2.04037          1.3501
LJ          -1.11149        -1.65084        0.422972
LJ          -1.75094          1.8013       0.0618452
LJ          -0.70465        0.130246       -0.266461
LJ          0.184457        -1.55512         1.02841
LJ          -1.16641       0.0235166        -1.87509
LJ           1.84738          2.4162        0.157767
LJ          0.949256         1.58726        -1.46402
LJ          -1.32791         -1.7916       -0.886548
LJ              -nan            -nan            -nan
LJ           0.62582        -1.29215          2.2976
LJ              -nan            -nan            -nan
LJ           1.37387        -1.94642         1.42902
LJ           1.99904         1.20672        0.480893
LJ            2.3927       -0.268438        -1.44989
LJ         -0.513502         2.14943        -2.14924
LJ          -2.42072        0.740113         0.87372
LJ           2.43306         2.15464        -2.22524
LJ           1.22587        -1.91796        0.421623
LJ          -1.36053         1.46772       -0.229845
LJ          -1.65613         -1.0751        -1.23859
LJ          0.639465        0.228691         0.53337
LJ          -2.54874         1.39043        -1.64584
LJ          0.813897          2.3181         1.80629
LJ           2.28647       -0.229779        -1.95623
LJ           2.54797        -1.29052        -2.18257
LJ         -0.128669         1.95056       0.0556947
LJ          0.635521        -1.72567     -0.00511931
LJ         -0.221202       -0.336837        -1.02623
LJ              -nan            -nan            -nan
LJ        -0.0636112        0.678347        -1.14322
LJ           2.38899       -0.732188        -1.86917
LJ          0.923789         2.54103       -0.511643
LJ          -1.30694        -2.44313         2.36852
LJ          -0.76266       0.0985871          2.4318
LJ          -2.37473        0.845135        -2.52412
LJ           1.64575        -1.93679         2.54478
LJ          -2.17344         2.08064        0.169024
LJ          -1.86038         1.51585        0.876668
LJ           1.33783        -2.02371        0.312431
LJ           0.16197        -1.15233        0.144405
LJ          0.522312         2.07185       -0.684572
LJ         0.0338424       -0.591411        0.618023
LJ            0.9958        0.229174         1.66042
LJ              -nan            -nan            -nan
LJ          0.819077         1.48497        0.985041
LJ          -2.52351         1.62635        0.671667
LJ           2.53981        -1.46824       -0.435076
LJ          -1.27999         -2.3506       -0.545216
LJ           1.95947         1.80784        0.847244
LJ          -1.32205         1.88162         1.36973
LJ          0.550554         1.61514        -2.54595
LJ         -0.286232         1.38287        -1.71894
LJ          0.215111        -2.05973         1.56967
LJ           -1.6518        -2.49495         1.83366
LJ          -2.01094       -0.496478         1.63281
LJ          -2.10202         1.69957        -2.34661
LJ          0.798936        -1.06041       -0.714978
LJ         -0.328765         1.89324         2.40379
LJ         -0.660191       -0.398571         1.51661
LJ          0.887225        -1.12887         1.68028
LJ           1.10397       -0.425766        -1.32438
LJ         0.0864318         1.73832         1.94838
LJ         -0.298614        -1.50479       -0.329053
LJ          -2.26866        0.809786         -2.2378
LJ           1.84902        -2.45113         1.86261
LJ          -0.66479         -0.3334        -1.49806
LJ              -nan            -nan            -nan
LJ           1.09367        0.867705         -2.4564
LJ          -2.31093         1.49701       -0.658147
LJ          0.515194       -0.580433        -2.32181
LJ           2.11024        -2.22666         1.64536
LJ           1.85529        -1.50949       -0.205108
LJ           2.02396        -1.68428         2.10689
LJ          -2.16208         2.00365         1.37478
LJ          -1.27343        -2.17714        0.850683
LJ           1.34482         1.20993         1.32513
LJ           1.56229       -0.430042        0.745766
LJ           1.15239       -0.597466       0.0868992
LJ          -1.32907         1.96213       -0.882288
LJ            1.0511         -2.4867         1.39475
LJ          -1.28119       -0.231949         2.32955
LJ          -2.33677        -2.34531        -1.82667
LJ         0.0524576        -1.91699        -1.85693
LJ              -nan            -nan            -nan
