108
#Comment!
LJ          0.900257         -0.6999       -0.242565
LJ          0.897564        0.217443       -0.657613
LJ          0.577467         1.64547         1.51153
LJ           1.58774        0.636042         1.76294
LJ          0.684453         1.36953         2.01778
LJ         -0.304763         2.47521        0.407162
LJ           2.27001       0.0505718         -1.1853
LJ           2.54039        -2.29108        0.986089
LJ           1.03402       -0.891563         1.24738
LJ          -1.61167        -1.76715        -2.08878
LJ              -nan            -nan            -nan
LJ         -0.542612        -0.23039        -1.86449
LJ           1.84488        -1.44358         1.74866
LJ           2.48662       -0.547322       -0.213258
LJ          -1.17473        0.301368        -2.20119
LJ         -0.260248         1.03823        0.933936
LJ              -nan            -nan            -nan
LJ              -nan            -nan            -nan
LJ          -2.16965        0.346676        0.184995
LJ              -nan            -nan            -nan
LJ           1.97132         1.91086         1.41223
LJ           -1.6891        0.434606        -2.03837
LJ           1.28726        -2.28002         1.89185
LJ         -0.688927        -1.05579         2.26432
LJ          -1.24011       -0.110433        0.771924
LJ           2.41657        -1.59458        -1.04455
LJ          0.509399         1.71329         0.26379
LJ           1.06959       -0.449229         1.57358
LJ           2.28154         1.85766         1.30056
LJ          0.847052         1.22854         -2.3022
LJ          -1.63282         2.16147        0.781972
LJ         -0.775145        -2.07359        -1.87798
LJ              -nan            -nan            -nan
LJ           -1.9328        -1.62341       -0.780825
LJ              -nan            -nan            -nan
LJ           2.30874         -0.6954         2.46553
LJ         -0.412078         1.63669       -0.514576
LJ          0.496942       0.0138758         1.63295
LJ           0.36976         2.00938        -1.26894
LJ           1.67007         1.53904        -2.16044
LJ          -2.00649         0.27508        -1.97511
LJ           1.90021         1.54877         1.83198
LJ          -1.97138       0.0395319       -0.322634
LJ          -0.48353         1.95447         1.15275
LJ           2.08447         1.07488         1.88444
LJ          -1.74759        0.411858       -0.640368
LJ         -0.728465        -1.59443        -2.43682
LJ         0.0222013       -0.452111        -1.23255
LJ          -1.06358        -2.23136         2.27636
LJ           2.34512         2.24112         1.96755
LJ        -0.0590169          2.1423       -0.579634
LJ          0.302086        0.332271         -2.2305
LJ              -nan            -nan            -nan
LJ           2.32164         1.76595        0.900369
LJ         -0.428624        -2.27455        -1.53209
LJ         -0.677011        0.213017        -1.76294
LJ           2.48898        -1.28915        -1.92662
LJ          0.467882       -0.731179        0.875918
LJ          0.729278         1.47029        -1.81432
LJ          0.152045         1.22798        0.866205
LJ         -0.660361        -0.45653        0.518475
LJ           1.28997        0.359664        -2.22829
LJ           -1.1863        -1.17677        0.196437
LJ          -2.49358        -1.22523        -1.19731
LJ          0.885423         1.88964        -1.92825
LJ          0.517098        -2.50703       -0.205674
LJ         -0.591784         2.29263        -1.03077
LJ              -nan            -nan            -nan
LJ         -0.281349        0.606522         1.01632
LJ            0.1269        -1.20192        -1.60679
LJ          0.516907        -1.57536         1.37583
LJ          0.865044       0.0141435         0.61004
LJ           1.59171        0.042994        -2.48215
LJ         -0.601974          -1.307         1.97543
LJ          -1.19527        -1.33901       -0.563287
LJ          -2.06891         2.32023        -2.04245
LJ          -0.20732        -1.83664       -0.557476
LJ           2.32137        0.983708         1.20659
LJ          0.696815        -1.43632       -0.251819
LJ        0.00509089       -0.302656        -1.89839
LJ          -1.53988        -1.88733       -0.307472
LJ          0.125032         2.18706         1.20694
LJ          -2.10352        -2.11772         2.22208
LJ           1.84004         1.01623         1.65306
LJ           2.22974          1.4717        0.168023
LJ           1.95083         2.00721        -2.49725
LJ           2.29965        -1.67889        -2.11324
LJ        -0.0647459       -0.670437        -1.91835
LJ         -0.269784        0.616049         1.35338
LJ          -2.36661          1.2462       -0.962283
LJ              -nan            -nan            -nan
LJ          -2.25478        -1.87402         1.99185
LJ          0.570168        -2.00328        -2.29115
LJ          -1.59551        -0.94572        -1.74706
LJ          -2.47503        -1.67766        -2.28859
LJ           1.42512         1.52917        0.492671
LJ           2.40606         1.67996        -1.39067
LJ           1.01776        -2.17489       0.0543578
LJ          -1.78707         1.91369        -1.56065
LJ          -1.62211        -2.13649       -0.573424
LJ           1.77251         1.25449        -1.74568
LJ           1.03455        -1.32199       -0.889028
LJ         -0.161232        -1.17537        0.742683
LJ          0.385772        0.861462        0.357956
LJ          0.846779         1.85389        0.386928
LJ         -0.531955          2.1422        -2.24033
LJ          0.877847        0.166872         1.33243
LJ              -nan            -nan            -nan
