108
#Comment!
LJ          0.166811        -1.90634        -2.40282
LJ          -2.05576         1.55367        0.556151
LJ          -1.17099         1.84375        -1.27319
LJ          -0.64613         2.55189        0.536453
LJ          -1.70347        -2.32873          1.1889
LJ         -0.679234         1.59764       -0.946013
LJ          -2.41163        -2.40893        -1.45352
LJ         -0.398417         2.11913        -2.09693
LJ         -0.437748        0.203746         2.04013
LJ          -2.04178         1.16788         1.70469
LJ              -nan            -nan            -nan
LJ          -1.35549         1.72025        0.689043
LJ          0.282442        -2.35134      -0.0884335
LJ           1.34915         2.41992         1.31741
LJ         -0.222982        -1.83781       -0.871677
LJ          -1.44392        0.482321        -1.22944
LJ              -nan            -nan            -nan
LJ              -nan            -nan            -nan
LJ           1.92842          1.7096        -2.50894
LJ              -nan            -nan            -nan
LJ           1.91724         2.37617        0.504327
LJ          -0.58411         2.27993         1.20604
LJ          -1.43327        -1.50006        -1.02955
LJ           1.13403        0.761102         1.31378
LJ           1.28412        -1.57592        -2.15121
LJ           1.75072        -1.75885         2.16159
LJ          -1.11636        0.398131          -1.438
LJ          0.226692       -0.562221         1.45628
LJ           1.08456         1.94866         1.11695
LJ           2.24047        0.963462        -1.15377
LJ         -0.338328       -0.288312        -1.03051
LJ           2.55147      -0.0542168       -0.291438
LJ              -nan            -nan            -nan
LJ          -1.51151         1.73325         -0.4047
LJ              -nan            -nan            -nan
LJ          0.586452        -1.47161        0.305265
LJ          -1.61608        -1.97344        -1.47695
LJ          0.329885         1.16757         1.95921
LJ          -1.99132        0.844457         -2.4869
LJ          -1.86903        -1.84129        -0.52643
LJ           1.01095         2.47943         1.57775
LJ          -1.99522       -0.957578        -1.88539
LJ            1.9546          2.3407         2.01056
LJ           1.05728       -0.828953       -0.580992
LJ          -1.75426        -1.39602        -1.80325
LJ           0.36233        0.748541         2.50839
LJ           2.23313        -0.79187        -1.10256
LJ           1.54469       -0.841882           1.008
LJ          -1.08102         2.52396        0.398981
LJ          0.855802        -1.78674        -1.86018
LJ          -1.27851         2.29403         1.79599
LJ         -0.886158         2.09546        -1.26431
LJ              -nan            -nan            -nan
LJ           1.94845         1.84739        -2.11875
LJ          0.284627         1.37622        -1.44962
LJ           2.21359         2.20659         1.43516
LJ           1.16954       -0.112337        0.288365
LJ         -0.452811        -2.31672         2.52362
LJ          0.527588        -1.40327         -1.8839
LJ          0.108123       -0.768401         2.12357
LJ           2.38553        -2.07048        -1.87365
LJ         -0.274976         2.46745        -1.99266
LJ           1.05704         1.49237         2.23885
LJ          -0.53026        -2.16475         2.12293
LJ          0.292307        -1.31809         1.80911
LJ           1.20337        0.647706         1.52053
LJ           -0.6023         1.50732        0.634731
LJ              -nan            -nan            -nan
LJ         -0.608235         0.66632        0.910459
LJ         -0.330128       -0.505684        -2.40251
LJ          0.329109        -1.90178        -1.42442
LJ         -0.493063        -1.82292        0.647638
LJ          -1.61315       -0.504787        0.190077
LJ           1.25822       -0.106826       -0.570442
LJ          -0.48461         -2.1415      0.00111998
LJ           1.87704       -0.174645        -1.10582
LJ          -2.50414        0.882219        -1.84123
LJ           1.19317        -1.41128        -1.67597
LJ         -0.943904        -2.13411        0.135028
LJ          0.822807         2.53641        0.401825
LJ         -0.435514        -1.76903        -2.42263
LJ          -1.43798        -1.01435         1.89738
LJ         0.0922134        0.849975       -0.541804
LJ          -1.72837        0.374631         1.77334
LJ          0.172168       -0.855991        0.900441
LJ           1.95131        0.980368         2.27966
LJ           2.05224         2.48149        0.706638
LJ          -1.29525        -1.03576        -0.54895
LJ          -1.94164        -1.44241        0.321368
LJ           1.31432        0.677112       -0.262632
LJ              -nan            -nan            -nan
LJ           1.68013        -2.15394        -1.67343
LJ          -2.36677         -1.6169         1.83706
LJ          0.512284         1.36123       -0.844304
LJ          0.309249       -0.756371         1.91163
LJ          -1.46247        -2.18004         1.05979
LJ          0.810817          1.2004        0.414081
LJ          -1.45557          1.0743        0.816013
LJ           1.28501         2.02159         1.54557
LJ          -1.42233        -2.43967        -2.23814
LJ           0.56105         1.88558         0.56505
LJ           1.82759        -1.90637         1.55089
LJ           1.68955        -0.45898        -0.80851
LJ           2.14068         1.32166         -2.0522
LJ          -2.09241        0.771702         0.43512
LJ         -0.026925       -0.942465       -0.386651
LJ          0.533015        0.883039        -1.64466
LJ              -nan            -nan            -nan
