108
#Comment!
LJ           1.36404         2.36685         1.90143
LJ            1.6876         1.26959        -1.90692
LJ          -1.25456        -1.55181         -1.5266
LJ           0.14518         1.96224        0.732594
LJ          -2.55453         2.53249       -0.842436
LJ          -2.08937       -0.332717        -1.55228
LJ          0.457929          2.0855        -1.50342
LJ           1.96098        -2.01227         1.38671
LJ           2.09414         1.78564         1.37667
LJ          -1.79566        0.143249         2.33234
LJ              -nan            -nan            -nan
LJ          -1.37469        -1.40767        0.331846
LJ           0.49014       -0.531361        -1.86177
LJ           2.17596         1.03414        -2.28108
LJ           1.30713         2.10678        -1.60794
LJ          -1.75712         1.23096         2.29432
LJ              -nan            -nan            -nan
LJ              -nan            -nan            -nan
LJ          -2.26868       0.0902202         2.52282
LJ              -nan            -nan            -nan
LJ           1.43147        -1.36852         1.08646
LJ          -2.12028        -1.68466        -2.33622
LJ          -1.13462       -0.386998        -2.45234
LJ          -2.54444        -1.01049        -1.85497
LJ         -0.669027        -1.71786        -1.11594
LJ          -2.25888        0.096737         -1.6116
LJ           -1.4769        -1.66948       0.0125549
LJ           1.92277        0.929842          1.9445
LJ          -1.44791        -2.14957        -2.53496
LJ            2.1648       -0.478214       -0.349737
LJ          0.276961        -1.79733        -1.15523
LJ         0.0761372        0.174344         2.34283
LJ              -nan            -nan            -nan
LJ           -2.4718        0.278658       -0.715574
LJ              -nan            -nan            -nan
LJ           0.54346        -1.52604       -0.376104
LJ           1.02146        -1.17662        0.476928
LJ           2.30635        0.959435         1.86498
LJ           1.89832          2.1811         1.82969
LJ           -1.3698        -2.04784         1.75316
LJ           -1.5044         1.71535         1.12401
LJ         0.0962174       -0.742067          1.9493
LJ         -0.446131       -0.842252       -0.390912
LJ           1.03826        -1.28199         -2.2387
LJ           0.66724         -1.8401        -1.11512
LJ           1.51788         1.73303        -1.09257
LJ         -0.315033       -0.374376         -1.0609
LJ           1.92478        -1.84881       -0.826351
LJ          -2.31745         -1.2654       -0.375553
LJ         -0.212209        -1.26325           -1.31
LJ          0.269459         1.39263        -0.91584
LJ          -1.96203        -1.36913        0.288321
LJ              -nan            -nan            -nan
LJ          0.662958         1.05887       -0.625526
LJ          0.107656         2.23006       -0.347671
LJ          0.416094        -1.16969       -0.267513
LJ          -2.17048         1.12806       -0.380155
LJ          0.864549         1.56108        -1.03045
LJ         -0.412703        -2.49604       -0.446474
LJ          0.511702        -1.20695       -0.519205
LJ         -0.505261       -0.455955        0.582964
LJ          -0.22656          2.0955       -0.935304
LJ          -1.10515        0.515927        -1.00682
LJ           1.62312        0.653546        -1.20521
LJ            2.2055         2.14958         1.14268
LJ         -0.237229        0.130084        -2.02519
LJ        -0.0497649        -1.50143       -0.519285
LJ              -nan            -nan            -nan
LJ          -1.23297         2.33495         1.92938
LJ           1.26599       -0.667489        -1.95332
LJ         -0.290294        0.655279         0.24029
LJ          0.914148         2.06494         2.44662
LJ              1.16        -1.65495         -1.0512
LJ          -1.84215         1.58659         -1.0483
LJ         0.0816526         1.37061           0.311
LJ          -2.50511         2.18775         2.32261
LJ          0.940469        0.123077         2.03474
LJ           -1.1816         2.07377       -0.970296
LJ          0.702535        -2.10564        -1.20748
LJ           2.49509         1.74292         1.19334
LJ          0.808052        0.712104         2.46567
LJ          -1.41547         1.78883       -0.180259
LJ          0.379876        0.410834         1.46911
LJ         -0.282244        -1.41111        -2.02711
LJ           1.59871        0.169294        -1.69977
LJ          -0.51322        0.744532        -1.16912
LJ          0.609381        0.831459       -0.585153
LJ           -1.7326         1.49116       -0.345249
LJ          0.417267         1.99289        -2.36348
LJ         -0.836159         1.73449        0.941041
LJ              -nan            -nan            -nan
LJ          -1.06217      -0.0720295         1.39322
LJ           2.39347         2.28959       -0.780203
LJ          -2.19165         -1.5482         2.38544
LJ           2.27216          1.8906        -1.40018
LJ          -1.34712         -2.2414         1.82261
LJ          0.841636        -2.00311         2.33779
LJ          -1.70476       -0.149301        -1.69812
LJ          -1.39484        -0.71079         1.03059
LJ           1.14317       -0.517642         2.33958
LJ           1.58996       -0.193902       -0.478148
LJ          0.964002        0.425723         2.30674
LJ         -0.532819        0.548361       -0.470943
LJ         -0.372091        0.649352         1.72752
LJ           1.38365        -1.10407        0.915534
LJ           0.62339       -0.626408        0.595911
LJ          -1.75528         1.32395        -1.59515
LJ              -nan            -nan            -nan
