108
#Comment!
LJ          0.912787         1.20905        -2.04695
LJ           0.54981         1.16576         1.85565
LJ         -0.198223        0.385937         1.14251
LJ          -1.75744        0.632727       0.0811198
LJ          -1.86743         2.26696        0.145013
LJ          -1.21457         -1.6657        -1.76673
LJ           0.50088        0.403904         2.54609
LJ         -0.153682         2.47786        -1.19245
LJ           1.00019         1.15181         2.08082
LJ            1.2173         1.96412         1.32358
LJ              -nan            -nan            -nan
LJ         -0.821243         0.65647        -1.65193
LJ         -0.644606        -1.59141        0.549447
LJ           1.91487        -0.62623         2.10583
LJ           1.39243        -1.07239        -2.22167
LJ         -0.566574         2.28943        -1.84104
LJ          -1.95811         1.44107        -1.47892
LJ           2.34859       -0.549771        -1.81493
LJ          0.795499        -1.91513         1.21701
LJ          -1.75102         2.48535        -1.03503
LJ          -1.37057         1.71297       -0.615737
LJ         -0.748178         2.32401        0.930301
LJ          -1.96959        0.896622        -1.21579
LJ          -1.83026         1.60054        -1.53822
LJ          -1.79143        -1.80425        0.456793
LJ           1.62543        -2.04435         0.58928
LJ          -1.26354        0.593938      -0.0102078
LJ        -0.0696955         2.49265        -2.55976
LJ          -1.58633        -1.81693        -2.10541
LJ         -0.388609        -1.24991        -2.36126
LJ            1.9147         1.54445         1.85643
LJ           1.24765        -1.88008        -1.18359
LJ              -nan            -nan            -nan
LJ          0.992718        -1.74439        -1.63046
LJ          0.490158        0.961912        -1.66898
LJ          0.895906         1.70697        -1.70862
LJ          -1.58919       -0.738146         1.53143
LJ         -0.898218         2.31282        0.305067
LJ          -2.45643       -0.971128        -2.39244
LJ           2.09045         1.69118         1.20492
LJ           1.65414        0.777857        -2.00158
LJ         0.0106301        0.835639        -1.64322
LJ         -0.381859         2.51866         1.64431
LJ          -2.12376         1.93495       -0.833963
LJ          -2.43715        -1.82752         1.44126
LJ         -0.993498        -1.69397        -2.14387
LJ           1.06304       -0.459986       -0.129063
LJ          -1.39552        -2.48094        -1.03498
LJ          0.136262         0.35639        0.558821
LJ          0.200105         1.10567        -1.65887
LJ         -0.600325        -2.52002       -0.665514
LJ        -0.0316382         2.34524        0.307833
LJ            2.4605        0.977677         2.49247
LJ         -0.869693         2.30063       -0.107881
LJ          -2.26207         1.48711         -1.1542
LJ           2.54562         1.11938        0.757179
LJ          -1.82381        0.624646       -0.821678
LJ         -0.882611        -2.52957         1.34099
LJ          -1.12777        -1.45662         2.09436
LJ           2.04057        0.698431        -2.29869
LJ           1.36706        -1.25829       -0.847117
LJ           2.54035        -1.04728       -0.289382
LJ         -0.191399         2.42696        -1.38946
LJ           1.92755         1.66314        -2.45207
LJ         -0.872735        -1.16761       -0.315774
LJ          -1.69042        -1.33095         1.50254
LJ           2.31541        -2.36167        0.273632
LJ         -0.135003       -0.966748       -0.260018
LJ        -0.0665822         2.49017        -1.14586
LJ           2.42261        0.409771         1.89571
LJ           0.25245        -2.06736         2.04183
LJ           1.82102        0.990236        -1.24989
LJ          -1.37653          1.2815        -1.43171
LJ          -2.03176        -2.06393        0.367373
LJ         -0.204053         1.04676       -0.558609
LJ           1.09322        -2.16741         1.33089
LJ          -1.58195        0.489438        -1.96137
LJ          -1.83877        0.746164       -0.565053
LJ          0.212099        0.605972          2.0123
LJ          0.947692         1.05768          1.9631
LJ          0.115914       -0.930868        0.254183
LJ            1.3142        -1.65022      0.00577566
LJ          0.611357         2.29538        -1.25348
LJ         -0.687705        -2.43763        -2.05964
LJ          0.110012        0.507749        -2.55007
LJ           1.21028        0.561571        -1.51777
LJ          -1.53125         2.26769        -1.22108
LJ           2.35773        0.066365       -0.532798
LJ          -0.43879       -0.789892        0.597095
LJ          -2.17846       -0.393135        -1.67979
LJ         -0.502923       -0.121451        -1.62314
LJ          -2.50051       -0.314067         -1.1819
LJ           1.49347         2.12928          1.3409
LJ         -0.451336        0.789163        0.486683
LJ           1.34025       -0.448781          2.4999
LJ          -1.21888       -0.832562       -0.195381
LJ          -2.48794       -0.579658        0.952266
LJ         -0.876176       -0.934159        0.358818
LJ           2.05224        -1.52487        -2.10558
LJ          -1.52868         0.26131       -0.762036
LJ          -2.14393        0.653695         -1.4395
LJ          -1.99801         1.91492         2.14903
LJ          -2.48858        0.036449         1.61798
LJ          0.566828         2.26587        0.130308
LJ         -0.615091         1.98778        -1.41864
LJ           2.44417        -1.29861        -1.73298
LJ         -0.138521        -2.07654        0.283639
LJ           1.24609        -0.51938         1.52254
