108
#Comment!
LJ         0.0935189        -1.75649        -1.17313
LJ          -1.74181         1.62837        -2.50562
LJ          -2.34317         1.38696         1.67808
LJ          -2.36145         1.64724        -1.33322
LJ         -0.401341         -1.7875       -0.469437
LJ           2.29444       -0.572373        -1.61934
LJ          0.367972         1.57918        -1.35798
LJ           2.11373        -1.01581        -1.04341
LJ           1.27253         -1.7023        -1.84516
LJ          0.679651       -0.961216         1.88714
LJ              -nan            -nan            -nan
LJ           1.33711        -2.02059        -2.10634
LJ          0.517522         1.73448         1.97126
LJ          -2.34308        -2.11932        0.277555
LJ            1.3065         1.52368       0.0340597
LJ          -1.32279        0.329738        -2.09418
LJ              -nan            -nan            -nan
LJ              -nan            -nan            -nan
LJ           1.96323        -1.88449         2.24083
LJ              -nan            -nan            -nan
LJ           2.02114        -1.13616          2.5054
LJ           1.15456        0.269791         1.32353
LJ          -0.17708        -2.35413        -1.43013
LJ          -1.70432        -0.55561        -2.38357
LJ           2.38672         1.37882        -2.47248
LJ         -0.165226       -0.530634       -0.432737
LJ         -0.880665        0.435746         1.19255
LJ          0.254873         2.40296        -2.32919
LJ         -0.293773        -2.42216        0.149348
LJ           -1.2491        -1.08466       -0.623312
LJ         -0.881376         -1.0696        -2.28809
LJ          -1.30077         2.23443         2.32555
LJ              -nan            -nan            -nan
LJ         -0.291484        0.642967       -0.543763
LJ              -nan            -nan            -nan
LJ           2.41253         1.49985        0.082549
LJ          -1.43884        -1.12851         1.46462
LJ          -1.94485        -1.32776         2.33581
LJ         -0.303414        0.797405         -1.2277
LJ          0.337718         1.40918        -2.31683
LJ         -0.222232         1.07088         1.34079
LJ          0.885497        -1.82756        0.561139
LJ           1.24874         2.49562         1.60824
LJ          0.585781        -2.50949       -0.488093
LJ         -0.825563       -0.515714        -1.92023
LJ         0.0816223        -1.05678          -1.234
LJ           2.36812       -0.152573        0.253233
LJ          0.130463        -1.06105        0.355273
LJ           1.33691        -2.12004        -2.07802
LJ           1.30576        0.880436        -2.54688
LJ            1.3259         2.09831        0.910885
LJ          0.886489        -1.77946       -0.586337
LJ              -nan            -nan            -nan
LJ          -1.82873         1.79391         1.78653
LJ          -0.25641         1.10634        0.281824
LJ          -1.12392        -2.12933        0.380917
LJ          -2.38484         1.79188         2.52698
LJ          0.563666         1.70503        0.823929
LJ           1.06658         -0.9001        0.020069
LJ          0.649495        0.627922        -2.49819
LJ         -0.448878        0.676131        0.300021
LJ        -0.0452126        0.691201         -1.5433
LJ         -0.145178         1.71713        -2.12827
LJ           1.65735         1.52379        -2.24052
LJ           1.68414        -1.85711          -1.287
LJ            1.1957      -0.0637989        0.775164
LJ          -1.43174       0.0715236        0.883016
LJ              -nan            -nan            -nan
LJ         -0.954626       -0.928147        0.714478
LJ           1.93279         1.32913          2.0677
LJ         -0.334748        0.854519        0.148981
LJ          -2.28009      -0.0933957        -1.96182
LJ          -2.54075        -1.22208        0.620602
LJ          0.190291        -2.24309         -1.0205
LJ           2.36695         2.09023        -1.66592
LJ          0.302935        -1.89578         1.37331
LJ           1.25473         2.25393        -1.20027
LJ         -0.718509         1.74375         1.70762
LJ         -0.865986        0.139445        -1.37372
LJ          -2.37598       -0.826412       -0.524719
LJ          -2.19318        -0.34148       -0.997877
LJ           1.80429         2.52381         1.26638
LJ           1.28021         2.18106        -2.46194
LJ          -1.64413         2.23496         -1.1339
LJ           1.67811        0.977554          1.6161
LJ         -0.411621        -2.09348        0.618981
LJ          0.243087        -2.52199        0.954542
LJ         -0.474142         1.79408        -2.13457
LJ          0.510756       -0.195492         2.49516
LJ           1.43087        0.367875        -1.05167
LJ              -nan            -nan            -nan
LJ            1.5211       -0.431702       -0.669907
LJ         -0.566523         1.85529        -1.55097
LJ         0.0609023       -0.642126        -2.39639
LJ          -1.10561       -0.881255        -1.06967
LJ          -2.45057        -2.48851       -0.369877
LJ           1.69163        -1.02335        -2.38962
LJ          -1.21578         1.54794        -1.27851
LJ          -2.07796         1.84973        0.185845
LJ         -0.412805        0.445927        -0.99569
LJ          0.900341         1.64304         1.47185
LJ          -1.13716        -1.31954       -0.359694
LJ          0.425247        -1.95315        -0.68378
LJ         -0.444059        0.290259        0.384228
LJ           -1.5889         2.23176         0.97927
LJ          -2.01868        -1.96454         1.13753
LJ          -2.39262        0.661511         1.95874
LJ              -nan            -nan            -nan
