108
#Comment!
LJ          0.856073        0.562828         1.76069
LJ          0.454354        0.734736       -0.493865
LJ          0.736223        -1.33244        -2.20304
LJ           1.31763       -0.725824         2.29351
LJ         -0.874479        -2.38666        0.697596
LJ           2.48958         2.55305       -0.550665
LJ          -2.00898       -0.293764         1.94898
LJ         -0.143529        -2.28831        -1.17436
LJ          0.231065        0.481028        -2.41224
LJ           1.72637         2.26493        -1.87131
LJ              -nan            -nan            -nan
LJ           1.38122        -0.74361         1.59445
LJ          -1.40585       -0.124825        0.390646
LJ           1.46476         1.02854        -1.30573
LJ          0.353335          1.2405        -1.22978
LJ         -0.631849        0.599839       -0.801501
LJ              -nan            -nan            -nan
LJ              -nan            -nan            -nan
LJ           2.36531        -2.16515          2.0072
LJ              -nan            -nan            -nan
LJ           -2.3056       -0.234303         -2.3293
LJ           2.52164       -0.689822         2.33263
LJ         -0.947663          1.0612       -0.400967
LJ           2.35491       -0.110968          1.9732
LJ           2.47377         2.10173          1.6576
LJ           1.01452        -1.18044        -1.37315
LJ          -2.18391         2.48979         2.27145
LJ          0.682672         2.11488        -2.32098
LJ          -1.91208        0.252197        -1.36617
LJ          -1.31218        -1.97929      -0.0611878
LJ          -2.44386         2.23567         1.27253
LJ          -1.24158         2.47763         1.89041
LJ              -nan            -nan            -nan
LJ          0.786993        -1.55286         1.28935
LJ              -nan            -nan            -nan
LJ        -0.0240984        -1.97591        0.131643
LJ           1.59103        -0.62831         1.39105
LJ          -1.75975         1.24514        0.263212
LJ           2.47118         -2.5644       -0.351887
LJ          0.328427         -1.3145        -1.34622
LJ          0.746309         1.53291         2.36512
LJ         -0.660247       0.0513901        -1.55326
LJ           1.79495         1.25857         2.15608
LJ          -2.21101        -1.31599         -1.6568
LJ           2.04668        -1.46751        0.435195
LJ         -0.335272        -2.09831        -1.34045
LJ          0.942967        0.565384       -0.672703
LJ          -1.48417       -0.392737        -2.53251
LJ           2.46685      -0.0457894         1.17116
LJ         -0.716341        -1.37702         1.88801
LJ           0.31831         1.36951        -2.32879
LJ           2.45287        -1.33824       0.0312376
LJ              -nan            -nan            -nan
LJ          -0.45977         1.65289           1.271
LJ         -0.541989         2.10678        0.418488
LJ          -1.48813        -1.41671        -2.50301
LJ          -2.45619         1.76327       -0.686649
LJ           0.75655         2.43488         2.49068
LJ            1.7224         1.79908        0.481387
LJ          0.207939        0.263796        0.326207
LJ         0.0231041        -1.07438          1.5227
LJ           2.55604        0.176613        -1.64871
LJ          0.275068         2.39427         2.54814
LJ          0.775734        0.184729        0.978579
LJ           1.31243       -0.984261        0.249446
LJ          0.449948        0.245217        0.289817
LJ            0.4012        -2.53434         2.25253
LJ              -nan            -nan            -nan
LJ          -1.73937         1.54578        -1.83533
LJ           1.75231        -1.31136       -0.383195
LJ          -0.49914         -2.0303        -2.10763
LJ         -0.659806        -1.03589        -2.54658
LJ          -0.22474         0.95838        -1.24601
LJ          -2.03209         -0.2342         1.34248
LJ           2.02824     -0.00898136        0.835399
LJ           1.93541       0.0128212         2.18231
LJ         -0.636341        0.111208         2.54951
LJ          -1.46496        -1.84213         1.55696
LJ           1.09423         1.17984       -0.690229
LJ           1.22401         1.99432        -1.13998
LJ         -0.373679       -0.814569         -1.8264
LJ          -1.70689         1.00058        -1.40931
LJ           1.53329       -0.684814        0.663986
LJ         0.0545459        0.307637         1.40684
LJ          0.331464        0.772592       -0.752362
LJ           2.01913         1.48629         1.57581
LJ          -1.49891         1.41932         2.02064
LJ         -0.370319       -0.158819       -0.346842
LJ          0.992012        0.705403         -2.3916
LJ         -0.987798        -1.86502        -2.52642
LJ              -nan            -nan            -nan
LJ          0.120845         1.32583         1.36536
LJ          -1.66405        0.894571        0.260465
LJ          0.721654        -1.02741        -2.37134
LJ           2.50755        -1.55931         2.35664
LJ          0.537644         1.62532         0.27069
LJ           0.12261         1.00007         2.49397
LJ           1.07595         2.04503        -0.11361
LJ           1.27548        -2.02074         1.02939
LJ        -0.0371679        -2.19735        -1.82863
LJ           1.70619         1.35344       -0.416126
LJ          0.571116         2.23907         1.71945
LJ          -2.31338        0.109894        -1.14699
LJ          0.632082        0.171457       -0.256194
LJ           1.63761        -1.56086        -2.15253
LJ          -2.02363      -0.0576968         0.76051
LJ         -0.818458        -2.16151         1.04171
LJ              -nan            -nan            -nan
