108
#Comment!
LJ         -0.163482         1.70605        -1.20893
LJ          0.855732         1.94302       -0.382212
LJ           2.00841       -0.116522        -2.33181
LJ          -0.61177          2.2105        0.149555
LJ         -0.855984        -2.40486         -1.3722
LJ           2.50955       -0.883628         2.21209
LJ           1.35603        0.999008        -2.00377
LJ           1.20723         1.86036        -2.53598
LJ           2.39407        -1.55168        -0.30325
LJ          0.829011         -1.6044          -2.029
LJ              -nan            -nan            -nan
LJ          -1.30145         1.62712         2.49865
LJ        -0.0151886        0.697941         -1.1575
LJ              -nan            -nan            -nan
LJ          -1.39748        0.644927       -0.230444
LJ              -nan            -nan            -nan
LJ              -nan            -nan            -nan
LJ              -nan            -nan            -nan
LJ          0.477359       -0.577782         1.10541
LJ              -nan            -nan            -nan
LJ         -0.118273          1.1686        0.404288
LJ         -0.230902       -0.363873       -0.492224
LJ           1.04155        -1.13236        -2.44659
LJ              -nan            -nan            -nan
LJ          0.570044        0.493973         2.28741
LJ           2.41139        -1.87091         1.66277
LJ           1.05394       -0.526436       -0.191333
LJ           1.94489       -0.166088        0.593328
LJ         -0.244655         2.49078          1.9879
LJ           2.05439       -0.113858        -1.77403
LJ              -nan            -nan            -nan
LJ         -0.861262         1.89924         1.18522
LJ              -nan            -nan            -nan
LJ            2.4649         1.15023       -0.332279
LJ              -nan            -nan            -nan
LJ          0.137609        -1.23064        0.968662
LJ         -0.792853        -2.20884        -1.85029
LJ          -1.61838        -2.01509         2.27636
LJ           1.70979        -2.15235        0.535489
LJ         -0.161882        -1.09129        -2.55471
LJ           2.47066       -0.531786       -0.666716
LJ          -2.04559          2.5361        -2.52693
LJ          0.166337         0.43975         1.25296
LJ           1.07167         2.10746         1.60058
LJ          0.499615        -2.53235         1.46976
LJ          0.332739        -1.90659        0.855868
LJ          -2.18303         1.03289        -1.21376
LJ           0.31595        -2.55097       -0.806131
LJ          0.105242        -2.20115        -1.66337
LJ           1.68205       -0.349518        -1.97729
LJ          -1.99209       -0.018167         1.72127
LJ         -0.422571          1.4462         2.42664
LJ              -nan            -nan            -nan
LJ         -0.731073         2.18428         0.97773
LJ           2.45369         2.30438        0.402959
LJ          -2.47427        0.543989        0.811178
LJ          0.392946        0.628108        -1.21348
LJ         -0.688794        0.469396         2.55569
LJ          -2.38347           2.129       -0.841267
LJ          -1.78617        -1.65262        -1.29588
LJ          0.138898        -2.10755         1.00672
LJ           1.38854        -1.51217        -1.34898
LJ          0.522021       -0.999264        0.825395
LJ              -nan            -nan            -nan
LJ              -nan            -nan            -nan
LJ          -1.81583        -0.39877        0.181497
LJ         -0.276282         2.38105        -1.44054
LJ              -nan            -nan            -nan
LJ            1.2496        0.974713         2.38608
LJ          0.933348        0.755021         1.96678
LJ           1.65247         2.11385        0.931643
LJ         -0.256493       -0.299485         1.57245
LJ         -0.973599        0.852991        -1.11226
LJ          0.135451        -1.02946       -0.453382
LJ           1.00757         2.45755        -1.12386
LJ          0.947354        -2.13008        -2.14729
LJ          -1.81573        -1.31193           2.041
LJ         -0.713598         1.54298         -2.5582
LJ          -2.48994         1.63265         1.38741
LJ          0.292246       -0.687236       -0.423962
LJ          -2.47672         2.48004        -1.68121
LJ           2.21633         2.08057         1.30856
LJ           1.05845         2.23268       -0.461276
LJ          0.141546        0.297236        0.425701
LJ          -2.38497        0.332716         1.56043
LJ          -1.61111       -0.753077         1.69598
LJ           1.98187      -0.0482736        0.678616
LJ          -1.30582         1.69543       -0.104173
LJ         -0.316675         2.29036       -0.807037
LJ           1.68566       -0.821156        0.647271
LJ              -nan            -nan            -nan
LJ         -0.471357         1.53777        -1.97305
LJ          -1.01926         1.92089       -0.860679
LJ            1.7258       -0.862411         2.37867
LJ          -1.84442       0.0143286        -1.87286
LJ          -1.97014         2.03136        0.459061
LJ         -0.331459         1.52014         2.47361
LJ         0.0622485        0.479296       -0.268158
LJ              -nan            -nan            -nan
LJ           1.51942        -1.38519         1.20716
LJ         -0.941324        -2.22055        -1.99096
LJ          -1.95238         2.03388        0.955047
LJ          -1.96417        -2.55633         -2.2499
LJ           1.31377        -1.81593        -2.39901
LJ              -nan            -nan            -nan
LJ          -0.73341         1.51031          1.9619
LJ         -0.517905       -0.995675       -0.430314
LJ              -nan            -nan            -nan
