108
#Comment!
LJ          -1.60283         2.53363         1.74377
LJ           2.29341        -1.72456       -0.752694
LJ          -2.42122         1.38023         -2.2096
LJ          -1.36478         2.45002         2.03423
LJ          0.195252       -0.309811        -0.54353
LJ          0.734205       0.0301551      -0.0233892
LJ         -0.860277         1.00635        -1.04967
LJ           -1.2701        0.521977        -1.11291
LJ           1.06833         2.44799         2.33178
LJ          -2.53922         1.90492         1.97971
LJ              -nan            -nan            -nan
LJ         -0.470171       -0.642516         1.81561
LJ         -0.361681        -1.32456          1.2844
LJ          0.861703        -1.99568        -1.01529
LJ           1.41633       -0.449242         2.11186
LJ           1.60205         1.11387       -0.850554
LJ              -nan            -nan            -nan
LJ              -nan            -nan            -nan
LJ           1.59193        -2.56196         2.54335
LJ              -nan            -nan            -nan
LJ        -0.0175097        -2.25483        -1.25178
LJ          0.281801         0.56354        -1.28671
LJ          -1.75365        0.621218        -1.23618
LJ         -0.502657       -0.219228         0.96613
LJ         -0.853589        0.685177       -0.360877
LJ           2.16342        -1.55264       -0.616663
LJ          0.278483         -1.4556         2.40976
LJ           2.02707         2.27761        0.350955
LJ          0.170714        0.960631        0.239868
LJ           1.84409        0.454727       -0.791262
LJ           1.15424        -1.84289         1.33444
LJ           1.18308        -0.28362       -0.491297
LJ              -nan            -nan            -nan
LJ           1.39213          2.4686        -1.59714
LJ              -nan            -nan            -nan
LJ          0.324511        0.638585       -0.917787
LJ           2.34764           2.208        0.309184
LJ           1.99789        -2.01514        -1.04599
LJ          0.840961         1.97229         2.11128
LJ           1.19954        -0.75049        0.126253
LJ           1.90777        -2.08264        0.622604
LJ          0.288829        0.178254        -1.70722
LJ           -2.2587         -1.8891      -0.0893367
LJ          -1.92083        0.640593         2.07251
LJ           1.58082       0.0115901        0.925962
LJ         -0.976609        -1.38544       -0.201638
LJ          0.594891         1.68274         2.42524
LJ          0.951828        0.165364        -2.09603
LJ           1.26085        0.953873        0.156751
LJ          -2.23955        -1.63883        0.133209
LJ          -0.47901       -0.799917         1.76309
LJ           0.91426        -2.39954         2.42493
LJ              -nan            -nan            -nan
LJ          -1.03787       -0.211135         2.06135
LJ          -1.05158       0.0714638          -2.064
LJ          -2.14203        -1.17799         -1.3779
LJ           1.74811        0.626903        0.237283
LJ           1.45191         2.26163         2.45451
LJ           1.29996       -0.485859       -0.881224
LJ           1.28794         1.90203        -1.01634
LJ          0.771994         2.36575        -1.26125
LJ          -1.46574         1.18654        -1.05954
LJ          -1.69436       -0.191952       -0.152639
LJ           1.31339       -0.563431        -1.63873
LJ           1.82749        0.560542        -2.15277
LJ          0.405609       -0.974099        0.780087
LJ           1.41615         2.54805        0.239313
LJ              -nan            -nan            -nan
LJ          -2.35718         2.46818       -0.267159
LJ           2.42023        -2.48736         1.01076
LJ           2.47983         0.85642         1.22674
LJ          -1.45289         2.11839        0.389319
LJ           1.72762        0.257259        -2.33173
LJ           2.06529        -1.91103        0.561219
LJ           1.08625        0.350176         2.22904
LJ            1.5553        0.113569        0.370622
LJ          -1.16907         2.47122        -0.15134
LJ           2.10698         1.76765        0.398651
LJ           1.06818         1.43134        -1.65152
LJ          0.394548        -2.20362         2.01006
LJ          -1.78534        -1.14979          1.4957
LJ          0.785112        -1.59311        -1.47333
LJ          0.994796        0.454212          1.4177
LJ         -0.995807       -0.327586         1.06491
LJ           1.11905        -1.86276         2.12338
LJ         -0.299026       -0.268385         1.10829
LJ          0.148724        0.887737         2.26339
LJ          -1.48708         1.12834        -2.09395
LJ          -2.19702        0.600789        -1.47011
LJ          -1.21746        -1.39232        -1.18337
LJ              -nan            -nan            -nan
LJ           1.19569       -0.354767        -1.70093
LJ          0.992739       -0.416414        0.145069
LJ           1.57337        0.973818        -1.42055
LJ           1.60577        -1.10021         1.36264
LJ           1.61606         2.11366         1.22239
LJ           2.13715        -1.89483         1.43752
LJ          -2.50174       -0.544065        0.127956
LJ         -0.660849        0.165909         2.16696
LJ         -0.128044         1.56972        0.110904
LJ         -0.667166        0.323404        -2.16423
LJ             2.159         1.27156       -0.945265
LJ          -2.04238       -0.968609        -1.00302
LJ           1.17891         -1.7855       -0.126732
LJ          -1.51361         1.20987        -0.32325
LJ         -0.883555       -0.616299        -1.15789
LJ           2.52808          1.3039         1.13688
LJ              -nan            -nan            -nan
