108
#Comment!
LJ           2.36679        -1.45153        -1.73713
LJ          -2.18982         2.32359        -2.28134
LJ           1.23285         2.26631        -1.36264
LJ         -0.282968        -0.91449         0.34875
LJ          -1.60623          2.5447          2.0176
LJ          0.994261        0.124506        -1.13255
LJ         -0.259186        -2.12601       -0.501298
LJ        -0.0790666         -2.4217        -2.27022
LJ          -1.18704       0.0562007          1.2692
LJ          -1.47447        -1.40628        -1.30815
LJ              -nan            -nan            -nan
LJ         -0.567242           1.071        0.797766
LJ          -1.47822         1.94985        -1.25718
LJ          -1.11568         0.30877         2.05368
LJ          0.341485        0.259058         1.52999
LJ        -0.0950397         1.19296         1.64244
LJ              -nan            -nan            -nan
LJ              -nan            -nan            -nan
LJ          -1.64458         1.94031       -0.468909
LJ              -nan            -nan            -nan
LJ          -1.68096       -0.110317        -2.26353
LJ          0.522677       -0.448844         2.28788
LJ           1.76409         1.57516         1.58578
LJ         -0.105591        -1.10616        -1.50406
LJ           1.17765       -0.212236        0.335048
LJ         -0.962704       -0.554908        -2.15976
LJ           1.70909        -0.32224        -1.33513
LJ           1.47415        0.157565          2.4189
LJ           1.23763       -0.312268       -0.296907
LJ          -1.36407        0.612159        0.918956
LJ          0.272951        -2.47846        0.987989
LJ          0.483003        0.424379         -0.8591
LJ              -nan            -nan            -nan
LJ           0.42798         1.33848       -0.759989
LJ              -nan            -nan            -nan
LJ           1.51177        -1.47256        -2.07507
LJ          -1.01254      -0.0844102        -1.92894
LJ           2.02179         2.30459        -1.52018
LJ          -1.90806        -2.16805        0.992916
LJ           1.34709        -1.94641         1.39673
LJ          -1.13136        -1.67669       -0.481135
LJ          -2.24315        -1.93609      -0.0852907
LJ          -1.55314       -0.113101        -1.07788
LJ         0.0185163         2.56186        -1.69247
LJ           1.34726        0.830152        -1.53532
LJ          -2.00831        0.881814       -0.373858
LJ          -2.53545        0.530695         1.49191
LJ         -0.981058       -0.152421         1.54285
LJ         -0.644244       0.0634671        0.068125
LJ         0.0252739       -0.418838        0.484264
LJ          -1.39014        -2.49576       -0.425165
LJ           2.14401        -1.53924       -0.883444
LJ              -nan            -nan            -nan
LJ           2.10026        -2.22913       -0.464755
LJ          0.234311        -1.12459       -0.853148
LJ           2.45051        -2.51621         1.10829
LJ           1.53193         2.48065        0.872295
LJ          -2.43581         2.18474        -2.53742
LJ           2.31412        -1.06716         2.23932
LJ          -1.53925         1.22897       -0.541799
LJ           1.91167        -1.57985         1.68207
LJ          -1.03138       -0.822498         1.56049
LJ           1.49477         -2.5492      -0.0393059
LJ           -2.3553         -2.3373      -0.0125427
LJ           -1.5044          1.9324          1.3779
LJ          -2.21759         -2.1083         1.71652
LJ           -1.5212         2.19357        -1.84652
LJ              -nan            -nan            -nan
LJ          -1.96558         1.66428         1.99622
LJ        -0.0698204        -1.99592        0.196522
LJ          -2.04501        -0.98325       -0.877252
LJ           1.71792       -0.134067        -1.02669
LJ          -2.15324        0.739072         1.45493
LJ         -0.179719         1.81268        -1.81758
LJ          -0.87309         1.86807         1.46375
LJ          0.151195         2.26385        -1.49652
LJ          -0.95684         1.72899        -2.21025
LJ         -0.705668         1.09303       0.0490877
LJ          -1.68254        -1.09574        -2.29559
LJ          0.700004        -1.85442         2.28498
LJ          0.724731        -1.00253        0.759425
LJ          -1.32658       -0.625755         1.61958
LJ         -0.836486         2.31943        0.628261
LJ          0.280387         1.41854         1.75069
LJ          -1.40057         -2.3879       -0.869291
LJ          0.452609        0.297194        -1.88885
LJ           1.59935        -2.40114          2.3157
LJ           1.93143         2.06997         2.24906
LJ          0.418138        0.650442         1.17238
LJ          0.248061         1.92283       -0.480254
LJ              -nan            -nan            -nan
LJ           1.51979         2.52463       -0.614385
LJ         -0.823533       -0.333494         1.92518
LJ          -1.11913       -0.955024        -1.35951
LJ          0.132061         1.00478        -1.14759
LJ           1.29927         2.16123         2.14436
LJ         0.0872635        0.580004         1.87159
LJ           -2.2646         1.84132        0.419304
LJ          0.116607       -0.920908       -0.681748
LJ          -2.11752         -2.1723        -1.84046
LJ         -0.108508       -0.462368       -0.217884
LJ           1.53276        -1.73485       -0.803194
LJ          0.429678        0.109318         1.56489
LJ          0.248476        -2.47848        -2.40479
LJ          -1.16503        -2.08556         2.29873
LJ          -2.35375        0.246262         1.54557
LJ          -1.63984        0.171101       -0.832283
LJ              -nan            -nan            -nan
