108
#Comment!
LJ          0.204822      -0.0205792         1.32884
LJ           1.64476         1.52625       -0.314872
LJ          -1.34895        -1.04739         2.02959
LJ          0.340482        -1.97065        -2.30255
LJ           1.52986        0.912977       -0.487947
LJ          0.827502        0.923589        -2.21587
LJ           -2.4095         -2.0947        -1.75923
LJ          0.701711         2.04228         2.49569
LJ         -0.422936         1.32363        -1.59048
LJ         -0.205326       -0.120691        -1.90965
LJ              -nan            -nan            -nan
LJ          -1.35639        -1.32057       0.0345466
LJ           1.10562         2.45949        0.449259
LJ              -nan            -nan            -nan
LJ          -1.41176        -1.33425        -1.88165
LJ              -nan            -nan            -nan
LJ              -nan            -nan            -nan
LJ              -nan            -nan            -nan
LJ          0.880113        -2.30103        -2.34043
LJ              -nan            -nan            -nan
LJ          0.392351       0.0519717        -1.05662
LJ         -0.858242        0.942785       -0.794084
LJ          -1.18248        -2.23501         1.58385
LJ          -2.47121         1.30783        -1.68095
LJ          -0.82038        -1.74229        -1.15984
LJ           2.21456       -0.759851        0.140169
LJ        -0.0250355        -1.27001         2.10903
LJ          -2.37211        0.563964        -1.19818
LJ           1.82647        -1.59112         1.73661
LJ          0.800165        -2.35226         2.16739
LJ              -nan            -nan            -nan
LJ           -1.2343        0.123639         2.06494
LJ              -nan            -nan            -nan
LJ         -0.416976       -0.908231         1.16999
LJ              -nan            -nan            -nan
LJ           1.79259        -2.40312       0.0147261
LJ           1.50993         1.79961        -1.51343
LJ          -2.42692        -2.52183        -1.33892
LJ          0.154922       -0.850308        0.325134
LJ          -2.20486        -1.87059       -0.393601
LJ           1.11194        -2.51433        0.502714
LJ        -0.0596926         1.02694        -1.70972
LJ          0.372325          1.6712         1.72077
LJ            2.5648         1.50188         1.42255
LJ          0.725407        -1.80804        0.297351
LJ           2.15495         -2.5456         -1.2498
LJ          -2.11136          2.2579          -1.737
LJ           1.04018        -1.90201        0.378276
LJ          -1.61733         1.97686        0.803221
LJ           1.94368        0.522332        0.853266
LJ         -0.087565         1.79117        0.191543
LJ           2.35578        -1.90086        0.197993
LJ              -nan            -nan            -nan
LJ          0.313024        -1.08356        0.977844
LJ            2.1541      -0.0165308         1.01586
LJ           -1.2941         1.13908       -0.741941
LJ          -1.47505       -0.841604       -0.721772
LJ           1.67993         1.52695        -1.02492
LJ            1.1586        -2.51987         1.64435
LJ         -0.989104         2.08963         2.55686
LJ          -1.41258        -2.49183       0.0114543
LJ          -1.92142         1.04552         1.96765
LJ           2.16506       -0.805794        -2.47662
LJ          0.347041       -0.355257       -0.627404
LJ              -nan            -nan            -nan
LJ           2.07617        0.293125        -0.34164
LJ          -2.18627        -1.14047        -2.14496
LJ              -nan            -nan            -nan
LJ        -0.0321922        -2.24175         1.86297
LJ          -2.29285       -0.980973      0.00594852
LJ          -1.63834        0.076334        0.278861
LJ          0.525372        -2.31511         2.27004
LJ         -0.718584        -2.29304       -0.437417
LJ          -2.24916         1.00153        -2.25963
LJ          0.170428        -1.99096         -1.8594
LJ          -2.51581          1.0276         2.53728
LJ          0.544867         2.49418        0.510663
LJ            2.4671         1.17025         1.32225
LJ           2.38908        0.165557        0.562299
LJ           1.55299        0.393311        -2.15644
LJ          -2.16165        0.523581         1.96861
LJ           1.61212         2.23207        -1.36258
LJ          0.839577        -1.26739        -2.45915
LJ           1.71087        0.922676        -1.58821
LJ           1.56144        -1.53312        -2.52919
LJ           1.05463         1.49769         -1.8524
LJ           1.94622        0.477847         0.35091
LJ         0.0603219        -2.45462       -0.403688
LJ           -1.3533       -0.648877         -2.1589
LJ         -0.667456       -0.689928         2.03126
LJ              -nan            -nan            -nan
LJ           1.33346         2.45878          -1.802
LJ          -1.28844         2.52379        -1.90563
LJ          -2.34408        -1.72842        0.642921
LJ          -1.75895      -0.0697922        0.396229
LJ           2.55781        -1.76798        -1.42925
LJ          -1.16043         2.41174        0.354557
LJ         -0.553196         1.85071       -0.410184
LJ              -nan            -nan            -nan
LJ         -0.616379        0.576469       -0.266632
LJ          0.836512        -1.08094       -0.273456
LJ          0.421372         2.35673         2.54729
LJ          -1.60231         1.36387        -1.95634
LJ          0.333468        -1.11449         1.05855
LJ              -nan            -nan            -nan
LJ         -0.544785         -1.8024          1.7572
LJ          -2.49835         1.30384         1.35772
LJ              -nan            -nan            -nan
