108
#Comment!
LJ           1.30442        -2.28528         1.56675
LJ          -2.39485         1.62198       -0.781326
LJ            2.5255         1.03372        -1.82212
LJ          -2.06727        0.556203       -0.607569
LJ          0.310838        -1.33205       0.0667506
LJ         -0.286925        -1.91156       -0.963384
LJ          0.343533          -1.078         1.68695
LJ          0.981565        -1.29114        0.170491
LJ          0.175052         1.90325       -0.670338
LJ          -2.23596         1.75762        0.461115
LJ              -nan            -nan            -nan
LJ          -1.03305        -1.76628        0.984442
LJ           1.13567       -0.867837      0.00136525
LJ          -0.71318        0.804446         1.86584
LJ          -1.80767        -2.51627       -0.335813
LJ          -1.09674        -2.26468        0.990992
LJ              -nan            -nan            -nan
LJ              -nan            -nan            -nan
LJ          0.685658       -0.129888        0.411342
LJ              -nan            -nan            -nan
LJ          -1.07298         1.15304         1.09883
LJ          0.440187      -0.0952192        -1.14862
LJ          0.210331       -0.863687        -2.23132
LJ           -1.2222         2.38805         1.73073
LJ          0.467232         2.50438        -0.67402
LJ          -1.36406        -1.63954       -0.285846
LJ         -0.491936        0.913326         1.19077
LJ           2.13255         1.12003         2.20537
LJ            -2.063        -1.61282         1.80459
LJ          -1.15714        -2.18831        0.265602
LJ          0.497117        0.708016           2.077
LJ         -0.466151         1.90557       -0.301801
LJ              -nan            -nan            -nan
LJ          0.265419         1.52826        0.839487
LJ              -nan            -nan            -nan
LJ        -0.0488445        -1.60849          1.0759
LJ           0.40651        0.907591        -1.88426
LJ          -1.51945         2.10647         1.83923
LJ         -0.937088        -2.39429         2.13868
LJ           2.43196        0.561987        -1.04382
LJ           1.54747         1.46719        -0.23906
LJ          -2.06463         1.91725         1.29519
LJ         -0.590922       0.0119961        -2.42582
LJ          0.166421         1.14284       -0.713343
LJ          0.919281         -2.4225       -0.864115
LJ          -1.10446        0.404556       -0.547329
LJ          0.976502         1.14142        -1.72272
LJ          -1.02834         1.92663        0.445064
LJ          0.375561         1.45061       -0.546443
LJ           1.17051        0.433248          0.5168
LJ            1.8135        -1.45686          2.5275
LJ         -0.785478         1.79173        -1.17695
LJ              -nan            -nan            -nan
LJ         -0.667317        -2.15927        0.449308
LJ            2.0453         0.75173         2.51536
LJ          -2.05591         2.34004          1.8535
LJ           -2.4729         1.70837          0.9812
LJ          0.389942       -0.221694         1.04385
LJ         -0.385472         1.96341        -2.21432
LJ           2.01075          2.4737        0.799428
LJ          0.254286        -1.48081        -1.23857
LJ          0.929741        -1.13743      -0.0602908
LJ         -0.702515         1.56168        -1.23286
LJ         -0.342957         1.93586        0.879665
LJ          -2.00861        0.391827         1.41894
LJ           0.79649        0.930336        -2.08713
LJ          0.256106        0.237481        0.335629
LJ              -nan            -nan            -nan
LJ         -0.482534         1.62983        -2.10217
LJ          -2.04373         2.37442         1.88036
LJ          -1.56127          2.5631        -2.53261
LJ         -0.247254        0.961682        -1.46036
LJ           1.16743       -0.611847        -1.73898
LJ           1.60305         2.44908        -1.59628
LJ           1.11628        -2.34344        -2.32019
LJ          -1.13319        -1.98541        -1.22521
LJ           1.37041       -0.578154         1.27694
LJ          -1.04477        -1.19903        0.282977
LJ           -1.3958        -1.18908        -2.27995
LJ          -1.39568       -0.236402        0.674306
LJ          -1.61047       -0.598761         1.16682
LJ         -0.311079        0.260478         1.01021
LJ           2.05466        -1.68117         1.42984
LJ           2.26006         1.23178     -0.00809748
LJ          0.814175          2.3537       -0.742814
LJ            1.5533         -2.3347        -1.65841
LJ           2.07876        -2.52332        -1.46346
LJ            2.5643        -2.55977      -0.0259227
LJ         -0.235897         -1.5212       -0.145371
LJ           2.44955       -0.369985        0.105605
LJ              -nan            -nan            -nan
LJ          0.720027        0.960814        -1.54186
LJ         -0.338307       -0.687363         1.67547
LJ          0.445193         -1.6833         2.21606
LJ           1.82446        -2.15979        -0.46165
LJ           1.51674        -1.02143         1.25034
LJ          -1.62491         2.25373        -2.06868
LJ         -0.788886         2.56408         1.25879
LJ           2.52839         2.38058        -1.07585
LJ           2.19325       -0.923292        0.498555
LJ          -2.39016         2.19678       -0.374408
LJ           1.55133       0.0492382         2.33934
LJ           2.05988        -1.47034        0.369716
LJ          0.800617       -0.510395        -0.94714
LJ         -0.224845          1.2648        -1.46055
LJ           1.24073        -1.93239          1.0609
LJ           -2.5243         2.08842       -0.654674
LJ              -nan            -nan            -nan
