108
#Comment!
LJ         -0.714501       -0.584989         1.12229
LJ          -2.02673         1.12836         2.29423
LJ         -0.835841         1.71757         1.49309
LJ          -1.92829        -1.40255        -1.17536
LJ          -0.67395          2.1847        -0.21653
LJ          0.794491         2.14104        -1.55544
LJ          -2.01312        -2.09042         1.65435
LJ          -1.21199        -1.04519          1.4377
LJ           1.81176       -0.173017         1.73046
LJ         -0.214915       -0.340374        0.624077
LJ              -nan            -nan            -nan
LJ          -1.60074       -0.561957        -0.19336
LJ          -1.37532        0.706399        -1.92624
LJ            -1.135          1.8563        -2.08201
LJ            1.7534        -0.92533       -0.204615
LJ              -nan            -nan            -nan
LJ              -nan            -nan            -nan
LJ              -nan            -nan            -nan
LJ           0.59054         0.85356         2.33325
LJ              -nan            -nan            -nan
LJ          -2.04102        -1.88401        0.823764
LJ           1.06524        -1.02352        0.474621
LJ           1.91992        0.760136        0.966514
LJ         -0.462206       0.0107605        -1.88841
LJ         -0.124628         1.88569        -0.83829
LJ           1.48823        0.627732        -1.19562
LJ            1.8168        -1.97903          2.1571
LJ         -0.713456         1.59702       -0.312533
LJ          0.596107        0.243823        -1.52912
LJ           2.02562       -0.162484        -1.81898
LJ          -2.06729         1.31385         1.06057
LJ        -0.0258234         2.23499       0.0476897
LJ              -nan            -nan            -nan
LJ           1.70082        0.321147         -2.2434
LJ              -nan            -nan            -nan
LJ           1.51696        -1.75421        -0.85106
LJ           1.56518         1.64484         1.76785
LJ           1.81713         2.17347       0.0547347
LJ         0.0844355         -1.1782        -2.44506
LJ          -2.39278        -1.01492         2.38445
LJ          -1.59772         1.81514         1.07335
LJ           2.00289         2.28567         2.50846
LJ         -0.773399        0.113693          2.5157
LJ          0.178394        0.230292         1.57194
LJ          -1.97468         1.06637         1.24991
LJ          -1.56609         1.87608       -0.822675
LJ           1.39475         1.34051         2.20411
LJ         -0.966414        -1.54673        -1.25094
LJ         -0.320935       -0.580552        0.677144
LJ          -1.23542       -0.780808         1.55995
LJ          -1.87519        -1.90189        0.350489
LJ         -0.860988         1.81499        -1.38717
LJ              -nan            -nan            -nan
LJ          -1.19729        -1.60265       -0.146545
LJ          -1.25834        0.514987       -0.306721
LJ           0.10455         1.01557      -0.0391329
LJ          -1.16957         0.31303       -0.919243
LJ        -0.0022044         1.47787         1.90657
LJ          -1.98153       -0.569079         2.24945
LJ          -0.51965       -0.266917       -0.336524
LJ           0.58202         -2.3956         1.11488
LJ           2.27503         1.75891        -1.12435
LJ          0.746908        -1.93573         1.51271
LJ           0.11594        -1.95133         1.46973
LJ          -2.55657        0.712748        0.534466
LJ         -0.486114       -0.251368         2.01165
LJ          0.730916        -1.74247        -1.70041
LJ              -nan            -nan            -nan
LJ        -0.0251645        -1.75191        0.413295
LJ          0.880603         1.27377        0.201428
LJ          -2.27417         2.00152        -2.02481
LJ          -1.06677        0.368785       0.0394296
LJ           1.47483         1.27592       -0.561548
LJ         -0.972996        -2.43177         1.84515
LJ            2.2649        -1.25978         1.73348
LJ         -0.183833         2.51371       -0.144404
LJ          0.681576        -2.42777        0.529572
LJ          -1.05142        -1.65488        -1.23701
LJ          -1.06105         1.84305        -1.82843
LJ           2.08801       -0.627974        -1.52297
LJ             1.936        0.190865         -1.8065
LJ          -1.03504        0.704584        -2.04176
LJ          0.391744       -0.362729        -1.62703
LJ          -2.20472      -0.0594401         1.14884
LJ        -0.0462175        -2.50025         1.47978
LJ          -1.40711         1.13124       0.0727824
LJ          -2.25664        0.889605         1.70784
LJ           2.51923        0.256986         2.48971
LJ         -0.707105       0.0109679      -0.0333463
LJ           1.47988       -0.297743        -1.13262
LJ              -nan            -nan            -nan
LJ          -1.29652         2.41166        -1.68702
LJ           2.30425         2.24511         -1.8713
LJ          0.923599       -0.916199        -1.91071
LJ           2.50785        0.141028        0.490724
LJ          -2.52352         0.19079        0.892161
LJ         -0.783469       -0.888054         2.29401
LJ          -1.87893          2.2097         1.49162
LJ              -nan            -nan            -nan
LJ           1.10765        -1.22406         0.11503
LJ          -1.16538       -0.602733         1.82173
LJ           2.11229         1.86707        -1.21469
LJ        -0.0819795        -2.22678         1.62167
LJ           0.50511         1.74724        0.751456
LJ          -2.07572        -1.37057         0.71153
LJ            1.7279         2.48405         2.22154
LJ           1.20155        -0.20701         1.95748
LJ              -nan            -nan            -nan
