108
#Comment!
LJ          -1.10481        0.574459      -0.0974009
LJ            1.1627       -0.866121         1.46294
LJ          -0.55774         2.10551         1.06311
LJ         -0.420521         1.21781        -1.48674
LJ           2.43286       -0.657148        -1.34572
LJ          -1.67289         1.33426          1.2527
LJ             0.477         1.63854         1.20766
LJ          0.713422         1.39899       -0.236053
LJ          -0.91968        -2.39784         2.00265
LJ           2.28912        0.108395       -0.139613
LJ              -nan            -nan            -nan
LJ          -1.22967        -1.10979        -2.54176
LJ         -0.675027         2.00179        0.297056
LJ           -1.2966          1.7938         2.22202
LJ          0.108441         0.11429        0.411604
LJ          -1.63695        -1.76554       -0.706424
LJ              -nan            -nan            -nan
LJ              -nan            -nan            -nan
LJ           2.23455        0.362567       -0.932607
LJ              -nan            -nan            -nan
LJ          0.907271         1.58988         1.03653
LJ         -0.858008        -1.60636         1.98418
LJ          -1.96155        -1.82001      -0.0162721
LJ         -0.160378         1.85062       -0.474072
LJ          0.382927        -1.59191        -1.14069
LJ          -2.34017        -1.02222      -0.0168369
LJ           1.52259        -0.17739        -2.44613
LJ           -1.5637        -1.58311       -0.398285
LJ          0.114198         1.79487        -1.53749
LJ           -1.7563        0.104004         1.31484
LJ           1.80696        -1.13926       -0.661457
LJ         0.0314201       -0.789778       -0.325094
LJ              -nan            -nan            -nan
LJ          -1.35744       -0.110757        -1.69891
LJ              -nan            -nan            -nan
LJ           1.48634        -1.31345         1.18329
LJ          -2.29473        0.632981        -1.49416
LJ         -0.266638        -1.62114         2.55358
LJ          0.321067        0.287779         1.90543
LJ        -0.0886727         -1.7668        -2.11709
LJ           2.37388         2.17734        0.400066
LJ           1.40088         2.32182       -0.988969
LJ           1.56004         2.06551         1.28694
LJ          0.766665        0.610885         1.89364
LJ         -0.153634         1.02664        -2.17291
LJ           2.22183         2.12404        -1.70156
LJ         -0.373417        -1.24846        -1.18986
LJ          -1.50131       -0.397832        -2.45927
LJ           1.23199        0.317295        -1.35623
LJ           1.37916          1.7415        -1.83296
LJ           2.17733         -0.3686         -1.0396
LJ          -1.48997         -1.4338        -1.09619
LJ              -nan            -nan            -nan
LJ          -1.83474         1.37946         -1.2954
LJ         -0.511236         2.15353       -0.387292
LJ           1.89784         1.14764        -1.89662
LJ         -0.315563        -1.85985        0.202323
LJ           1.90027         2.30488        -1.49431
LJ           2.07492        -1.33479         -1.2806
LJ           1.98936         -2.0191        -1.22079
LJ           1.82646        -2.49982      -0.0636956
LJ         -0.380266       -0.617818          1.3209
LJ         -0.896593        0.893336       -0.657474
LJ            1.1262         1.97476        -1.18057
LJ          0.110259        0.450673         -1.8053
LJ           1.51781        -1.92484         1.07295
LJ          -0.28142        0.472462         -1.5243
LJ              -nan            -nan            -nan
LJ          -2.19483          2.2585         1.22696
LJ         -0.348995        0.575975        0.838841
LJ        -0.0858732        0.410404         1.57519
LJ           2.37602       -0.639531       0.0377439
LJ          -1.99938         1.58965        -1.06187
LJ          -2.18326        0.433617      -0.0162412
LJ         0.0860677         1.82906       -0.215951
LJ          0.115569       -0.417066        -1.63935
LJ         -0.343313        -2.18014         1.80558
LJ          0.875629         1.08984         1.29876
LJ           1.57911         2.11857        0.556606
LJ          -2.37064       -0.592209         1.95448
LJ          -1.38085        0.648029       -0.535937
LJ         -0.470604        -1.80358        0.320802
LJ         -0.918403        -1.66046        0.530136
LJ          0.603942         -2.0256        -1.69675
LJ           1.47324         1.78722         1.91717
LJ          -2.09774        -1.46567        -2.07919
LJ          0.892711        -1.16209        0.818201
LJ          -2.37124         2.07623         1.65935
LJ           1.95866        -2.05135       -0.469374
LJ         -0.938153        0.740245        0.547049
LJ              -nan            -nan            -nan
LJ          -1.32857        -0.67791         2.06311
LJ         -0.863635         2.54423         1.88433
LJ          -2.09644        -1.37665         2.36575
LJ          0.612994       -0.536116       -0.890094
LJ         -0.279764       -0.269717        0.925886
LJ          0.170388        -2.40084        -1.34656
LJ          -1.09967       0.0462291        -1.09074
LJ          0.515336         2.24849     -0.00141817
LJ           2.14752        -2.12828       -0.980023
LJ           1.04332       -0.108833        0.544217
LJ          -1.22597          1.4098        -2.08342
LJ           1.61794        -1.71254        -0.95917
LJ           1.02974     -0.00904129        0.559242
LJ           1.69471       -0.872512         2.45252
LJ          -1.17708        0.872634        0.931812
LJ           1.01589       -0.343558        -2.36653
LJ              -nan            -nan            -nan
