108
#Comment!
LJ         -0.725965       -0.984793         2.39473
LJ          -1.82247         1.28501        -2.47084
LJ          -2.36749        -1.79442        0.147363
LJ         -0.246327            2.08       -0.791884
LJ          -0.52737        0.165902         1.47388
LJ          0.404244         2.00305       -0.486582
LJ           1.77439          1.0091        -1.64903
LJ           1.66656       -0.284767        -1.32318
LJ        -0.0888668        -1.27182        0.474022
LJ           2.22058        0.599687        -1.53739
LJ              -nan            -nan            -nan
LJ           2.02661       0.0262323        -1.69566
LJ          -1.98169       -0.437699        -2.52282
LJ              -nan            -nan            -nan
LJ            1.5325         1.87654       -0.960443
LJ              -nan            -nan            -nan
LJ              -nan            -nan            -nan
LJ              -nan            -nan            -nan
LJ          -1.99337       -0.807975         0.32251
LJ              -nan            -nan            -nan
LJ          0.260115        -1.27486       -0.526556
LJ          -1.35549        -2.54476        -1.56177
LJ           1.08976        -1.73006         1.29138
LJ              -nan            -nan            -nan
LJ          -2.08642         -1.8959       -0.369646
LJ         -0.727776       -0.640282        0.602984
LJ           -2.3811         1.27536        -1.06147
LJ          0.965314         1.84987        -2.37771
LJ          -0.38918        -1.59486        0.548066
LJ           2.28118        -2.41761        -1.50741
LJ              -nan            -nan            -nan
LJ           1.12086         2.06761        -2.21345
LJ              -nan            -nan            -nan
LJ           1.59565        -1.96259       -0.676988
LJ              -nan            -nan            -nan
LJ          0.778748         -1.4459       -0.613588
LJ          -1.22194        -2.26425          1.0799
LJ         -0.838193         1.63892       -0.419067
LJ          -2.17026        -1.30888        0.806072
LJ           1.07615        0.362569       -0.348456
LJ         -0.279948         2.39149        -1.66116
LJ          -2.46094        0.487029       -0.172585
LJ          0.497934        -1.19553        0.551804
LJ          -1.89436        -2.00179        0.496336
LJ         -0.603908       -0.931328        0.584311
LJ          0.637815        -1.80424        -1.70594
LJ          -2.26463         1.39273       -0.779985
LJ           0.51685      -0.0309975       -0.391368
LJ         -0.721038        -0.49328        -1.85694
LJ          -1.70618        -0.68563        -2.09781
LJ          0.017549        -1.52656         1.81767
LJ           1.83912         1.43499         1.92539
LJ              -nan            -nan            -nan
LJ           2.49095       -0.470865        -2.45501
LJ           1.30431        0.738191        0.231305
LJ          0.108709        -2.03256         0.69661
LJ         -0.808892        0.878135        -2.07592
LJ         -0.416187        -1.62592         1.83788
LJ         -0.140768         1.01697       -0.182893
LJ          -2.49019        0.615591        -2.54685
LJ         -0.158099        0.654161        0.831615
LJ          -1.99232        -2.42177       -0.560748
LJ           1.92106         1.09202        -1.68117
LJ              -nan            -nan            -nan
LJ              -nan            -nan            -nan
LJ           1.16035       -0.140277         1.23497
LJ          0.316981        -2.39273        -1.43703
LJ              -nan            -nan            -nan
LJ          0.765242       -0.532334         1.19977
LJ            1.7477         2.40884        0.561552
LJ          -2.41449       -0.315325         2.31848
LJ          0.796266        -1.32879         1.28256
LJ           2.12898        0.791885        0.402222
LJ          -2.27001        0.576339        0.161417
LJ         -0.729777        -2.10962        -1.28428
LJ           1.56496       -0.270192        0.184968
LJ           2.13262        -1.42743         1.62933
LJ          -1.90967          -1.322        -1.13552
LJ           1.99299         -0.5096        0.130017
LJ           2.53066        -1.26593         1.58194
LJ           -2.1021         -1.7895         0.73075
LJ          0.628605        -0.57041        -1.79067
LJ           -1.1589       -0.186211         1.48526
LJ           1.01894        0.732691         1.58595
LJ         -0.644528         2.43789        0.620683
LJ          -2.01987         1.62547       -0.692554
LJ           1.65473         1.99216         2.24837
LJ         -0.534571        -1.73999         2.01516
LJ          0.193235        -1.62204         1.97459
LJ           2.06624        0.376604         1.19194
LJ              -nan            -nan            -nan
LJ           1.06035         2.39457        -2.13885
LJ           1.37442         0.12622        0.806465
LJ         -0.263526       -0.536966         1.03969
LJ          -1.69422        -1.13752         1.27725
LJ           1.70585         1.74609        -1.99384
LJ          -2.18498         2.08679        -1.27917
LJ         -0.658217          1.4231         2.09385
LJ              -nan            -nan            -nan
LJ          -1.62447         -1.7408       0.0830341
LJ           1.78095        -1.11262        0.871605
LJ          -1.11908       -0.772177       -0.611339
LJ           2.03376         -2.5415        -1.69667
LJ          -2.08417         2.29954        -2.22917
LJ              -nan            -nan            -nan
LJ          -1.59009        -1.30987         2.45828
LJ          0.150846        0.915537        -1.69839
LJ              -nan            -nan            -nan
