108
#Comment!
LJ           2.49024        -1.92599         1.53018
LJ           2.27301        -1.51155        -1.94843
LJ           -0.5749        -2.35283       -0.963153
LJ          -1.69575        0.176765       -0.695305
LJ            1.9644        -1.83907       -0.567222
LJ         -0.804303       -0.583017         2.47112
LJ          -1.20589        0.650913        0.641093
LJ          -2.02744       -0.939627        0.378782
LJ          -2.16234         1.67076        0.781727
LJ          0.828573         1.57677         1.69578
LJ              -nan            -nan            -nan
LJ          -0.66691         1.20338       -0.628359
LJ          -1.17799        0.487439      -0.0979522
LJ        -0.0873428         2.08248         1.62097
LJ           1.42185          2.2084       -0.265607
LJ              -nan            -nan            -nan
LJ              -nan            -nan            -nan
LJ              -nan            -nan            -nan
LJ          0.515111          1.6345         1.78537
LJ              -nan            -nan            -nan
LJ         -0.947137       -0.601183        -2.07871
LJ          -1.36163         1.93605       -0.858471
LJ         -0.295333       0.0410023        -2.30378
LJ          -1.00386       -0.817383       -0.998925
LJ          -1.89635          2.5283         1.43666
LJ         -0.306507         1.44361       -0.864585
LJ           1.32359        -1.89794         2.33725
LJ          -1.33363        0.538484        0.799788
LJ            2.3651        -1.30081         1.72954
LJ          0.774394        -2.34174         1.71232
LJ         0.0346245        0.918093        -1.92938
LJ         -0.992393       -0.877821        -0.94841
LJ              -nan            -nan            -nan
LJ          -1.32311        -1.55164         1.85208
LJ              -nan            -nan            -nan
LJ          0.470451         1.18919        0.706559
LJ           1.28813        -2.56071        0.304981
LJ            0.2073       -0.960151        -1.35458
LJ          0.362878       -0.788257       0.0362843
LJ           0.36293        -2.24801        -2.01073
LJ           1.44663         1.76523        -1.85588
LJ         -0.200705        -0.63854         2.11273
LJ           2.18843        0.075724         2.52105
LJ          0.247759         -1.9427       -0.704617
LJ         -0.528919        -1.19822        0.798882
LJ         -0.776844         2.47437        0.125397
LJ           2.24465        -0.34026         1.87206
LJ         -0.957098        0.866001        -1.40287
LJ         -0.603214        -1.68165        -1.33115
LJ           2.46867        -1.97074         1.58459
LJ          0.284984         2.25661        0.693837
LJ         -0.772964        -1.94112        0.943977
LJ              -nan            -nan            -nan
LJ          -1.84669         0.81517         -1.6176
LJ           1.06962         1.49633        0.566826
LJ         -0.139525       -0.486896       -0.344371
LJ          -1.11933         1.71877        0.831047
LJ           1.25977         2.53861         1.35433
LJ          -2.08899        -1.18773        -1.22654
LJ          -1.83265        -2.30962        0.497497
LJ           2.46719        -1.49509        -2.41025
LJ         -0.596256         1.36349        0.670813
LJ          -1.87202         2.20131       -0.507708
LJ           1.64451        0.206668        0.381147
LJ          0.679778         -1.2473         2.32596
LJ           1.16573          1.5102      -0.0598169
LJ          -1.92032        0.370911       -0.628505
LJ              -nan            -nan            -nan
LJ         -0.147047         2.22838         1.41268
LJ           1.54501         1.31235        -1.64696
LJ           2.12286        -2.20265        -2.02675
LJ         -0.125024        -2.24698         1.81288
LJ         -0.779725       -0.579062        0.909051
LJ           1.37036     -0.00519139         1.32875
LJ         -0.931719         -2.3798         1.14901
LJ        -0.0328243       -0.987672        -1.29977
LJ         -0.658216        -1.33082        0.953113
LJ          0.787815         1.39688         1.96194
LJ           1.54358       -0.732977        -2.14803
LJ         -0.251717       -0.562249        -2.21691
LJ          -1.95534        0.113021         1.27508
LJ         -0.392308        0.180035           1.335
LJ          0.455766        -2.30702        -1.45497
LJ          -2.24214         1.01045        0.905858
LJ           2.15996         1.61211        0.681956
LJ          -2.20443        -1.26233       0.0002301
LJ          0.409024        -1.93424       -0.154291
LJ           2.52857        -1.37229       -0.836534
LJ           1.46608        -1.70781        -1.71719
LJ          -1.44743     -0.00883955        -1.11001
LJ              -nan            -nan            -nan
LJ           -2.3235      -0.0855193     -0.00537045
LJ          -2.07984       -0.968423        -2.43391
LJ            1.2872       -0.411605       -0.463057
LJ          0.603113       -0.770513        -1.52282
LJ           1.78057         1.62878        0.403578
LJ          -1.18875       -0.810029      -0.0121893
LJ          0.332165         1.73791        0.170512
LJ              -nan            -nan            -nan
LJ         -0.175053        0.498145         1.91649
LJ           1.89006         1.52957         -2.3846
LJ           -0.3197         1.91202       -0.840761
LJ           1.73625        -2.30227         2.28942
LJ           2.22656        -1.82616       -0.580126
LJ          -2.01585        0.434103        -2.35631
LJ          0.697138       -0.339585         2.25704
LJ          -1.21699          2.2028         0.88035
LJ              -nan            -nan            -nan
