108
#Comment!
LJ          -1.03163        -1.31053         2.34653
LJ          -2.27302       -0.545376       -0.321776
LJ          0.808072       -0.620448        0.940999
LJ          -1.33472       -0.308886       -0.839786
LJ           -1.3567        -1.78539        0.128049
LJ           1.80983        -2.23287         2.55252
LJ          0.829653        -2.23791       -0.842005
LJ           2.31351         2.25502           2.104
LJ         -0.484147         1.43551        0.229373
LJ           -2.0007     -0.00369408        -2.01307
LJ              -nan            -nan            -nan
LJ          -2.47915        0.211659         2.34281
LJ           1.78526        0.320071         2.50637
LJ         -0.846595      -0.0530463       0.0853741
LJ            1.3097         1.89095        -1.84735
LJ          -1.18861       -0.112765        -1.07127
LJ              -nan            -nan            -nan
LJ              -nan            -nan            -nan
LJ         -0.441225         2.56044        0.914806
LJ              -nan            -nan            -nan
LJ         -0.760543        -1.43219        0.425399
LJ         -0.434152        -1.87284        0.380309
LJ          -1.43392       -0.749078        0.821015
LJ          -1.37345        -1.91931       -0.533958
LJ          -0.10609        -2.41302      -0.0656647
LJ           -1.3007        -2.27945       -0.872309
LJ         -0.865232       -0.724672        0.623504
LJ         -0.381727         2.14346      -0.0278484
LJ          -2.47389         1.62007        -1.75282
LJ           -2.3643        0.987563       -0.494585
LJ          0.525188         1.95656        0.150193
LJ         -0.560647       0.0471103        -2.55104
LJ              -nan            -nan            -nan
LJ          0.134929         1.64827       -0.351219
LJ              -nan            -nan            -nan
LJ          0.878156         1.13837        -2.48255
LJ          -1.27604       -0.499667         1.72579
LJ          0.684918        0.304662        0.460021
LJ           1.22034       -0.765558        -1.03415
LJ           2.02661        -1.22032          1.1082
LJ         -0.728952        -1.07818        -1.64048
LJ           1.26866        0.257416        -1.93151
LJ           -1.6768       -0.425264         2.32566
LJ           2.45434        -1.55445        -1.84494
LJ          0.634317        -1.83046        -1.13275
LJ         0.0485695        -1.52119       -0.830009
LJ         -0.345492         2.14253         2.15092
LJ          -2.19688        -1.98107       -0.203496
LJ         -0.900773        -2.40399        0.264348
LJ          -2.34446        -1.81134       -0.736601
LJ          0.057608       -0.193478       0.0700844
LJ          0.172478       -0.714995        0.448918
LJ              -nan            -nan            -nan
LJ           1.09999        -1.51997         2.46171
LJ         -0.614387         1.75714        -1.14244
LJ           2.37989        -1.87289        0.412624
LJ          -1.78044         1.58687         1.66516
LJ           -2.1001         2.24515        -1.50475
LJ           2.07467       -0.593684        0.308979
LJ           2.44785       -0.135096       -0.726954
LJ          -2.47628         2.08468         2.05414
LJ         0.0133047        0.141038        0.777217
LJ           -2.2962       -0.962479        -1.55952
LJ            1.0198        0.503878       -0.871617
LJ         0.0168183       -0.650711        -2.04829
LJ            2.0739        0.877045        -1.75759
LJ          -1.65947       -0.720801      -0.0625695
LJ              -nan            -nan            -nan
LJ           1.31486          2.1209         2.37493
LJ          -1.11166        -1.27695        -2.47025
LJ         -0.942928          1.0028        -1.43397
LJ           -2.3518        0.451723         1.95725
LJ          -1.31914        -2.02665        0.889721
LJ           2.24537       -0.695121        0.658086
LJ        -0.0164305           2.166        0.807712
LJ          0.592965         1.61841        0.391535
LJ          -1.01507       -0.058569        -2.07942
LJ         -0.992586       -0.309007         2.04642
LJ           2.54288          1.8128         2.29235
LJ          0.707899         1.94734        0.135765
LJ            -1.839          1.2548        -2.03003
LJ           1.60847       -0.232315         1.09338
LJ           -0.3908        -2.52723         1.32004
LJ           2.40837         1.69716       -0.786107
LJ          -1.12463        -1.66782        0.311583
LJ          -2.53172        -1.19919         1.24596
LJ           -0.3726        -2.39426       -0.802733
LJ         -0.978837       -0.159809        -1.10938
LJ          0.181509         1.92072        -1.30835
LJ          -2.50498       -0.127516        0.266861
LJ              -nan            -nan            -nan
LJ           1.02565        0.178605        -1.92033
LJ       3.87355e-05      -0.0161059       -0.554152
LJ          0.580439       0.0306892         1.59774
LJ         0.0614944         -1.8566        0.521893
LJ           1.91797         1.22719        0.257344
LJ           1.58419        -1.10022        -1.24267
LJ           2.24222        -2.49429       -0.831852
LJ           1.09841        -1.42888       -0.755863
LJ           1.57844         1.67065        -2.20077
LJ           2.02009       -0.242194       -0.991999
LJ          -2.15881      -0.0623838        0.311669
LJ           1.57257        -1.35689       0.0565291
LJ          -1.46042       0.0575784        -2.10363
LJ           1.08575         2.15436          -1.675
LJ          -1.46158        -1.12611        -2.26468
LJ          -1.59612        -2.22958        -1.62116
LJ              -nan            -nan            -nan
