108
#Comment!
LJ         -0.519314        -2.10613        -1.64107
LJ          0.921107        -1.97365         1.77751
LJ           1.59486         1.74637        -1.21179
LJ          -2.27291         1.54648         2.15689
LJ           1.30939         1.84303       -0.670317
LJ          0.257245        0.465416        -0.79741
LJ          -2.26792        0.404118         2.31449
LJ         -0.967661         1.91105         1.75419
LJ           1.39071      -0.0560229       -0.378001
LJ          -2.46794         2.32337         1.10326
LJ              -nan            -nan            -nan
LJ         -0.293986        0.530092        -1.28048
LJ           2.20275        -2.12687         -2.0424
LJ          -2.01719       0.0376348      -0.0137362
LJ            2.3804        0.266697        0.762394
LJ          0.498342       -0.310915        0.992531
LJ              -nan            -nan            -nan
LJ              -nan            -nan            -nan
LJ           1.62776         2.41966        -2.36125
LJ              -nan            -nan            -nan
LJ           2.42787        -2.37531         1.25694
LJ          -2.01024          2.4523       -0.577136
LJ           1.82704        -1.44778         1.92966
LJ           1.28088       0.0172772        -0.77101
LJ          0.364645         2.49637        -1.26369
LJ           2.15639       -0.263951       -0.458431
LJ         -0.801177         1.65491         1.16594
LJ          -2.14719          1.9388        -1.61812
LJ          -2.18373        0.344494        0.837408
LJ          -2.40612         1.33694         0.42326
LJ          -1.51162         1.33668        -1.23849
LJ           2.51557       -0.483976     -0.00366881
LJ              -nan            -nan            -nan
LJ          -1.53968       -0.183597         1.77608
LJ              -nan            -nan            -nan
LJ           2.11677         1.26336        0.558143
LJ          -2.53008         1.33588       0.0890519
LJ           1.71096       0.0860281        -1.34307
LJ          -1.87748         2.10251          2.3874
LJ           1.54371         2.52172        0.248508
LJ          0.393231        -1.83478        -2.35784
LJ           1.94672         2.51087        -2.44363
LJ            2.1241         1.45641         1.42867
LJ           1.80509       -0.635656         2.33781
LJ          -1.82841       -0.689978        0.236087
LJ          0.388276         1.58727       -0.716658
LJ          0.386173       -0.643863        0.841855
LJ          -1.08851        0.890629        -2.08388
LJ           1.57279         2.35686         2.55032
LJ          -2.21433          1.9676       -0.417595
LJ           1.24771        0.549835        0.216252
LJ           1.29697         1.84518        0.751844
LJ              -nan            -nan            -nan
LJ          -1.41874        -1.99756         1.67178
LJ         -0.419473         2.18463         2.04555
LJ          -1.84464        0.310435        -0.84624
LJ          -2.06191        -2.38108        -1.48179
LJ           1.20169        0.359004        0.208091
LJ           2.47986         1.40765        0.663343
LJ           2.43503       -0.523905       -0.660097
LJ           2.29982       -0.197835       -0.950297
LJ          -1.57954        -2.07325        -2.28454
LJ          -2.53046        -1.00862        0.807907
LJ          0.393374        0.186788        -1.24726
LJ           2.53483        -2.30176        -1.72181
LJ         -0.390882        0.753067        -2.22316
LJ           2.08632        -2.41837        0.597109
LJ              -nan            -nan            -nan
LJ         -0.678282       -0.378602          1.7307
LJ           1.99912       -0.782844        -1.31219
LJ          -2.43993        -1.41735       -0.776149
LJ         -0.886135        0.534882       -0.941086
LJ          -1.95427        -1.37332         1.56485
LJ         -0.958363         2.38175         1.03401
LJ           1.76329         2.34403       -0.922175
LJ          -1.57155       -0.698494        0.834346
LJ          -2.39885       -0.340365        0.645217
LJ           1.20805         -0.1827        -0.85202
LJ          -1.29737        -2.31802         2.44386
LJ          -0.24296         1.92686        -1.60479
LJ            -2.081        -1.50151         1.25333
LJ           1.42868        -2.16486       -0.653626
LJ          -1.95815        -1.08486       -0.961221
LJ          -2.54237        0.779065        -1.19199
LJ           1.56621         1.82333         1.81872
LJ          0.833824         1.94628        -2.49532
LJ          0.941007        0.118629        0.882471
LJ         -0.152487         1.25879        -1.16348
LJ          -1.31585        -1.59242         1.13061
LJ           1.80512        -1.83082         1.89493
LJ              -nan            -nan            -nan
LJ           -2.1747        -1.76043         1.33884
LJ          -0.74379        0.317619         2.34354
LJ          -1.78762        0.657079        0.853786
LJ           1.19762        -1.70907       -0.170264
LJ          -2.03121        0.350165          1.6612
LJ          0.278829    -0.000986152        0.947794
LJ           1.29537         1.38199        -1.57183
LJ           1.12481       -0.130994        -2.25121
LJ           1.99348         1.19337         2.45401
LJ          -0.21349       -0.688331         -1.9942
LJ          -2.15429         2.24168        -1.28598
LJ          -2.07989         1.55799         0.15847
LJ         -0.947175         2.23126        -2.51392
LJ          0.167293        -2.19823        -1.04813
LJ          -1.13473         2.28445        -1.26458
LJ         -0.498671         2.39667       -0.487659
LJ              -nan            -nan            -nan
