108
#Comment!
LJ         -0.495476         1.30239        -2.01508
LJ          0.970056        0.356232        0.331885
LJ           -1.3128        -2.34947        -2.01855
LJ           -1.9197        -1.76485       -0.621066
LJ          0.847428        -1.98382      -0.0795731
LJ          -1.22332         1.39358       -0.919579
LJ          0.752127        0.183698        -1.72655
LJ          -2.28307       -0.209732         2.07868
LJ            2.0848        -1.81453         1.38443
LJ          0.653669        -2.48772       -0.498491
LJ              -nan            -nan            -nan
LJ          -2.01034        -1.28847         0.98843
LJ           1.29765        0.436923         2.07888
LJ              -nan            -nan            -nan
LJ         -0.234382        -1.66387        -1.35887
LJ              -nan            -nan            -nan
LJ              -nan            -nan            -nan
LJ              -nan            -nan            -nan
LJ         -0.930369        -1.68108        -2.31862
LJ              -nan            -nan            -nan
LJ          0.918715         -0.2074        -2.32573
LJ          0.496873        -2.05981         0.17726
LJ            1.8499        -1.98662        -1.79575
LJ              -nan            -nan            -nan
LJ          0.162925         1.74378        0.172222
LJ           2.18091        0.617192       -0.435637
LJ          0.663035         1.84907       -0.406332
LJ          -2.09202        -2.29427         2.45585
LJ          0.760896        -1.93206         2.30942
LJ          0.201516       -0.593524       -0.824437
LJ              -nan            -nan            -nan
LJ          -1.64218       -0.905621        -1.61913
LJ              -nan            -nan            -nan
LJ          0.305099        -1.24939         2.39196
LJ              -nan            -nan            -nan
LJ          -2.26911         2.39131        -2.07704
LJ           1.51525       -0.331965         2.55168
LJ          0.010881          1.3473        -1.01962
LJ          -2.54683         0.46418       -0.480434
LJ           1.20989       -0.166152        0.588027
LJ          -1.80435         -1.5634         1.29778
LJ          -1.24116        -1.41296        -1.53557
LJ         -0.341748         1.44324        -2.35548
LJ         -0.482586        -2.12641         2.34343
LJ           0.90485         1.92182        0.401073
LJ         -0.180629        0.980573         1.73767
LJ          -1.70481         -2.5102       -0.691489
LJ           2.36866       -0.744595        0.640309
LJ           2.01131         1.67854         0.46317
LJ          -2.06306        -2.22604        -2.17057
LJ          0.753169       -0.976711         1.33964
LJ          0.149581        0.779324       -0.323006
LJ              -nan            -nan            -nan
LJ          0.745638        0.112062         2.26596
LJ           1.96227        -0.16757       -0.686285
LJ         -0.145815        -1.69667       -0.914127
LJ          -1.55735         1.56642         1.62295
LJ          -1.29007         2.21744         2.47447
LJ         -0.800389        0.179774       -0.828114
LJ           1.43935         -2.3782         2.28056
LJ          -2.30145        0.215137       -0.968801
LJ          0.812741       -0.648824       -0.704261
LJ          -2.14506        -2.29079         1.25627
LJ              -nan            -nan            -nan
LJ              -nan            -nan            -nan
LJ           1.34209        -1.22791       -0.692691
LJ          0.399129          2.4766       -0.598423
LJ              -nan            -nan            -nan
LJ          -2.07735        -1.38683         1.71862
LJ          0.692366       0.0336563         1.45597
LJ          0.462842         1.89419        0.655032
LJ          -2.36127         1.09364         1.99232
LJ         -0.897297        0.827981       -0.229746
LJ         -0.444964         1.41817        -2.42791
LJ           1.13458        0.214538         1.17098
LJ          -2.46761         1.32727        -1.71085
LJ           -1.1546         1.86651        0.554769
LJ          -2.40227       -0.170292         2.36583
LJ           2.29222          2.4369       -0.590682
LJ           2.04494         2.09945         1.38098
LJ        -0.0659629         2.20528        -2.38275
LJ         -0.672041         2.14999      -0.0318267
LJ          -1.12866       -0.185584         1.93069
LJ          -1.49499       0.0638203        0.364508
LJ           2.24107         2.13149         1.12254
LJ           2.21975       -0.111721         2.54762
LJ          -2.05511         1.93556       -0.804471
LJ          0.141352         1.94372       -0.671447
LJ          -1.75651         0.20285       0.0851202
LJ           2.43799       -0.288243         1.02415
LJ              -nan            -nan            -nan
LJ          0.047495        -1.78032        -2.20794
LJ            1.6534        0.228981      -0.0840426
LJ          0.962229         1.11541         1.58313
LJ           1.14654         2.04256       -0.882093
LJ         -0.260405      -0.0621636        -1.52997
LJ            1.9481        -2.29572          1.7424
LJ           1.50542       -0.263496         1.79231
LJ              -nan            -nan            -nan
LJ           1.10282         1.37526         2.37092
LJ           1.13152         2.13532        0.699716
LJ         0.0921248        0.877911        0.966119
LJ           2.47979        -1.27436      -0.0611173
LJ           -1.8491        -1.22594         1.79222
LJ              -nan            -nan            -nan
LJ           1.02127         -1.1229       -0.569022
LJ           0.87244       -0.290914        -1.22002
LJ              -nan            -nan            -nan
