108
#Comment!
LJ           1.72146          1.5023        -0.69901
LJ          -1.10212         1.15782         1.61773
LJ         -0.196587        0.478193         2.00746
LJ          0.496865         2.20239         2.26616
LJ          0.424519       -0.331034        0.515424
LJ          0.231741         1.96138      -0.0927717
LJ           1.90958         0.24127        -1.72469
LJ           2.56188        -1.15415        -1.21977
LJ          -0.72931        0.300602         1.87859
LJ         -0.467446         -1.2507        -2.55169
LJ              -nan            -nan            -nan
LJ         -0.742146         1.62507        0.156292
LJ          0.929788        -1.31501         1.18657
LJ              -nan            -nan            -nan
LJ          0.986643       0.0489561       -0.866304
LJ              -nan            -nan            -nan
LJ              -nan            -nan            -nan
LJ              -nan            -nan            -nan
LJ          -1.26692         1.56912         2.43351
LJ              -nan            -nan            -nan
LJ          -1.95465       -0.603886         1.85452
LJ           2.15013         1.85537         0.78961
LJ         -0.988734       -0.492763        -0.50274
LJ              -nan            -nan            -nan
LJ          0.284048          -1.777        -2.53302
LJ          -2.11622         1.84369         2.55371
LJ           0.58409        -1.20158          -1.165
LJ         -0.924251       -0.437017         1.76721
LJ          0.268036        0.631011       -0.674974
LJ           1.45267         1.18798        -2.41577
LJ              -nan            -nan            -nan
LJ           2.28722        -1.90105        -1.78493
LJ              -nan            -nan            -nan
LJ           -1.8498       -0.663433         1.81962
LJ              -nan            -nan            -nan
LJ         -0.416935       -0.218756        -2.51968
LJ         -0.252228         2.32105        -2.03904
LJ        0.00189535         2.46903        -1.00552
LJ           1.31466         1.61302       -0.856056
LJ           -2.2149        -1.64386        -1.61927
LJ          0.216369         2.35321       -0.448872
LJ           1.53154         1.31763        -2.27464
LJ         -0.197838        -1.63581        -1.43357
LJ           2.49548        -2.20036         1.43814
LJ          0.225103         1.09546         2.13105
LJ          0.691185        -2.24723       -0.680685
LJ          -2.56067        0.360169         2.03212
LJ           -1.6279         1.26227         -2.2002
LJ           -1.0286        -1.40894         -2.5102
LJ          -1.69887         1.67012         2.01512
LJ          -1.62537         2.12993         1.06957
LJ          -1.73506        -0.72314          2.3411
LJ              -nan            -nan            -nan
LJ          -1.68652         1.26689         1.77259
LJ           2.49059        0.851331         1.71815
LJ          -1.90692         0.59422         2.21387
LJ          -1.10856       -0.304381        -1.58306
LJ          -2.32613       -0.880143         1.02308
LJ          0.564978        -1.69379        0.675496
LJ          -1.44898       -0.310802        0.409228
LJ           2.40191        -2.32715        -1.26661
LJ           1.91183         1.54663         1.05327
LJ          -1.15356      -0.0628632         1.16223
LJ              -nan            -nan            -nan
LJ              -nan            -nan            -nan
LJ         -0.241696        -1.30374     -0.00361199
LJ           2.37037        -2.07414        -1.69384
LJ              -nan            -nan            -nan
LJ           1.45553        -1.42818        0.723723
LJ         -0.644018       -0.227155       -0.399246
LJ          0.212922         -2.4037        -1.36031
LJ          -2.16501        -2.24288        -0.67809
LJ           1.61889        -1.84078        0.343654
LJ          -1.08318        -2.16966         1.83265
LJ          -1.02287         1.70514       -0.747346
LJ          -1.14033        -1.67488        0.332598
LJ          -2.47617       -0.297514         1.32215
LJ          0.916452        -1.24326        0.057139
LJ           2.24775        0.978953       -0.846609
LJ        -0.0409367       -0.769894        -1.28273
LJ           1.40211         2.32342         1.71565
LJ           0.98921        0.178944       -0.235235
LJ         -0.493349        -1.98323       -0.545407
LJ           1.22724       -0.696904       -0.859101
LJ         -0.159067       0.0922927         0.69589
LJ          -2.16879         0.96918        -1.53646
LJ          0.437031       -0.884126         2.23645
LJ          -1.28243         1.70066        -2.42164
LJ           1.97394        0.547097         2.19951
LJ         -0.327826         1.22607       -0.628605
LJ              -nan            -nan            -nan
LJ         -0.749063        -1.53458        -1.98295
LJ         -0.398553        -1.08742         1.67616
LJ           1.38056         2.25893        -2.42961
LJ          0.960639        -0.36009        0.281384
LJ          -1.52771         1.99002        0.145768
LJ           1.79396         1.62628        -2.22995
LJ         -0.419564         2.42779       -0.480528
LJ              -nan            -nan            -nan
LJ           2.47661        -2.42242        -1.58158
LJ         -0.293389       -0.235591        -2.10232
LJ         -0.579118        -1.50308         1.43368
LJ         -0.493853        0.761155        0.794789
LJ          0.651662        -1.77982        0.384477
LJ              -nan            -nan            -nan
LJ         -0.201913        -2.53616         1.40161
LJ          0.318093        0.360879         -1.6507
LJ              -nan            -nan            -nan
