108
#Comment!
LJ          0.493275         0.97926        0.726362
LJ         -0.308474         2.26063        -1.40933
LJ          0.140301       -0.431936         1.57097
LJ          0.937369        -1.97979        -1.63276
LJ           2.36676          1.0576        -1.99652
LJ          -0.54797        -1.07594         2.46904
LJ          -1.13892        -1.84024        -2.25157
LJ          0.636498      -0.0829258        -2.13252
LJ          0.113749         1.43459        -2.40671
LJ           1.25148        -1.36936         1.44125
LJ              -nan            -nan            -nan
LJ          0.506814         1.51685        0.765554
LJ         0.0560178         1.37585       -0.298877
LJ              -nan            -nan            -nan
LJ          0.678949        -1.37074         -1.7165
LJ              -nan            -nan            -nan
LJ              -nan            -nan            -nan
LJ              -nan            -nan            -nan
LJ          0.982501          2.5556       -0.555273
LJ              -nan            -nan            -nan
LJ          -1.61111         1.20102       -0.295365
LJ          0.535997        0.396952        -1.91504
LJ         -0.139495        -1.71254         1.20404
LJ              -nan            -nan            -nan
LJ            1.3483        -1.31283         1.04646
LJ          -1.27066        -1.15801        -1.40414
LJ          -1.56747      -0.0361873        0.216698
LJ          -1.79149         1.48832         -0.6668
LJ          0.545478        0.574538        -1.82934
LJ          -2.43018        -2.12157         1.79443
LJ              -nan            -nan            -nan
LJ           1.07859       -0.451101       -0.136692
LJ              -nan            -nan            -nan
LJ         -0.800122        -1.87358        -1.34672
LJ              -nan            -nan            -nan
LJ          -1.98685         1.32772        -2.34435
LJ          -1.47236        -1.81291        0.314027
LJ           -1.2909        -1.73279       -0.440385
LJ         -0.342549          2.0278          1.6939
LJ           -1.6991        0.950667         1.50312
LJ          -1.98733        0.104676        0.991205
LJ          -2.26188         0.73705        -1.81795
LJ           -1.9162        0.657672        -1.43471
LJ          -2.41564         0.71405         1.50176
LJ          -1.59941       -0.301538         1.05816
LJ           1.72584        0.923738       -0.494929
LJ          -1.47613         1.91068         -1.2561
LJ          -2.32071        0.280583        -1.62927
LJ          -2.05915         2.37879        -1.51463
LJ          -1.25154        -2.14323         -1.4193
LJ          -2.39052         1.60736         0.57013
LJ          -0.20833         1.55602        0.727883
LJ              -nan            -nan            -nan
LJ          0.468438        -1.96325          2.4129
LJ         -0.301163         1.72478         2.10511
LJ           2.05655          1.5545         1.10282
LJ         -0.410351          2.2012      -0.0123642
LJ          -1.94354        -2.37015         2.50174
LJ           1.64295         1.98815         2.32168
LJ          -1.68389        -1.21861       -0.682562
LJ          -1.21167         1.50213       -0.956439
LJ          -1.74751        -2.26335         1.16348
LJ           1.37264        0.362323        -2.31556
LJ              -nan            -nan            -nan
LJ              -nan            -nan            -nan
LJ          -2.23597        -1.77445        -2.43904
LJ           1.53748       -0.837496       -0.241922
LJ              -nan            -nan            -nan
LJ           2.39027        -1.77933        0.226756
LJ           -1.5617         2.27568        0.788003
LJ           2.15096         1.51971       -0.846987
LJ           1.15121         1.59806        -1.96864
LJ           -1.1465        -2.39943        -1.43814
LJ          -1.19575       -0.265865        0.750994
LJ          -1.70472      -0.0742787        0.145827
LJ          -2.26137        -1.46864        -1.18103
LJ          -2.26045        -1.72607        -1.14281
LJ          -1.29192        0.702429        -1.05743
LJ           1.50356      -0.0966244         2.20122
LJ          0.488679         1.11665        -2.54739
LJ          0.496329        -2.55522        0.857189
LJ         -0.414409       -0.854625        0.416733
LJ          -1.10454        0.945248         1.02041
LJ         -0.707394       -0.967396        -1.33891
LJ          0.374654         1.06023          1.0355
LJ          -2.35341        -2.35015         2.01492
LJ          -1.77243         1.85683        -1.45287
LJ          0.561737         1.34303        0.340013
LJ          0.553573         1.99978       -0.699165
LJ          -2.48625        -1.50873        0.930164
LJ              -nan            -nan            -nan
LJ         -0.279689        -1.80968        0.731635
LJ         -0.678675        -1.84805         1.57028
LJ          0.711343        -2.05463       -0.646006
LJ           1.32955        0.856409        0.447778
LJ          0.783259         1.43126         1.53415
LJ          0.142853        0.472716         2.41592
LJ           1.44694       -0.355817        -1.66383
LJ              -nan            -nan            -nan
LJ          -2.43588        0.403166        -0.11489
LJ           1.59706         2.37092         1.94966
LJ        -0.0459361         2.29921          2.0159
LJ         -0.796779        0.180115         1.73933
LJ          -1.87668         2.44172        -1.01976
LJ              -nan            -nan            -nan
LJ         -0.787367        -2.21288        -1.44242
LJ         -0.605548        0.221998       -0.984667
LJ              -nan            -nan            -nan
