108
#Comment!
LJ           2.16266        0.652236         1.00952
LJ          -1.18884        0.957688       -0.999027
LJ          -1.02879        -1.33917        0.131248
LJ           1.39876       -0.992551         2.22764
LJ           2.37138        -1.80043        0.556497
LJ           1.84801         2.53791        0.471411
LJ          0.892311        0.328549       -0.887932
LJ           1.96793        0.930329        -1.56403
LJ         -0.545129         1.66803         -1.2986
LJ        -0.0359283       -0.741076        -1.50491
LJ              -nan            -nan            -nan
LJ         -0.720749         1.15904         0.77089
LJ           1.78692        0.270303        0.734608
LJ           2.24925        -1.11099       -0.527116
LJ          -1.91547        -1.53377        0.155952
LJ          0.160192         1.50148        0.759541
LJ              -nan            -nan            -nan
LJ              -nan            -nan            -nan
LJ           2.49177        -1.09665         2.07571
LJ              -nan            -nan            -nan
LJ           -1.4448        -1.09693        0.139744
LJ          -1.61254        -2.44058         1.71293
LJ         -0.503657         2.52755        -2.05049
LJ        -0.0295088         1.17718       0.0646117
LJ           2.33307        -1.08688          1.7793
LJ           1.91197         2.46887        -1.85394
LJ          0.307978        0.416664        0.285474
LJ          0.266748         2.34075         1.77842
LJ          -2.30292        0.950148        -2.49707
LJ         -0.353375        -2.36014       -0.405599
LJ           1.74421         2.38088        0.390617
LJ         -0.620805        0.500032        0.376809
LJ              -nan            -nan            -nan
LJ           1.90781        -1.68806        -1.12215
LJ              -nan            -nan            -nan
LJ           2.06359        0.717242        -1.21895
LJ           1.04368        0.101648          2.1457
LJ          0.789212        -2.30905        -2.22522
LJ          0.543603       -0.712816        -2.14111
LJ          -1.43186        -2.41485        0.127765
LJ          -1.65795         0.46693        -2.51195
LJ          0.223533          2.3209         1.83441
LJ           2.05826        0.710169         1.23556
LJ          -1.46491         2.28136        -1.99398
LJ           -2.4379        -1.89521       -0.881574
LJ           2.43435        0.947235        -1.67997
LJ          -1.47473         1.27048       -0.737885
LJ           1.57698         1.82134         1.88204
LJ         -0.190366         -2.0889       -0.763069
LJ          -1.35613        -1.09133        -1.69531
LJ           1.45551        -0.73078        0.158245
LJ           1.03943         0.36598       -0.911435
LJ              -nan            -nan            -nan
LJ           1.89064          2.3068        0.989464
LJ          0.840871        -1.66255        0.285568
LJ          -1.66282        -1.72318         1.85188
LJ           1.92453         1.23703        -1.31425
LJ           1.16262       0.0491723         1.39037
LJ         -0.939594         2.11817        -2.04471
LJ           2.13552         1.95813        -1.09895
LJ           1.66633        -2.10222         1.23247
LJ           -2.0744        -2.08494         -2.4626
LJ         -0.457015          2.1771        -1.48642
LJ          0.846583        -1.78353       -0.127222
LJ          0.782222        -1.24911         2.52824
LJ         -0.675097       -0.251456        0.249526
LJ          -2.52652        -1.22737         1.18779
LJ              -nan            -nan            -nan
LJ          -1.18824         -1.3299        0.347349
LJ           2.52507         0.76468        0.572219
LJ           1.59139         1.54921          -2.408
LJ         -0.891748        -1.99142       -0.606814
LJ         -0.948549        -2.22026        0.187245
LJ          -0.11808         -2.1662        -0.88964
LJ          0.498363        -2.39572         2.14174
LJ          0.242904         -1.9732      -0.0675255
LJ           2.01023       -0.144486        -2.39668
LJ          -1.56961         1.09457        0.659774
LJ          0.829173        -1.27036         0.11819
LJ         -0.349516         1.51283       -0.137527
LJ         -0.625137        -2.13296       -0.178158
LJ          -2.40341         1.90844       -0.420412
LJ         -0.739651        0.244354         1.81996
LJ          0.867436      -0.0131478         1.10397
LJ          0.422101       -0.843673           1.513
LJ          -1.93274        -1.48075         1.44897
LJ         -0.315443        -1.89412         2.36264
LJ           1.81468         0.92614       -0.628797
LJ          -1.14766       -0.330736        -1.52788
LJ          0.537107         1.48624        -1.57645
LJ              -nan            -nan            -nan
LJ        0.00220163         2.55324       -0.474028
LJ           2.02981         1.08129         1.32884
LJ            2.4219        -2.38112        -1.35639
LJ         -0.880343        -1.06881          2.3729
LJ            1.3779       -0.810565        -2.21409
LJ         -0.343979         1.81456         1.99016
LJ          0.087768        -2.10155         0.32352
LJ           1.43232        -0.32189        -2.53211
LJ           2.17197        -2.54713      -0.0938961
LJ           2.11108         -1.8854        -1.95115
LJ           2.36305         1.16462        -1.69509
LJ         -0.143087         1.07843        -1.42472
LJ         -0.421278         1.40109        0.521414
LJ         -0.318141         1.55919       -0.497768
LJ          -2.12804         2.29655        -2.19939
LJ           1.77997        -2.54764        0.619532
LJ              -nan            -nan            -nan
