108
#Comment!
LJ           1.03565         1.18885         1.51595
LJ          -1.56645        -1.49924        -1.25286
LJ           -1.0089         1.61514         2.36589
LJ          -2.37127       -0.908819        -1.34401
LJ           1.75391        -1.28804        -1.31256
LJ           1.64102        0.335741        -0.94181
LJ         -0.535005        0.379539         2.37198
LJ          -2.39099       -0.530946         2.25661
LJ           1.50085         2.18694       -0.407219
LJ          -2.12845        -2.10182       -0.868432
LJ              -nan            -nan            -nan
LJ           1.47234        -1.67524       -0.109399
LJ         -0.449837        -1.83351         2.27454
LJ              -nan            -nan            -nan
LJ          -1.79223        -1.59688       0.0942667
LJ              -nan            -nan            -nan
LJ              -nan            -nan            -nan
LJ              -nan            -nan            -nan
LJ           1.77283        -1.40016       -0.915759
LJ              -nan            -nan            -nan
LJ          -2.08663         1.15708        -2.20725
LJ          -2.42445       -0.126688         1.71402
LJ           2.46819        -0.71727         2.38082
LJ        0.00662716         1.88162         1.85928
LJ          -2.21846       -0.751874         2.47993
LJ         -0.494908      -0.0971243        -1.40771
LJ         -0.715673         2.26934           1.505
LJ           1.17439        -2.37865        -1.55114
LJ          0.543117        0.691567        0.288948
LJ           0.79126        -1.04682        -1.04821
LJ           1.00286      -0.0228398       -0.787195
LJ           -1.5692         1.05748        -1.91323
LJ              -nan            -nan            -nan
LJ          -1.86993        -2.50018        -1.30887
LJ              -nan            -nan            -nan
LJ            1.0271           1.083        0.562931
LJ          0.998956        -2.36186        -2.15436
LJ          0.793608       -0.214434       -0.339997
LJ          -2.14325       -0.223001        -1.19248
LJ          -1.03193        -1.25548         0.91296
LJ         -0.364083      -0.0828286         0.31471
LJ          -0.38808        0.454987        -1.12765
LJ          0.213594        -2.53709       0.0186503
LJ          -1.15636         1.96497        -1.56081
LJ          -2.11584         1.08213        0.558099
LJ          -0.21799         1.89343        0.660689
LJ          -2.05971       -0.826698         -1.1085
LJ          -1.90255       -0.458908        0.571513
LJ          -1.14276        0.477437       -0.248082
LJ          0.550029         2.02519         1.83584
LJ          -2.35833        0.512805         1.92838
LJ           -2.1478        -1.08583       -0.345918
LJ              -nan            -nan            -nan
LJ          -2.24928       -0.162516         -2.4215
LJ           1.71437        -1.90047       -0.853308
LJ          0.096624        0.951307         1.23166
LJ           1.87181         0.87256        -1.07445
LJ         -0.699661        0.413597       -0.903859
LJ           1.53689         0.21408        0.282031
LJ         -0.750219          2.2376         2.45523
LJ          0.929772        -1.03467        -1.80036
LJ         -0.245204         0.16579         2.00343
LJ           0.76388        0.337499       -0.305949
LJ          -1.78375         -1.1679       -0.911475
LJ           2.04872         1.36988        -2.14626
LJ           1.80842         1.90683      -0.0813011
LJ         -0.178545         1.11076         1.50686
LJ              -nan            -nan            -nan
LJ          -2.06259        -1.72213       -0.918573
LJ         -0.564112       -0.822598         1.27841
LJ          -1.33045        -1.65602       -0.880755
LJ           1.89122       -0.092457        -2.44829
LJ          -2.32372        0.960994        -1.46175
LJ          -1.83817          0.4599        -1.15228
LJ           2.25457         1.04375       -0.934861
LJ           1.31579       -0.718783        0.804992
LJ          -2.26616         2.43259       -0.561695
LJ          0.652693        -1.81171        -1.77485
LJ           1.45358        -2.39184         2.51185
LJ         -0.729798        -2.22755         1.14748
LJ          -2.44975        -1.16228       -0.453385
LJ           2.18257       -0.366107        -2.25886
LJ          -1.65905          0.4263         2.03396
LJ          0.403587        -1.64317         1.25055
LJ        -0.0843134        -2.04274        0.663576
LJ           0.95821      -0.0221683       -0.522647
LJ          0.217921         1.12588       -0.978693
LJ          -1.76507         1.68709         2.00679
LJ           1.48172        0.778461         1.46498
LJ          0.308993        -2.27438       -0.227991
LJ              -nan            -nan            -nan
LJ           1.97035        -2.13169       -0.711747
LJ          -1.84332        -1.14641         1.02395
LJ          0.250123       -0.166199        -2.24884
LJ          -2.24553       -0.741054         1.10661
LJ           1.53378        -2.16683        0.979022
LJ           2.26104        0.107905        -2.55314
LJ          -1.39343       -0.732799         2.16081
LJ              -nan            -nan            -nan
LJ           1.30882        -1.20186        0.321121
LJ          -1.50054        -1.87056        0.621038
LJ          -1.22306       -0.636052         -1.9549
LJ          0.641111        0.642171        -1.41712
LJ            -0.407       -0.379951        -1.72494
LJ              -nan            -nan            -nan
LJ          -1.91445         1.34728        0.727838
LJ          -1.67197      0.00929009        0.201298
LJ              -nan            -nan            -nan
