108
#Comment!
LJ         -0.833449        -2.39377        -1.70437
LJ           1.00387        0.815259        -2.01254
LJ         0.0467538        -1.96662        0.219253
LJ       -0.00125315        0.989684        -2.03719
LJ           1.40534        -0.43416        -1.54133
LJ         -0.795647       -0.111337         1.29826
LJ          -1.08604      -0.0165696         2.41872
LJ          -1.35793        -1.36678         1.72247
LJ          -2.12721       -0.606234        0.596665
LJ         -0.708568         1.20527         2.07631
LJ              -nan            -nan            -nan
LJ           2.17093        0.506432        0.542491
LJ          -2.22899        0.162684        -2.28567
LJ           0.59091         1.93385         1.00163
LJ           2.02021        -1.54411      -0.0465896
LJ           2.22661        0.874174         1.39037
LJ              -nan            -nan            -nan
LJ              -nan            -nan            -nan
LJ           1.89569         1.05282         1.00797
LJ              -nan            -nan            -nan
LJ           1.75657         2.45045        -2.24491
LJ          0.903274        0.959289        0.464073
LJ         -0.142326        0.885952         1.00157
LJ           -2.1946        -1.26017        0.991373
LJ          0.360532      -0.0481396        0.302021
LJ           -1.5258        0.544026        -2.19264
LJ           2.36623        0.955935        -1.50707
LJ           1.58194        -1.89571         -1.5114
LJ          0.174386       0.0667239       -0.500966
LJ           2.09364        -1.83009        -1.19544
LJ          -1.19888         2.37183        -1.92312
LJ           1.89127        -1.05335        -2.09229
LJ              -nan            -nan            -nan
LJ          -1.77238        -2.34694        -1.14433
LJ              -nan            -nan            -nan
LJ         -0.593346        -1.61781        -2.51555
LJ          -1.29484        0.683049        0.514669
LJ           1.51638         1.09046         1.93527
LJ          0.304599       -0.313597          1.2753
LJ           1.22727         1.76635        -1.14886
LJ          0.122373        -2.26399         1.77741
LJ           1.72282       -0.439051        -1.84106
LJ         -0.581262        0.534047       -0.829211
LJ          0.115688         1.75064        -2.11317
LJ          -1.91573       -0.838847        -1.46757
LJ           0.47711        -0.29133        -1.94471
LJ           1.52121        -1.73624        -2.50771
LJ           2.20515        -1.30825        -2.23045
LJ          0.342299       -0.587568        0.632599
LJ           1.83835         2.00611       -0.760374
LJ          -1.72116         -2.3481        -1.66983
LJ        -0.0730237        -1.93603        -1.06415
LJ              -nan            -nan            -nan
LJ          -1.47552        0.426045          1.9217
LJ          -1.92309        -2.46434       -0.793978
LJ         -0.898362         1.87086        -1.33111
LJ          -2.14889         2.04299        0.485236
LJ          -2.12523          1.8052       -0.985791
LJ         -0.385449        -1.03814         1.22396
LJ          -2.41601        0.991252       -0.284635
LJ          0.234817         -2.0436       -0.681602
LJ           -1.8849       -0.407675         1.45654
LJ           1.31546       -0.373214        -0.56313
LJ           1.25637        -2.03966        -1.93706
LJ           -2.2167         1.56762        -1.00185
LJ           1.45309      -0.0221247         -1.9607
LJ          -1.97599         2.35997        0.569313
LJ              -nan            -nan            -nan
LJ          -2.35199       -0.539161         1.38386
LJ           -2.1328         1.68037        -1.21019
LJ         -0.426781        -1.21431       -0.536505
LJ           2.28478        -2.40977        -1.49664
LJ           1.73309         1.18866        -1.97861
LJ          -1.16764        0.685163       -0.964022
LJ           -1.3265        0.990254        -1.92263
LJ           1.77046       -0.687498        -1.51134
LJ          -1.88579        -1.53327        -2.17015
LJ           1.45321         1.37415        -1.86655
LJ          -1.72844        0.278029         -1.6029
LJ          -1.96813         2.43681        0.704184
LJ           1.01154         2.32374        -1.18199
LJ           2.48435        -2.54709         -1.3086
LJ           2.17872          1.5337        -1.98656
LJ           1.33969         1.97679        -2.28082
LJ          0.273653         2.42775        -1.23999
LJ           2.39116        -1.40196        0.389462
LJ         -0.742388         1.90889       -0.812768
LJ          0.555804        0.153423         1.49895
LJ           2.51959        -2.21705         1.46915
LJ        -0.0852767       -0.387236         2.38254
LJ              -nan            -nan            -nan
LJ         -0.583987         2.04304        -2.40626
LJ          0.173525        -2.27598       -0.897734
LJ         -0.266542         2.04332        0.538738
LJ         -0.224138        -2.38732         1.80234
LJ          0.728997        -1.86137         2.05691
LJ          -1.67051        -1.39851        -1.98726
LJ          -1.33151       -0.475062         0.46621
LJ          -1.68968         1.89298         1.31089
LJ           1.27767         2.39248         1.38397
LJ         -0.303984        -1.84099         2.23827
LJ           2.25165         2.31389        -1.36062
LJ         -0.169786        -1.00814         -1.9622
LJ           -2.3856        -2.31507       0.0860052
LJ           2.14987         1.49146        -1.61659
LJ         -0.389272        0.347373         1.62808
LJ          -2.04379        -1.79849       -0.395969
LJ              -nan            -nan            -nan
