108
#Comment!
LJ          -1.01362       -0.682593         1.24685
LJ          -1.15723        0.629765         1.24998
LJ          -1.23195         1.29607       -0.813145
LJ          -1.88676         2.11574         1.29382
LJ          0.659149         1.44141        0.994404
LJ           1.51644         2.30894         1.04186
LJ          0.857245         2.02013        -1.34281
LJ          0.351307        0.745441       -0.401267
LJ          -1.15361        0.638196        -1.52347
LJ           2.27595         0.56344         2.39136
LJ              -nan            -nan            -nan
LJ           2.42591        -2.45663       -0.467456
LJ           2.06939        0.167393         2.50421
LJ              -nan            -nan            -nan
LJ           1.32595         2.14255         2.55977
LJ              -nan            -nan            -nan
LJ              -nan            -nan            -nan
LJ              -nan            -nan            -nan
LJ          0.421734        -2.56071        0.866354
LJ              -nan            -nan            -nan
LJ          -1.21044         1.65681        0.847392
LJ          0.796701       0.0191285        -1.43613
LJ          0.474197         1.94946         1.34139
LJ              -nan            -nan            -nan
LJ          -1.60485        -1.19063          1.4785
LJ          0.103539         2.24951        -1.05866
LJ           1.17186       -0.687841        -1.11307
LJ          0.546792         1.83302        0.520413
LJ         -0.733274        -0.47079        -2.13125
LJ          -2.30544       -0.946305         1.51414
LJ              -nan            -nan            -nan
LJ          -1.91616        -1.41572       0.0929744
LJ              -nan            -nan            -nan
LJ           -1.7431        0.885281        0.363373
LJ              -nan            -nan            -nan
LJ           1.02421       -0.783412       -0.384201
LJ          -2.55591        0.513419       -0.926393
LJ         -0.789682        -1.99961        0.303592
LJ           1.45692       -0.986701        0.496569
LJ          -1.52576        -2.46435       -0.848699
LJ          -0.95771        0.589347        -0.45366
LJ          -2.06214        0.943763        -1.16067
LJ          -0.13802       -0.989952        0.288448
LJ           1.66809        -0.76132       -0.342365
LJ         -0.195005         1.17509       0.0534317
LJ           1.09306         1.21724         1.91515
LJ          0.690331         -1.9898        -1.04234
LJ          0.132675        -2.52511       -0.205038
LJ           1.74002         1.86175        0.722114
LJ          0.812666        -1.28052       -0.714266
LJ          -1.91739         1.90956        -1.46908
LJ         -0.330641        -1.81789        -2.29081
LJ              -nan            -nan            -nan
LJ            1.4071         1.16303          1.2404
LJ          -1.22457         1.72923         1.22537
LJ           1.91554         1.47263        0.991249
LJ         -0.900077         1.66102        -2.49064
LJ          -2.35876        0.417034         2.38024
LJ          -1.35202       -0.632977         2.03972
LJ           1.02059        0.934378         2.39054
LJ         -0.900012        0.390734         1.00249
LJ           1.74646         2.15906       -0.943939
LJ          -2.38373         1.40513         1.77417
LJ              -nan            -nan            -nan
LJ              -nan            -nan            -nan
LJ          0.533493         1.88057        0.367594
LJ          -2.55868         1.42707         1.15486
LJ              -nan            -nan            -nan
LJ         -0.769062         2.04467         -2.4344
LJ          -1.63286         2.45428         2.46339
LJ            -1.097         2.26679        -2.10592
LJ         -0.863833        0.112794        -1.87899
LJ           2.10124        0.166048          1.9053
LJ          0.923896       -0.453039       -0.938362
LJ          0.108885         2.55868       -0.104969
LJ          -1.62545        -1.37917         1.32121
LJ           1.67209        0.461943        0.991512
LJ           1.21459         2.12812        -1.96025
LJ            2.5495        -2.53194        -1.17849
LJ          0.925171         2.21826        0.259547
LJ           1.82104         2.17122         1.48877
LJ         -0.850725        0.494103         2.48153
LJ           1.37057        0.702038         1.21763
LJ            1.1148        0.470066         1.78205
LJ           -2.2206        0.557159        -1.39084
LJ          0.600447         1.36969       -0.176611
LJ           -1.8258        -2.24318        0.144792
LJ          0.409556        0.694783       -0.298117
LJ          -2.25784        -2.17937        -2.45805
LJ           1.96882       -0.259802        -2.48033
LJ              -nan            -nan            -nan
LJ          -1.85739        -0.82379         1.27794
LJ           -1.1151         1.26369        0.742985
LJ          -1.72297        -0.69957          0.1787
LJ          -1.99442        -1.31722         1.68455
LJ          0.845373         2.17516        0.385094
LJ         -0.411826         2.33993       -0.197294
LJ          -1.67235       -0.535484        0.320712
LJ              -nan            -nan            -nan
LJ         -0.201979         -2.1604       -0.302987
LJ         -0.219171        0.498878        0.304254
LJ           1.26145         1.22371        -1.13499
LJ          0.631618        -2.30191        0.621547
LJ         0.0963282       -0.210377       -0.532883
LJ              -nan            -nan            -nan
LJ          0.110044         2.33298        -1.73011
LJ          -1.46495        -1.01179        -1.57602
LJ              -nan            -nan            -nan
