108
#Comment!
LJ           1.95756        -2.42366         -1.5584
LJ           2.40153        -2.20331         1.86708
LJ         -0.523345         2.42263        0.117848
LJ         -0.263968         2.56066         1.32638
LJ          0.702594       -0.507889        -1.95897
LJ          0.920477        -1.23484         2.50352
LJ         0.0972252         1.81315        -1.25934
LJ          -2.37899       -0.221641        -1.06199
LJ         -0.940813       -0.640321         1.16181
LJ         -0.136141         1.37538         2.36455
LJ              -nan            -nan            -nan
LJ        -0.0514994        -2.15248        0.568572
LJ         -0.167191        -1.05103        -1.64043
LJ           1.33564        -1.41432        -1.41871
LJ         -0.465529         2.39542         2.51309
LJ           1.18116        -1.25868        0.618463
LJ          -1.50624         1.22262         1.26732
LJ          -1.02899        0.298248         -2.1655
LJ          -2.56216        -2.36415        0.467744
LJ           2.30405        0.795153        -1.11576
LJ           1.45525         2.35783         1.93922
LJ         -0.475008        -0.10108        -2.42902
LJ           2.09649        0.378134         1.05746
LJ           2.06683         2.13434         1.72444
LJ         -0.199329         0.35519       -0.651859
LJ         -0.220681        -2.01372       -0.329992
LJ         -0.201189        0.820173       -0.819495
LJ          0.449718         0.85404        -2.46874
LJ           1.53813         1.33906        -2.07491
LJ         -0.500131       -0.377366       -0.483728
LJ          0.454313        0.784878         2.47757
LJ         -0.582927        -1.91306        -1.85422
LJ              -nan            -nan            -nan
LJ          -1.09316        -2.39427         1.55154
LJ              -nan            -nan            -nan
LJ          -1.56992        0.851255        -1.23282
LJ           1.90996        0.570196        -2.27106
LJ          0.936957        -1.25282       -0.605996
LJ            1.5475         -1.0322         2.34011
LJ          -1.45965        -1.74634        -1.88869
LJ          -2.04565        -2.10687       -0.654113
LJ            2.4382        -1.61907       -0.538077
LJ          0.140769         2.56204       -0.197526
LJ          -1.72948         -2.0669       -0.680644
LJ           2.21648        0.472528        -2.24762
LJ          -2.13623       0.0584432        0.785147
LJ           1.28011        -1.57075      -0.0515866
LJ          0.169117         2.28548        0.769201
LJ         -0.956012       -0.745264        0.140967
LJ           0.63967         2.19568         2.52306
LJ          -1.94399        0.500505        0.680967
LJ          -1.20164         2.26097         2.33305
LJ         -0.691657        -1.13903         2.30624
LJ          -1.69011          -2.307         1.86489
LJ           2.53184       -0.438064      -0.0106751
LJ           2.14012       -0.779046        0.959009
LJ           1.82279         1.81049        -1.41463
LJ          -1.63949        0.121915         1.88663
LJ          -1.74768        -2.02781        0.513353
LJ             2.226         1.68042       -0.955725
LJ         -0.345465         1.51957       -0.214145
LJ          0.460399        -2.52045         -1.3879
LJ          -1.78593         2.22559        -1.41768
LJ         -0.805512         0.67868        -1.40889
LJ          0.317826        -2.41099         -1.2145
LJ         -0.205382        -1.90055         2.54428
LJ          -2.06037       -0.437866         1.85004
LJ              -nan            -nan            -nan
LJ           1.53754         1.65729       -0.681658
LJ           1.16217        0.634467       -0.968852
LJ          -2.22615        -1.08615       -0.618476
LJ          -2.17358         2.27822        -1.25312
LJ          0.467531        -1.15067        -1.14455
LJ           1.02514       -0.675773        -1.39213
LJ           1.50677        -1.89975         1.62609
LJ           1.36037        -1.72809        0.548633
LJ        -0.0617769       -0.572968         2.50736
LJ          -1.33913       -0.877915         2.11653
LJ         -0.826302         1.38932        0.841918
LJ           1.85122       -0.100209        -1.16603
LJ           2.18465         1.81611         1.82893
LJ           2.39829        -1.93842        -1.84966
LJ          0.404393        0.555729        -1.80983
LJ          -2.09102       -0.951392       -0.459419
LJ         -0.337999        -1.99947         1.19097
LJ         -0.129971       -0.021138         -2.1168
LJ         -0.994747       -0.456181       -0.345461
LJ          -1.01149        0.963237         2.22333
LJ           1.49492        0.375589        0.754085
LJ          -1.89826         -1.0078         1.98851
LJ          0.198131        -2.36175         1.60845
LJ            1.9219        -2.42048        -2.55053
LJ          -2.50548        -1.15361         2.01176
LJ         -0.786535        0.114209        -2.55574
LJ           1.07856         2.35057       -0.564102
LJ          -2.31299         1.05762         1.19904
LJ           2.12028        -0.29464       -0.576011
LJ         -0.651378        -2.06823         1.07983
LJ           2.06219        -1.09517        -2.00971
LJ          0.731216         2.52858         2.50167
LJ         -0.602725         1.19672          -1.826
LJ          -1.25712         1.16036         0.68514
LJ          -1.18406         2.31278         2.48066
LJ        -0.0586104        0.525126         -2.2583
LJ          0.164221        0.604701        -1.84836
LJ           1.41805         1.12525        0.539069
LJ           1.57208        0.617516        0.736607
LJ          -1.65762      -0.0457571          1.4103
