108
#Comment!
LJ           1.45613       -0.491512        0.793047
LJ           -2.4555       0.0812206          0.1611
LJ           1.31563        -2.06946        -2.24326
LJ         -0.361779        -2.37559         2.11686
LJ         -0.644092        -1.89769          2.2605
LJ          0.565997        -1.17147        -0.95298
LJ           2.13141       -0.239262        -2.41941
LJ          -1.11714         1.44707         0.11808
LJ          0.193887        0.186302        -1.94637
LJ          -0.25073       -0.783969       -0.240406
LJ              -nan            -nan            -nan
LJ          -1.47107         2.44472         0.78179
LJ           1.13986       -0.724827        -2.48354
LJ         -0.266265        -2.53548         1.83578
LJ           1.35989         1.13962         2.26806
LJ           0.77438        -1.72035        -1.23086
LJ           -1.8245         1.90095         -1.0333
LJ          0.362023       -0.704766         1.00505
LJ           1.67696        0.150064          1.2636
LJ          -1.27231        -1.33707        -1.14688
LJ           1.88208       -0.652352        0.559619
LJ           2.12159         -1.5119       -0.944045
LJ          -2.43865       -0.230373       -0.642937
LJ          -1.10968        -1.08579       -0.939467
LJ          -2.43529       -0.166047         0.96705
LJ        -0.0575833        -2.01221        -1.66116
LJ           1.22501       -0.405591        -1.37101
LJ          -1.70415        0.470191         1.59939
LJ          0.165269         2.35354        -1.82069
LJ           1.38424         1.73993        -1.07227
LJ          -1.18374        0.970706        -1.25512
LJ         -0.836812        -2.17948        -0.31366
LJ              -nan            -nan            -nan
LJ         -0.160515         1.08915         2.36583
LJ         -0.872778         1.96408        -1.29996
LJ          0.437395         2.37741       -0.516633
LJ         -0.957656       -0.237872        -2.06542
LJ          -1.82343        0.384456       0.0707927
LJ          0.875513         1.55222         1.53102
LJ           1.86039         2.20369          -1.183
LJ          -2.43025         1.50878        0.967898
LJ          0.242332         2.25451         2.45198
LJ           1.34677       -0.157283        0.836737
LJ         -0.155678         2.44878        -1.79781
LJ           1.73503        0.131672        -1.62987
LJ         0.0800565         1.23646         2.16943
LJ           1.45349        0.166109        -1.61024
LJ           1.08257       -0.151789         1.61157
LJ          0.513946       -0.215906        0.276425
LJ           1.44979        0.829335        -2.21207
LJ          -1.03113        0.549238      -0.0247208
LJ           2.38854        -2.05141         1.30539
LJ          0.181976         2.11426        0.561523
LJ          -1.28802       -0.380963        -1.33314
LJ          0.468135        0.461123         -2.5154
LJ          0.693272       -0.427513        -1.48048
LJ           1.89578       -0.184082        0.396648
LJ         0.0727057        -1.53237         1.26109
LJ              -1.3         2.20063      -0.0388034
LJ           2.13714         1.84683        -2.30831
LJ         -0.803138        -1.32525         2.24374
LJ          0.605086      -0.0582754         1.27777
LJ           -1.8567        0.289502        -1.64617
LJ          -1.23881       -0.967798        0.582517
LJ          -1.85234         1.12015        -2.17481
LJ           1.28771         1.11759       0.0294787
LJ           1.14907        -1.58484         1.95413
LJ          -1.98307         1.59943       0.0546814
LJ         -0.771631        -2.55133       -0.838889
LJ         -0.884072       -0.606479        -1.84709
LJ           2.38875       -0.328303        -1.67982
LJ         0.0273324        0.895536         1.25736
LJ          -2.36664        -1.71735         1.41605
LJ           1.05176         1.48456        0.911193
LJ          0.540196         2.23172         1.58432
LJ          -1.75094         2.32953        -1.47003
LJ           1.06787         2.35308        0.154063
LJ            2.1118       -0.966061        -2.35985
LJ           -0.3897        0.297317         1.42969
LJ          -2.12812         2.08094      -0.0340862
LJ           1.90011       -0.399091       -0.107503
LJ          -1.16493         1.20339        -1.83785
LJ         -0.329582        0.298987         1.00552
LJ          -1.02889        0.365698        0.052408
LJ           1.86918       -0.289601         2.21379
LJ           1.55825         2.47444         1.99223
LJ           1.03588         0.26569         1.83933
LJ           -2.4958       -0.206917        -2.26463
LJ         -0.586058       -0.687036        0.491776
LJ         -0.342727       -0.709471        -1.58433
LJ           1.88749        -1.14169       -0.268462
LJ           1.29588        0.385576       0.0947422
LJ           1.26002        -1.10123        -1.17093
LJ          -1.72451        -1.43947         2.06848
LJ          0.908768        0.736918         1.23906
LJ           1.49982        -2.31793       -0.436732
LJ           -2.4599         2.20231        -0.42224
LJ          0.808018         2.44004          2.3654
LJ          -1.88172         1.59818       -0.641846
LJ          -2.30042         2.17005         1.07563
LJ          -1.76948        -1.98333         2.28502
LJ           1.41952        -2.23267        0.763805
LJ           2.53817         0.24334       -0.300279
LJ          -1.94719          2.0939       -0.146193
LJ          0.898282       -0.351406         1.11123
LJ           2.28974        0.207949       -0.469941
LJ          0.106763        -1.01846         2.11473
LJ           0.15825        -1.16566         1.39262
