108
#Comment!
LJ           2.22232       0.0555919        -1.77303
LJ          -1.13011        -1.88671         2.46832
LJ          -1.80068         2.12687         -1.3936
LJ           2.34529        -2.14617        -1.39435
LJ           2.30014        0.881536        -1.19149
LJ         -0.764368        -1.66109        0.959553
LJ          0.232005         1.65206        -1.53574
LJ           -1.8711        -0.43148        0.303089
LJ         -0.634593        -1.51364        -1.64225
LJ          0.578579        -1.10197       -0.215443
LJ              -nan            -nan            -nan
LJ         -0.805127         1.73782         2.22953
LJ           1.67835        0.578054        -2.51647
LJ           2.03402       -0.713464        -1.33728
LJ         -0.933397        -1.81481        -1.09532
LJ           2.48462         1.10489        0.506465
LJ              -nan            -nan            -nan
LJ              -nan            -nan            -nan
LJ           2.15639         2.56404        -0.99694
LJ              -nan            -nan            -nan
LJ          0.488699         1.94261        -1.15301
LJ           0.95537         1.12071        0.536207
LJ           -2.2903        -2.33719        0.448794
LJ          -1.42996         1.06087        -1.86538
LJ          -1.97006         1.21446         1.67074
LJ          -0.87098        -2.25435       -0.948874
LJ          0.367185        0.604537        -1.17201
LJ         0.0403445         1.04424       -0.892513
LJ           1.75593         2.53007         2.25169
LJ          -1.60804         2.51984       -0.289494
LJ          0.286794       -0.852145        0.789565
LJ            1.8483         1.67213        -1.36355
LJ              -nan            -nan            -nan
LJ           2.20049         0.69225       -0.614472
LJ              -nan            -nan            -nan
LJ           1.29857       -0.177093        0.182796
LJ           1.56973        0.451341       0.0208386
LJ          0.380276        0.722972       -0.624301
LJ           1.19274       -0.683889        0.936097
LJ          0.678543        -2.35734         1.73479
LJ           1.56732         1.91003        -1.53377
LJ          -1.18109      -0.0354081          2.1534
LJ           1.90937        -1.27064        0.994786
LJ           1.47929        0.164455         2.41208
LJ          -2.09343        -1.82547       -0.550917
LJ            1.1226        -2.51474        -1.63441
LJ         -0.810883         1.71849         1.71809
LJ            -1.131       -0.129387         2.32787
LJ          -2.47789        -2.02897       -0.836565
LJ           1.14793        -1.90852         1.49082
LJ          -1.81565        -0.77589        -1.93921
LJ          -2.54134        0.216069       -0.621819
LJ              -nan            -nan            -nan
LJ           1.82161         1.86972        -2.02864
LJ          -2.29136        -1.06011       -0.839584
LJ         -0.894547       -0.157061         1.27417
LJ          -1.74588       -0.149277         1.13921
LJ           0.55737        0.626138         2.06954
LJ           2.23708        0.643783        -1.38946
LJ          -1.24782         1.59638        0.438857
LJ           1.39137       -0.856106        -1.44226
LJ          -1.25155         2.54862         1.71566
LJ          0.581888        0.243056        -1.84308
LJ           1.05261        -1.39678        0.875996
LJ         -0.916451        -1.75192        0.138217
LJ          -2.13443       -0.642479         2.00164
LJ          0.729628       -0.349542        0.112723
LJ              -nan            -nan            -nan
LJ           1.87867        0.533353         1.65871
LJ          0.114426        -2.38359        -1.16872
LJ          -2.45356        0.423468        0.860359
LJ           2.04419        -1.46198        -1.89183
LJ           2.37101         2.15719        0.350391
LJ          -0.21459          1.8651        -1.90286
LJ          -1.47315       -0.201336         2.08365
LJ         -0.519144        -2.22039        -1.30959
LJ           1.84254         1.09306       -0.260484
LJ          0.911992       -0.702735         2.18087
LJ          -1.07301        0.876696        0.905719
LJ          -1.69622        0.751311        -2.22918
LJ         -0.481995        -1.34758        -1.87398
LJ           2.36837        0.457459        0.931622
LJ          0.665019        -1.71938        0.851495
LJ         -0.205786         2.27448         1.48266
LJ         -0.740445       -0.407168          1.8537
LJ          0.834444        0.245877       -0.505021
LJ           1.95265        -2.05272         1.75838
LJ          0.606407         2.09832       -0.216791
LJ          -2.09824        0.436306       -0.485997
LJ          0.736573         -1.7356        -2.37814
LJ              -nan            -nan            -nan
LJ          0.109052         0.71309        -1.18885
LJ          -1.33165         -1.0621       -0.678078
LJ          -1.59922        0.247357       -0.475195
LJ          0.997166        -1.74322          2.5036
LJ          -1.49946         2.33898        0.509546
LJ          -1.73033         -2.2034       -0.665046
LJ          -2.18789       -0.344134        -2.53089
LJ          -1.67208        0.812215        -1.20366
LJ             1.956        -1.14331        -1.81861
LJ            1.0821        -1.09223         -2.0932
LJ           2.52679       -0.844811        -1.81124
LJ           1.83584        0.293425       -0.689253
LJ          -1.76541       -0.649826       -0.972003
LJ         -0.748997        0.305562        0.721679
LJ           1.25491        0.827661        0.429633
LJ           0.16861        0.697823        -1.05395
LJ              -nan            -nan            -nan
