108
#Comment!
LJ           1.04288         1.91356        -1.64747
LJ          -1.24348         0.59572         1.84563
LJ            1.5838       -0.556559        -1.65039
LJ           1.57702        0.913984         1.46644
LJ          -1.87723        0.123588         2.46942
LJ          -1.92437         2.00483      -0.0433473
LJ         -0.121946        0.311989         -1.3648
LJ           1.13143         2.25239       -0.303229
LJ          0.345126         1.90033         2.29601
LJ          0.170671         1.98198          2.4572
LJ              -nan            -nan            -nan
LJ          0.700202         1.59993         1.74594
LJ          -1.56268        0.773713         1.84137
LJ           1.60849         1.71402        0.188498
LJ          -1.97775        -2.01353         1.94802
LJ           1.92102         1.26945        0.225302
LJ           2.15503       -0.881752        -1.51086
LJ          0.792047         1.31135       -0.795148
LJ           1.67034         1.24338         1.48296
LJ          -2.49469        -2.13272          1.3208
LJ           2.05479         2.45822        -0.96418
LJ           2.23172        -1.44474        -1.40417
LJ          -1.66199      -0.0473618        -1.37051
LJ         0.0706362       -0.360841        -1.35795
LJ        -0.0359623         -1.2396       -0.999391
LJ          -1.20212         2.02592        -2.25415
LJ           1.73936         -1.2622        0.550728
LJ           1.65546       -0.757542        -1.91198
LJ           1.22805         2.00164       -0.781697
LJ          0.617003       -0.763562         -1.1457
LJ          0.390651         2.10739        0.742948
LJ          -2.34835        0.849853       -0.905022
LJ              -nan            -nan            -nan
LJ           1.22924       -0.498124       -0.165437
LJ          -2.38593       -0.372256         1.80147
LJ           2.35508       -0.726358        0.177846
LJ          0.416172         1.68821       -0.996933
LJ         -0.715936       -0.449276       -0.418976
LJ          -1.91144         -1.4046        0.882945
LJ           -1.5253          1.8728       -0.108954
LJ           2.30781         1.75649        0.228349
LJ         -0.196948      -0.0740466        -1.52487
LJ           0.60901        -1.85599        -1.96039
LJ          -0.51944       -0.896469        -2.00179
LJ           2.44887         2.31984        0.424401
LJ           2.06112        0.158002         1.10589
LJ          -0.37996         1.55365         1.63094
LJ          -1.29068       -0.240773        -1.06906
LJ         -0.866629         1.64772         1.61226
LJ          -1.00958       -0.635635       -0.477405
LJ          -2.39817        -1.88926       -0.470554
LJ           1.50025        -2.53012        -1.96042
LJ           1.94369         2.54425        0.726592
LJ          0.224785        -1.46044         1.86121
LJ          -0.22302       -0.853828        -1.56337
LJ            2.2917         1.57302         1.25505
LJ          0.208989       -0.862646        0.482983
LJ          0.165237         1.38313       -0.762337
LJ          -1.86808      -0.0590319        -1.22324
LJ         -0.479407        -1.58481       -0.129136
LJ          -2.40945        -0.24659        0.721991
LJ           -0.8801         1.92488        0.317783
LJ          -1.57963      0.00925205        -2.14554
LJ           -2.4824         1.19083         1.15144
LJ         -0.659963        -2.19817        0.881036
LJ           1.16868        -2.22886       -0.582927
LJ            1.1176        -1.39262         2.11525
LJ          -1.59039        -1.60439         -1.0661
LJ           2.49407         2.16223        0.155452
LJ          -1.54221        0.808044         2.09889
LJ           2.33432        -1.53897         1.92305
LJ        -0.0477027         -1.4595       -0.291848
LJ          -1.32807        -1.40841         2.37736
LJ           -1.9506        -2.13439        -2.51196
LJ          0.191013       -0.118933        0.121443
LJ           1.59236         1.58982        0.159969
LJ           2.47138       -0.822802        0.228688
LJ         -0.598882         1.66248       -0.834629
LJ          -2.03022       -0.344982         1.19198
LJ         -0.610312        -2.15982         -1.1965
LJ          0.705434         1.73709         2.34907
LJ         -0.164969       -0.419488         1.36792
LJ           2.54506       -0.873025        0.179471
LJ           1.20384       -0.967174        0.450059
LJ          -1.84601         -2.3886       -0.240644
LJ           1.33714         -2.4299       -0.876348
LJ          -1.36346        -1.33081       0.0528105
LJ         -0.374432       -0.286937         2.28736
LJ          -2.33788        -2.17731         2.33627
LJ         0.0731124       -0.418244         2.29152
LJ          -2.39563        -1.88039         -2.5646
LJ            -1.224        -2.01911       -0.795397
LJ           2.06109         1.80466         1.78184
LJ          -1.63763         1.05943         1.76516
LJ           1.11208         0.22721       -0.621638
LJ         -0.278629        -1.36149         2.18378
LJ           1.68008      -0.0039669       -0.529947
LJ           2.12407         1.92405        0.817548
LJ            1.0012       -0.969749        0.517703
LJ         -0.788458        -2.19831        -2.21614
LJ           2.44745        -1.55739        0.477651
LJ          -1.83821       -0.658317        -1.17731
LJ        -0.0539818        0.299578       -0.591239
LJ         -0.276436        -1.22954        -1.74365
LJ          -2.46174       -0.597576        -1.91253
LJ           1.82246       -0.147342        -2.41732
LJ          -1.96352        -1.30145        -1.35449
LJ          -1.02369         2.16472         1.06884
