108
#Comment!
LJ         -0.558302         2.46291         1.52125
LJ          -1.41214        -2.04646         1.83936
LJ             -0.39        0.506234       -0.569106
LJ          0.192943        -1.21354          -2.159
LJ           0.10189        -2.14608          1.2826
LJ           1.88808        0.314269         1.06004
LJ          0.733857         2.31879       -0.160326
LJ           1.37114        -1.34173          2.2342
LJ          -2.31023        0.159414        -1.59469
LJ          0.981464         1.60346         2.30889
LJ              -nan            -nan            -nan
LJ          -2.50263         1.29905         1.63585
LJ         -0.788905       -0.264888         2.12125
LJ              -nan            -nan            -nan
LJ           1.15277         1.18373         2.20216
LJ              -nan            -nan            -nan
LJ              -nan            -nan            -nan
LJ              -nan            -nan            -nan
LJ          -1.42418         1.73102         1.14164
LJ              -nan            -nan            -nan
LJ           -1.7369        0.803397        -1.28058
LJ           -1.6219        0.875673        -2.51291
LJ           2.26204       0.0900787        -1.05344
LJ          -1.94308         1.00937        0.154618
LJ          -1.08116        0.338348        -1.30302
LJ         -0.206113       -0.504528        -1.75487
LJ          -1.43152       -0.159059        -1.15924
LJ          0.945002        -1.70775        -1.96928
LJ          0.777311       -0.190807       -0.112257
LJ           2.20577        0.962783        0.505171
LJ              -nan            -nan            -nan
LJ          0.916377       0.0779695        -1.69756
LJ              -nan            -nan            -nan
LJ           2.23043         1.71887       -0.192716
LJ              -nan            -nan            -nan
LJ         -0.406125         1.53452       0.0327798
LJ          -0.29382        0.614104        -1.50985
LJ          -1.66777        -2.17919       -0.976235
LJ          0.987211         -1.2765         1.88514
LJ          0.593522         1.58917       0.0236719
LJ          -1.45212       -0.749544        -1.24392
LJ         -0.362592       0.0173495         1.14595
LJ          0.121464         1.89672        -2.26514
LJ         0.0224752        0.292115        -1.82896
LJ          -2.06641        -1.63997        -1.83449
LJ          -2.51225        -2.45737        0.537076
LJ           1.02351        -1.43946      -0.0536666
LJ           2.50929        -1.50641         1.78413
LJ           1.39069         1.98683        0.572347
LJ           2.21789         2.45965         2.16512
LJ           1.48493     -0.00968192        -1.57861
LJ         -0.227615       -0.965213         1.48994
LJ              -nan            -nan            -nan
LJ           2.23886        -1.32812       -0.256028
LJ          -1.19165       -0.166544        -2.53866
LJ          -2.50973         0.95553         1.48738
LJ           2.15554         2.27331       -0.768531
LJ           2.14827        -1.37181         2.29902
LJ         0.0722568        -1.28805       -0.191466
LJ          0.611095         1.13274        -2.20419
LJ           1.83639         1.69321        -1.09909
LJ           2.48779        0.859687        0.102846
LJ           2.51926       -0.796506         2.28888
LJ         -0.694545        0.890409        0.100935
LJ              -nan            -nan            -nan
LJ         0.0708964        -1.77057          1.1986
LJ          0.881376        -1.47656        0.693305
LJ              -nan            -nan            -nan
LJ           2.15202        0.853478         1.50285
LJ           2.46591         1.51916         2.29553
LJ          -1.86105         1.83206        0.918668
LJ         -0.867693         1.07092        -1.12462
LJ           2.40226        -1.26839       -0.453956
LJ           2.56229        0.134457        0.358197
LJ           2.37506        -1.15141         2.45792
LJ         0.0528773        0.826907        0.969941
LJ          -1.49638        -1.32203        0.784878
LJ         -0.908088         1.53569        0.524738
LJ          0.187012          1.4218         1.74948
LJ           1.39131         2.50857         0.34977
LJ         -0.527698        -2.35111        -1.77214
LJ         -0.945394          1.8785        -1.70215
LJ           1.00913        -1.03457        0.755536
LJ          0.254731       -0.896554         1.94103
LJ           1.55707        -1.87975         2.24229
LJ           1.63024       -0.706642        -1.45853
LJ           1.55138        0.526833        -1.36744
LJ          0.852807         2.22295         1.39618
LJ          -1.56629         2.56048         1.37892
LJ           1.91357        0.564077       -0.750652
LJ              -nan            -nan            -nan
LJ           2.21615        -1.81497      -0.0293676
LJ         -0.431208        0.568428        -2.09926
LJ          -1.79963        -1.92229         1.58254
LJ         -0.477594        0.623077         2.28183
LJ          -1.28047        -0.97945       -0.732899
LJ          0.672758        -2.23477        -1.65481
LJ          -0.87909         1.90159       -0.163661
LJ              -nan            -nan            -nan
LJ          -1.82785        0.831878        0.929301
LJ          -1.58805        0.974358         1.97857
LJ        -0.0717586        -1.35345        0.124852
LJ          -2.12705        -1.57853       -0.656094
LJ           2.19015       -0.284073        0.822767
LJ              -nan            -nan            -nan
LJ           -1.7697       -0.759489       -0.692962
LJ          -2.40556         2.42064       -0.522077
LJ              -nan            -nan            -nan
