108
#Comment!
LJ         -0.781055         1.16439       -0.302244
LJ          -1.34171        0.242129        -2.38744
LJ           1.93509       -0.936457        -1.69851
LJ           -1.1603         1.33053        -2.06733
LJ          -1.51823        -1.76474         1.55386
LJ           1.06479        -1.66796        0.320792
LJ           -1.0607         1.51334         2.51509
LJ          0.605392        0.500008        -2.55621
LJ         -0.972551        -1.77617        0.900227
LJ         -0.805639       -0.580834       -0.547091
LJ              -nan            -nan            -nan
LJ          -1.54164      -0.0265415         1.94773
LJ          -1.64458        0.150285        -1.55631
LJ          -2.40583        -2.55622        -2.20801
LJ         -0.699634         2.19034         -1.9004
LJ           2.36624         1.89292         1.95729
LJ          -1.11897        -2.24901         2.52387
LJ         -0.467518         -2.3642        0.918354
LJ           2.40392       -0.677874       -0.567785
LJ          -1.34466         1.25968         2.22325
LJ         -0.623756        -1.80736        -1.80004
LJ         -0.483939        0.133867        -1.06089
LJ          -2.44129       -0.913232         1.96933
LJ         -0.651535       -0.873062        -2.17667
LJ           -1.7073         2.54304         2.55016
LJ            1.4309       -0.257421        0.122401
LJ          -1.48953         1.63383         1.02019
LJ         -0.508449          1.7434        0.781061
LJ           2.53009         2.50533         1.34164
LJ           1.18934       -0.355328         2.32529
LJ            1.5515       -0.248499       -0.637788
LJ          -1.78018       -0.315323        -1.97069
LJ              -nan            -nan            -nan
LJ            1.6422       -0.879346        -2.44113
LJ              -nan            -nan            -nan
LJ         -0.570097         2.30777       -0.200461
LJ          -1.52862        0.491938        -2.53895
LJ           0.38474        -1.27325       -0.900369
LJ          -1.19116         0.90442        -0.45574
LJ          -1.66571        -1.71263         1.50161
LJ         -0.245552        -1.71253        -2.29494
LJ          0.313587        0.616979         -2.1499
LJ           2.33708        0.367858        -2.05823
LJ          -1.93355         1.45125         -1.9865
LJ          0.341002          1.9322         1.74252
LJ          -1.84687         2.01723       -0.911817
LJ          -1.47022        -2.11538       -0.305741
LJ           2.37627       -0.747538        -1.39155
LJ          0.737549        0.510287       -0.314914
LJ          -2.55598       -0.786815         2.55506
LJ           1.89337        -2.40283        -1.29989
LJ         -0.312337        -1.96294       -0.780208
LJ          0.441427         2.37319        -2.53905
LJ          -2.05648        0.907923        0.212695
LJ           1.40282         1.58106        0.894281
LJ          -2.02424         2.38144         1.47981
LJ          -2.12807        -1.06802        0.356516
LJ           2.01486       -0.342475        0.906879
LJ           1.46921      -0.0196182        -1.50746
LJ           1.62687        -2.01857         0.14149
LJ            0.6149        -1.01036         1.37138
LJ           1.44321        0.723623         2.41385
LJ          0.946968         1.52843         1.98209
LJ          -2.53577       -0.764124        -2.42684
LJ         -0.872706        0.604004         2.02367
LJ         -0.719037        -0.51695         1.23477
LJ           -1.8219         1.55886        0.230738
LJ              -nan            -nan            -nan
LJ          -1.16041       -0.739522         1.98704
LJ        -0.0200533        0.152705        0.481177
LJ           1.76179        0.114493         1.60242
LJ          -1.61368        -1.66803         -1.6957
LJ           0.82767         2.01319       -0.433695
LJ           1.59771       -0.697162        -1.58634
LJ          -1.54581        -2.34523         2.20884
LJ         -0.953616       -0.575445        -1.52662
LJ           2.33651         -1.9047        -1.62608
LJ          0.837757       -0.530186        -2.17935
LJ         -0.278089        0.243168         1.80696
LJ           2.36083         2.26246         1.93967
LJ           2.37668        -1.09047        0.508854
LJ           1.94469        -1.65803        0.475639
LJ           0.52124        -1.87915        -2.55146
LJ          0.154104         1.81813       0.0604404
LJ          0.778396       0.0304415         0.36845
LJ          -1.00074        0.183761         1.80786
LJ         -0.704157        0.579608         2.26787
LJ          -2.17769          1.2695         1.18722
LJ           1.30085        0.835815       -0.162947
LJ          0.729695        -1.83892         2.31299
LJ          -1.17436      -0.0273456        -1.48961
LJ           1.57271          1.8675         0.07715
LJ          -1.50758        0.590498          2.1929
LJ          -2.05245        -1.51353       -0.989486
LJ          -2.19897        -2.09844       0.0799565
LJ          0.441905            1.06         1.60151
LJ           0.15976       -0.258983        -0.97225
LJ           1.23784         0.07501        0.689975
LJ          0.643885         2.12006        0.265791
LJ         -0.967964        0.442719        0.751068
LJ           1.66109       -0.766668        -1.00402
LJ           1.91651         0.61435         2.43758
LJ          -1.60886       -0.394962       -0.865539
LJ          -1.89463        -1.26231       -0.426278
LJ          -1.98723        -2.49263       -0.453348
LJ         -0.252475         2.41111         0.25924
LJ          -1.30495       0.0938065        -1.58661
LJ          -1.70345         1.79554        0.702237
