108
#Comment!
LJ           2.21107        -1.15303         2.43745
LJ         -0.441403         1.13169        -1.15179
LJ          -2.18133       -0.711805        -0.75515
LJ          -1.37607       -0.117731        -1.04339
LJ          0.249387         2.53862        0.171409
LJ         0.0956952         1.76903           1.159
LJ         -0.316168        -2.15286        0.114039
LJ          -1.71199        0.647081         1.50126
LJ         -0.503238         2.27247         1.11696
LJ         -0.013447        -2.49941         1.73298
LJ              -nan            -nan            -nan
LJ          0.355188        -1.34561         2.41674
LJ            1.7776        -1.80506         1.86678
LJ              -nan            -nan            -nan
LJ           1.41689        -2.13609        -2.16324
LJ              -nan            -nan            -nan
LJ              -nan            -nan            -nan
LJ              -nan            -nan            -nan
LJ          0.305506        -1.99285       -0.768575
LJ              -nan            -nan            -nan
LJ          -1.01457       0.0374236        0.413731
LJ          -1.21401         1.46883       -0.817879
LJ          -2.15612         2.35324        -1.00232
LJ          -1.69112        -1.46039        -2.50684
LJ          0.536325          1.5835        -2.18653
LJ           2.14038       -0.208653         1.69845
LJ          -1.95044         1.63985       -0.102625
LJ           1.42066        -1.44678        0.472416
LJ          -1.50031       -0.526641       -0.566611
LJ           1.40369        -1.96116         1.69673
LJ              -nan            -nan            -nan
LJ         -0.311922        0.993217        0.236852
LJ              -nan            -nan            -nan
LJ           -1.5072       -0.305872        0.223409
LJ              -nan            -nan            -nan
LJ           -1.1167       -0.530572        -1.86521
LJ          -1.03981         -2.4738        0.468198
LJ        -0.0559692        -2.54025         1.52312
LJ           2.17357         2.46129      -0.0728483
LJ          -1.64045        -1.21495        0.305207
LJ          -1.09261        -1.87458         1.82895
LJ           2.42113         2.37555        -2.10581
LJ          0.587835       0.0776751       -0.101829
LJ           1.82149        0.915986         1.86376
LJ         -0.508733          -2.161        -1.76276
LJ         -0.653451        0.357662        0.191314
LJ          -2.48988        -0.26285         1.57354
LJ          0.299152         2.17672         1.16364
LJ          -1.83521        -1.15571          2.4728
LJ         -0.884727       -0.603762        0.678642
LJ           1.68259        -2.14812        0.823879
LJ           2.14361        -1.12886         2.27783
LJ              -nan            -nan            -nan
LJ          -1.55199         2.42353        -1.34722
LJ         -0.636695         2.36028        -2.15088
LJ          0.208258        0.708149       0.0138429
LJ           2.02102         1.13996       -0.523265
LJ           2.14471        -1.36504        -2.00574
LJ          -1.42721        -0.49403        -1.89117
LJ           1.97481        -1.87332        0.785756
LJ          -2.08366         2.08588         2.53639
LJ         -0.327267        -1.33616        0.816238
LJ          0.775614        -2.37463        -0.96715
LJ          -2.31778       -0.512912         0.39314
LJ              -nan            -nan            -nan
LJ        -0.0246452        0.988169       -0.862514
LJ          -1.20969         2.33304       -0.887812
LJ              -nan            -nan            -nan
LJ          -1.81295       -0.911865         2.35006
LJ          0.800004        -2.38381        0.138344
LJ          -1.61859        -1.09845       -0.825096
LJ           -1.7084        -1.72201        0.665835
LJ          -1.83514         2.44863       -0.818642
LJ           2.08036       -0.394415       -0.403967
LJ          0.573915        -1.71506       -0.931855
LJ          -1.75989        0.213117       -0.381569
LJ          -2.47839         -2.3053       0.0480445
LJ           -1.7112        -0.86063        -1.04233
LJ          -1.90521         1.02822         2.47435
LJ           2.09413         2.01923       -0.544451
LJ          0.131496        -1.62397        0.952189
LJ           1.10596       -0.762906        -1.01095
LJ        -0.0438831        -1.63828       -0.465129
LJ           1.79498        -1.62069        0.673796
LJ          -1.22224        0.902192        -1.00071
LJ          -2.24466        -1.62902        -2.21342
LJ          -1.20194        -2.25789        -1.70831
LJ          0.641872        -1.00569        -2.10386
LJ         -0.792644        0.534816       -0.745613
LJ          -2.27706         1.42132         1.28595
LJ              -nan            -nan            -nan
LJ          0.442678         2.56055         -2.1329
LJ          -2.04256       0.0295255        0.824855
LJ         -0.682606         1.22987         1.67799
LJ          -1.81964        -1.20591        -1.84118
LJ          -2.24213        0.123444       -0.992457
LJ           2.41213        0.262339        -2.19648
LJ           0.93053        -2.19288       -0.508488
LJ              -nan            -nan            -nan
LJ         -0.546699         2.44303       -0.441362
LJ         -0.586072        0.501781        -1.55061
LJ           1.40953        -2.30342           1.152
LJ           1.03736        -2.03839         1.14638
LJ         -0.390619       0.0969962        -1.69429
LJ              -nan            -nan            -nan
LJ           1.98156         0.15599        0.224535
LJ         -0.607817      -0.0521754       -0.205713
LJ              -nan            -nan            -nan
