108
#Comment!
LJ          -1.32292       -0.789162         2.16777
LJ           1.83155        -1.79704        -1.07293
LJ           0.65761        0.522076        -2.03622
LJ          -1.43649         1.22171          1.8016
LJ          -1.69384         2.34955        -1.97958
LJ           1.21872         1.09924          2.4195
LJ         -0.652135        -2.41566          2.4139
LJ          0.640284        -1.92862         1.81492
LJ          -2.32474         1.68255        0.998407
LJ          -2.38486       -0.596627         2.26373
LJ              -nan            -nan            -nan
LJ           1.81523           2.227          2.3814
LJ          -1.24024        0.910166       -0.874737
LJ              -nan            -nan            -nan
LJ          -2.50359       -0.676498         2.45979
LJ              -nan            -nan            -nan
LJ              -nan            -nan            -nan
LJ              -nan            -nan            -nan
LJ           2.27906        -1.83256        -1.36251
LJ              -nan            -nan            -nan
LJ          -2.11362         1.44236         2.26854
LJ          -1.78564      -0.0562512       -0.648729
LJ          -1.53433      -0.0414993         2.10441
LJ              -nan            -nan            -nan
LJ         -0.491082         1.89505        -2.04558
LJ         -0.822488         1.47617        -2.20624
LJ           1.43966        0.650237        0.590743
LJ          -1.72203       -0.164532        -1.97995
LJ         -0.164105        -1.60842        0.389568
LJ          0.232688       -0.723811        -1.12169
LJ              -nan            -nan            -nan
LJ           1.53091        -1.20202        0.985713
LJ              -nan            -nan            -nan
LJ         -0.548885         1.78533       -0.610898
LJ              -nan            -nan            -nan
LJ          -1.38161        0.479841       -0.391321
LJ          0.210018         0.55125        -1.04883
LJ           2.25266       -0.781285         2.48574
LJ         -0.967882        -2.42227         1.22802
LJ          -1.19526        -1.31199        -2.00525
LJ          0.556644        -1.77271         1.90118
LJ         -0.112745        0.853954         2.28904
LJ          -2.34261       -0.752681       -0.361817
LJ          -2.08437         2.13667        0.120464
LJ          -1.12929        -1.04182        0.413768
LJ          -2.08202         2.31763          0.4736
LJ          -1.71015        -1.83377         2.12987
LJ          -2.22699       -0.759741        -2.28775
LJ         -0.904408        0.261796        -1.50833
LJ            1.9794        -1.97916        -1.14175
LJ         -0.467311        0.821933       -0.217262
LJ          -1.65996         -1.2908       -0.621713
LJ              -nan            -nan            -nan
LJ          -2.05503       -0.444868       -0.128818
LJ          0.707315        -1.91262        -1.57459
LJ          -2.55097         2.25407      -0.0999178
LJ           1.37425         2.45187        0.780506
LJ           1.61966        -2.26859        -1.21748
LJ        0.00158664         1.22616        0.358603
LJ            1.5155        -1.96023        -0.33597
LJ          -1.55937        0.808219       -0.910339
LJ            2.4666        0.718553       -0.131211
LJ         -0.469778         1.91438        -1.60309
LJ              -nan            -nan            -nan
LJ              -nan            -nan            -nan
LJ          -1.78826        0.527593        0.770602
LJ           1.17093          2.1371         1.89742
LJ              -nan            -nan            -nan
LJ          0.300758         1.20326         1.75332
LJ         -0.088832         2.46369        -1.45646
LJ          -1.09569        -1.17249        0.976512
LJ            2.1897        -1.78098       0.0213291
LJ          -0.93414        -0.72398         1.01384
LJ          -1.91845        -2.55443        0.627739
LJ         -0.189744         1.71422         1.83843
LJ           2.02297        -1.41025        0.250016
LJ          0.821302       -0.838174        -2.05951
LJ        -0.0363443        -1.14782         2.12863
LJ           1.78468         1.81096       -0.344999
LJ         -0.380745        0.738372        0.409863
LJ          0.510471        -1.12835        -1.80399
LJ         -0.359081        -2.30424        -1.68426
LJ         0.0270789        -1.36996       -0.539738
LJ          0.643587        0.593456        -1.45544
LJ          -1.10477         1.73799        -2.39574
LJ          -1.73386         0.89374         1.50237
LJ           1.93135        -1.57945         -1.2584
LJ           1.06419        0.112725          1.4947
LJ          -2.23151         -2.0592         0.14635
LJ          -1.77932        -1.30566        -2.09192
LJ              -nan            -nan            -nan
LJ          0.729101        0.633589       0.0460344
LJ          -1.14485         1.15339        -2.15763
LJ         -0.598941         1.09177         0.97604
LJ           2.26979       -0.539544        -1.06721
LJ           0.23116         1.26944       -0.761166
LJ           1.00492         0.75653        -1.69208
LJ         -0.240795        0.451576        -1.04557
LJ              -nan            -nan            -nan
LJ           1.09456         1.46138         1.65404
LJ          -1.84089         1.19842         1.91277
LJ          -2.38413       0.0820313         1.70029
LJ          -1.78319        0.972997        -2.09701
LJ          -2.30471        -1.03272         1.07033
LJ              -nan            -nan            -nan
LJ          -1.08012         1.32445        -1.12755
LJ          0.314297       -0.296925        0.484944
LJ              -nan            -nan            -nan
