108
#Comment!
LJ           1.78761        0.782048        -1.75276
LJ          -1.81138        0.889782        0.158393
LJ          0.125402       -0.358697          -2.204
LJ           2.13059        0.515457      -0.0400088
LJ           1.79464       -0.443442       -0.216969
LJ          -1.17345       -0.940742         2.39886
LJ          -1.48683         2.26736        -1.05505
LJ          0.165467        0.478605          2.3471
LJ          -1.28847          2.3274        -1.87137
LJ           -1.0381         2.39332       -0.201107
LJ              -nan            -nan            -nan
LJ          -2.53528         2.21615       -0.632766
LJ           2.35946        0.570596         1.36244
LJ          -2.11881        -1.10456         1.00605
LJ           2.18937       -0.369064       -0.898825
LJ         -0.273073         0.35058       -0.495345
LJ              -nan            -nan            -nan
LJ              -nan            -nan            -nan
LJ          -2.53472       -0.804384       -0.820584
LJ              -nan            -nan            -nan
LJ         -0.141774        -2.03519        -1.81216
LJ           2.56064         2.48477        -1.96715
LJ           2.36865        -1.74619        0.103458
LJ           1.66211       -0.950979       -0.353575
LJ         -0.735026        -2.35896        -1.72856
LJ         -0.907617         0.48098       -0.520438
LJ          -2.31813        0.369005        0.170669
LJ         0.0884683        0.436601         2.07737
LJ          0.326261        0.194819        0.664269
LJ         -0.885022       -0.542162         1.97483
LJ          0.633249        0.633676        -1.66939
LJ         -0.520984         1.66721        0.920827
LJ              -nan            -nan            -nan
LJ         0.0901748       -0.434768         -0.7694
LJ              -nan            -nan            -nan
LJ           2.30282         1.56232       -0.885583
LJ          0.760691        0.459518        0.972203
LJ          -1.20025        0.554042        0.499314
LJ          -1.03615       -0.832985         -1.0349
LJ           -1.6306        -1.83377         -2.4469
LJ          -0.13029        -1.82783         1.83326
LJ         -0.603942        -1.01385        -2.17596
LJ         -0.655437        -1.49769       -0.831257
LJ           1.36678        -1.30343        -0.78993
LJ          -2.24043         1.64241        -1.48674
LJ          0.246543        0.353867       -0.638891
LJ          -1.80727       -0.593991         1.98723
LJ           1.81093         1.32048         1.44732
LJ           1.02851        0.834004        -1.31674
LJ         -0.433229         0.41937        0.546275
LJ          -2.22329       -0.744164        -2.08726
LJ         -0.276966         1.60341       -0.378774
LJ              -nan            -nan            -nan
LJ         -0.315044        0.757677         2.12148
LJ          -2.53114       -0.835436        -2.53461
LJ         -0.298746        -1.86687        -1.22505
LJ         -0.473514       -0.323847         2.08301
LJ           2.29033         2.41288       -0.723222
LJ          -1.63375      -0.0240106         -1.6349
LJ           1.35075        -1.11188       0.0926512
LJ           1.98792         2.05058       -0.155225
LJ          -2.13126        0.657397        -2.56374
LJ           2.29683         1.89149         -2.3889
LJ          -1.28965        -2.17692        -2.17775
LJ           1.15016        0.236787       -0.942493
LJ          0.774324         1.74109       -0.825771
LJ         0.0616749         2.53919        -1.34675
LJ              -nan            -nan            -nan
LJ          -1.59975        0.321663        -1.04215
LJ          -1.45196        0.468447       -0.865428
LJ        -0.0694857        0.042909         0.73843
LJ        -0.0905829       -0.232984        0.871309
LJ           1.25407       -0.802983        -2.52376
LJ          -1.71316       -0.869159         1.35898
LJ        -0.0512026         1.22616         1.87286
LJ         -0.655104        -2.22469        -2.30917
LJ          -1.93273        -1.56195         2.41901
LJ           1.65344        -2.31739         -1.6041
LJ           1.18367        -1.00863        -0.45099
LJ         -0.683945        -2.00644         2.08718
LJ         -0.144582        -1.27284       -0.772904
LJ           1.91726         2.48655       0.0757047
LJ          0.532061         1.84241        -1.03456
LJ           -2.2732         0.42602        -2.44572
LJ          -2.36067       0.0648348        -2.41127
LJ          -2.13248       -0.907781         2.25995
LJ         -0.845268       -0.273236        -1.02683
LJ           1.25447        -1.59945       -0.968653
LJ         -0.289541        -1.14773         -1.0108
LJ           1.41252       -0.822068         -2.3312
LJ              -nan            -nan            -nan
LJ          -1.82403        -0.92423        0.711345
LJ         -0.819398         1.63334         0.25888
LJ          0.778686        0.387057       -0.367906
LJ          0.601605         1.62823        0.967023
LJ          -1.32301        -0.13952        0.965271
LJ          0.393298       -0.583021         2.26586
LJ           1.88146         2.55504         1.75013
LJ         -0.939047        -1.53614         2.23483
LJ          -1.42076       -0.389051        0.618337
LJ           2.35885      0.00859217         1.65451
LJ           1.17145         -2.3334       0.0691672
LJ          -2.38719        -1.57918        0.284399
LJ           1.85297        -2.05918        0.330185
LJ          -1.78543         2.37676        0.682501
LJ         -0.838962         1.67569         2.42577
LJ          0.737188         2.35042        0.905208
LJ              -nan            -nan            -nan
