108
#Comment!
LJ          0.289949       -0.665852        -1.61246
LJ          -1.30575         2.37997       -0.972646
LJ          0.895034       -0.385148        0.543439
LJ           2.44895         2.07936         -1.3439
LJ           1.15806        -1.22551        0.646524
LJ          -0.74241       -0.363326        0.158365
LJ         -0.141192       -0.468088       -0.702376
LJ         -0.867421        -1.13839        -1.45901
LJ           2.55987         1.98587         1.52841
LJ            1.7763        0.368962         1.88514
LJ              -nan            -nan            -nan
LJ          0.744012        -1.03305         1.10768
LJ           -1.8767       -0.110626         2.09106
LJ         -0.403145          1.4908        -1.98044
LJ          0.389003       -0.383748         1.50884
LJ           1.02035       -0.933648         2.06599
LJ              -nan            -nan            -nan
LJ              -nan            -nan            -nan
LJ          -1.85119        -1.50459       -0.241242
LJ              -nan            -nan            -nan
LJ           1.25751       -0.931606        -0.49669
LJ           1.77508        0.830144        0.460234
LJ          0.434404       -0.528332        0.824544
LJ           1.54004         2.17126        -2.11633
LJ          0.380537         1.98204         2.41708
LJ          -1.40598          2.3675       -0.293162
LJ          -1.45888        -1.98052       -0.223122
LJ         0.0189164       -0.928316        0.644015
LJ          -2.41575        -2.21974        -1.90188
LJ           1.10878          -2.363       -0.161487
LJ          -1.50654       -0.481203        -2.07855
LJ           1.80782        -1.73598         -1.6179
LJ              -nan            -nan            -nan
LJ         -0.550147        -1.84438       -0.432856
LJ              -nan            -nan            -nan
LJ         -0.103981       -0.290659       -0.162652
LJ          -1.66919        -1.92539         0.21497
LJ          -0.77763         2.48993        -1.63892
LJ          -1.25179         1.04294        0.323584
LJ          0.792062       -0.237917        -2.23878
LJ          -2.22602      -0.0376334        -1.83164
LJ          0.520037         1.05985        0.918329
LJ            -1.582        -2.29513       -0.137415
LJ          0.500032        -1.27395         2.17362
LJ         -0.236397        -2.02495         2.43599
LJ           1.36461       -0.399106         1.89756
LJ          -2.37737         0.80286       -0.104661
LJ         -0.216581        -1.60597        -1.50035
LJ          0.459409        -1.56199         1.76411
LJ         -0.705099        -2.39294        -0.50872
LJ           1.32818         1.35874       -0.658956
LJ           1.53335         2.35214         2.27114
LJ              -nan            -nan            -nan
LJ          -1.58014        -1.36984        0.911961
LJ          0.326816        0.936139        0.252045
LJ          -2.18821        0.482444        -2.47607
LJ          0.243033      -0.0536012       -0.655411
LJ          0.224212       -0.933675         2.24505
LJ          -1.99342        0.170035        -1.18088
LJ         -0.517172        0.333863        0.294158
LJ           1.83266        0.801724         2.19104
LJ           0.35565       -0.794496          1.1736
LJ          -1.11875         -1.9241        0.939617
LJ          0.974947         2.55527         2.55962
LJ          -1.54299         2.04131         2.47242
LJ            1.4961         -2.0838         0.16421
LJ          -0.02283         2.11254        -2.45531
LJ              -nan            -nan            -nan
LJ          -1.36038        -1.50137       -0.121668
LJ         -0.786289        -1.32967        -1.80559
LJ          -1.59984        0.433554        -1.31955
LJ        -0.0841289         1.44728         1.40951
LJ           2.32307       -0.247296        -1.35912
LJ          -2.43208        -1.33769         2.51746
LJ         -0.092657        -1.00484        -2.55421
LJ          -1.03699        -1.38632        -0.90414
LJ          -2.17221        -0.14889         1.48083
LJ           1.83729        -1.01919        0.264328
LJ           0.49386       -0.326003        -1.90375
LJ           1.38233        -2.42734         2.53409
LJ          -1.07643       -0.781577       -0.780741
LJ         -0.124234         0.27268         1.81843
LJ           1.94482         1.89448        -0.29839
LJ          0.367179        -1.54176       -0.395417
LJ           2.14366         2.45231         1.25779
LJ           1.32781        0.775175        -2.50228
LJ          -1.29725       -0.569941       -0.924985
LJ          -2.13852        -1.52992       -0.703598
LJ          0.025008         1.05233         2.34788
LJ           2.31461        -2.48524        -1.17446
LJ              -nan            -nan            -nan
LJ          0.595385        -2.25388        -1.83021
LJ         -0.259803         1.77802         1.14744
LJ           2.04733        -1.01482         -1.0712
LJ         -0.644604         1.33865       -0.565531
LJ          0.274392       -0.357936         0.28419
LJ          0.170603        0.442679        -1.11298
LJ          -1.71539        0.887885        0.390872
LJ           1.51436        0.427032          1.8516
LJ           1.34181        0.377903         1.59426
LJ           -1.2232        0.447046       -0.734463
LJ          -1.30098        -2.43767       0.0282993
LJ          0.793996         1.47508        -1.06493
LJ          -0.99819        -1.73176         1.37654
LJ          -1.46958         2.09642        -1.85944
LJ           2.26223         1.92411        0.518193
LJ           2.49782         2.16125        -1.87272
LJ              -nan            -nan            -nan
