108
#Comment!
LJ           2.34416         2.54805       -0.961752
LJ          -2.29929         1.04347        -0.38837
LJ          -2.35271       -0.729152        0.341673
LJ         -0.748492        -1.52607         1.28631
LJ           2.03304         1.75804        -2.35052
LJ        -0.0412398       -0.759797        -1.86188
LJ          -2.55585        -1.93011        0.332962
LJ          -0.21278        -1.56785         1.40056
LJ          0.637518         2.52517        -1.23061
LJ         -0.178111       -0.753271      0.00321609
LJ              -nan            -nan            -nan
LJ          0.542953         1.13599         1.33324
LJ           2.19741       -0.984774        -2.10492
LJ           1.57256         1.12131         1.00767
LJ           1.88668         1.81848        -0.66024
LJ        -0.0321564         2.00639         1.37766
LJ              -nan            -nan            -nan
LJ              -nan            -nan            -nan
LJ          0.728343      -0.0846387        0.662153
LJ              -nan            -nan            -nan
LJ           1.97711        0.602916        0.591973
LJ         -0.456177       0.0231549          2.4082
LJ           2.43546         -1.5889         2.03385
LJ          0.880291        -1.89062        -2.46061
LJ          -1.05873        0.170926         1.15085
LJ           1.66268         0.66097         1.08121
LJ           1.22241        -0.44753         1.33378
LJ         -0.639799         1.65836        0.252114
LJ          -0.43054       -0.333655         1.87169
LJ          -1.93251        0.658973        -1.23086
LJ        -0.0894188         -1.8331        0.105346
LJ        -0.0889919       -0.563696        -1.02408
LJ              -nan            -nan            -nan
LJ          -1.93109        0.482235        -1.37496
LJ              -nan            -nan            -nan
LJ          -2.55326         2.48243       -0.516839
LJ         -0.409931        -2.26539         1.33035
LJ          -1.71923         1.61182      -0.0968376
LJ           1.25077        -1.51282       -0.290074
LJ            1.8217        -2.46556        0.715451
LJ          0.776017         1.90672        -2.32986
LJ           1.77787      -0.0770709         1.15955
LJ         -0.152442         1.25117        -2.06292
LJ          0.415635         2.16967        -2.02508
LJ          -2.09183         2.18356         2.10222
LJ           1.55567       -0.623354        -2.00783
LJ          -0.24036         0.99307         1.38811
LJ          0.831147        0.760794       -0.137842
LJ           1.00549       -0.644843         -1.1574
LJ         0.0394588        0.127862       0.0364796
LJ         -0.436684         1.54031          1.1288
LJ          0.647454        -2.11438         1.45161
LJ              -nan            -nan            -nan
LJ           1.62289       -0.307548         2.21269
LJ           1.43586        0.524463         0.34999
LJ           2.18592        0.159671         1.59835
LJ          -1.45623         2.56087         1.60503
LJ           1.89475          1.5446        0.708374
LJ            -1.102         2.05363       -0.230437
LJ           1.97354       -0.882642         1.85624
LJ           2.40489        -1.38809        0.135735
LJ           0.78214       -0.913113        -1.74456
LJ          -0.84782        -1.48325        -2.05092
LJ           -1.7964         1.96019       -0.668403
LJ           2.50209        -1.17829        -1.10823
LJ          -1.52601         2.32276        0.719083
LJ          -1.42947       -0.876028        -1.05092
LJ              -nan            -nan            -nan
LJ           1.75357         1.24533       -0.639845
LJ           1.76885        -0.32368       -0.253907
LJ         -0.583453        -2.53206         1.77995
LJ           2.03526       -0.850899        -1.12951
LJ          0.359705          2.1904      -0.0334943
LJ         0.0622856        -0.34791       -0.445448
LJ           -1.3505         1.83105        -1.09108
LJ           1.39516         1.81666        -1.47155
LJ          0.236158         1.42503        -1.95036
LJ           2.00167        -1.16861       -0.530735
LJ           1.52986       -0.467481         1.87253
LJ          0.602685        -1.12583          1.1272
LJ           1.16033        -2.36758       -0.105989
LJ          -2.55157        0.350242        0.935723
LJ          0.846687        0.982872         1.65717
LJ          -1.96571         0.25683        -2.53409
LJ           1.30592        -1.91979         1.25091
LJ          0.104128        -1.67073        -0.70498
LJ          -1.37199         2.34224        -2.31728
LJ           1.41566         2.22518      -0.0473898
LJ           1.40783        -1.91751         2.17403
LJ          -2.25587       -0.240892       -0.971973
LJ              -nan            -nan            -nan
LJ          -2.14218         2.31062       -0.161683
LJ         -0.525886        0.103899        0.395807
LJ           2.29994        -0.19348       -0.236487
LJ           2.19263        -2.04568        -2.17878
LJ          0.429673         1.55211        0.929175
LJ           1.80061       0.0686736        -1.93644
LJ         -0.763632       -0.176819       -0.726944
LJ          0.674457        -1.13603        -1.53357
LJ          -1.68187        -1.82344       -0.619598
LJ          -1.06648       -0.820639        0.277246
LJ         -0.515808         2.33979         -2.2503
LJ         -0.484007         1.60358       -0.923837
LJ           1.87227        -1.01314        -2.05584
LJ          -1.49728         1.19979       0.0783234
LJ          -2.08716        0.153106        0.842112
LJ          -1.97685        0.201053        0.633549
LJ              -nan            -nan            -nan
