108
#Comment!
LJ          0.182706        -1.94444       -0.318323
LJ          -2.06342        -1.54707        -2.50843
LJ          0.785675         1.92112        -1.38382
LJ          -1.41931       -0.969538       -0.176427
LJ          -1.98527        -1.79938       0.0893441
LJ          -2.14543         2.11572         1.59342
LJ          -2.23863        -1.94919         1.94575
LJ           1.48756         1.48096        0.593649
LJ           1.89299        -2.10229       -0.636995
LJ          -1.86739         2.10491        0.963185
LJ              -nan            -nan            -nan
LJ         -0.261548        -2.28063         1.28713
LJ           0.85421      -0.0783537         2.41702
LJ           0.74004         2.16447        -1.45324
LJ          -1.97702        0.343774        -2.01311
LJ              -nan            -nan            -nan
LJ              -nan            -nan            -nan
LJ              -nan            -nan            -nan
LJ          -0.44746         1.05259         1.54673
LJ              -nan            -nan            -nan
LJ         -0.909729        -1.79701        -0.17552
LJ          -2.18294        -2.14005     -0.00911019
LJ          0.255598        -1.81572        -1.30583
LJ          -1.09078       -0.164955        -0.37848
LJ           2.24539        -1.98268         -2.4875
LJ          -2.40251       -0.891014        0.871853
LJ           2.55599         2.53503        -2.32071
LJ          -1.31189        0.151484        0.371559
LJ          -1.21123        -1.18741         1.87573
LJ           1.67628       -0.115288         1.87634
LJ          -1.95153        0.154504        -1.53455
LJ          -1.77012         -1.6413         1.67368
LJ              -nan            -nan            -nan
LJ           1.86717         1.41652         2.48979
LJ              -nan            -nan            -nan
LJ          0.616159         1.33244       -0.636434
LJ           2.37903        -1.35738        0.296231
LJ         -0.505316         1.02986         2.50287
LJ          0.819127        -2.47426        -2.02077
LJ         -0.536732        0.224238        0.219958
LJ          -1.93356         -2.2756       -0.528222
LJ           1.15901        -2.40812       -0.607059
LJ           2.30548       -0.406429        0.582299
LJ           2.38518         1.46813         1.08526
LJ            1.3615        -2.45817       -0.446967
LJ           1.22651          1.5939         1.78613
LJ          0.211255        -2.54709       -0.489076
LJ           1.32467         1.44001         2.30339
LJ         -0.056706        0.494779        -1.97397
LJ          -1.77282         2.18056        -1.67123
LJ           1.33566          1.9954        0.562461
LJ         -0.541713          -1.617         2.47778
LJ              -nan            -nan            -nan
LJ         -0.368102        0.397679        -1.18936
LJ          0.552806        0.136955         1.62752
LJ         -0.630522         2.15608        0.257202
LJ            1.6373        -0.14425        0.579509
LJ          -1.16224        -0.48451        0.735621
LJ           2.47275        -1.82191        -2.22399
LJ          0.570453         1.02575         1.90319
LJ         -0.917996         1.14938       -0.705284
LJ          0.197658        -1.67857         -0.4801
LJ         -0.116731         2.11541         1.56826
LJ           1.62753        -1.15004         1.33556
LJ         -0.377884         1.48722         2.52238
LJ          -2.31944         1.03818         2.43123
LJ            1.4757        -2.17854        -1.26686
LJ              -nan            -nan            -nan
LJ          -1.68202        0.860159        -1.92192
LJ          -1.03386        -2.46322        -1.25522
LJ           1.02017        -1.89957        0.905287
LJ           2.32744        -1.49368        0.660912
LJ            0.3958         1.21254        0.573749
LJ           1.11505        0.227371       -0.507475
LJ         -0.615997        0.330732       -0.777149
LJ           -1.0856         2.35023        0.990534
LJ           -0.6992        0.424046         1.03825
LJ         -0.512718         0.76564          0.0812
LJ           1.20532         1.92763        -2.24824
LJ          -1.16626        -1.24034         1.43095
LJ          -1.22782       -0.684772        -1.86666
LJ         -0.841676         1.55016        0.971467
LJ          -2.16963         1.04185        -1.21974
LJ          0.252278         1.86041         1.43574
LJ          -2.24922        0.354024       -0.937593
LJ           1.76546        0.263159       -0.119034
LJ          -2.46048         1.47535        0.675457
LJ          -1.67722        -2.16637         1.57801
LJ          -1.63939        -2.43998       -0.842674
LJ          -1.71224       -0.316137         1.69325
LJ              -nan            -nan            -nan
LJ          -1.70344         2.15301        -1.98118
LJ          -1.63976        0.604394        0.423836
LJ           1.57447       -0.840387         2.21979
LJ          -2.48238        -1.67595        0.375922
LJ          -2.01215         2.47641         2.10561
LJ           1.89736        -1.70804       -0.493696
LJ          -1.57394        -2.33885       -0.646027
LJ              -nan            -nan            -nan
LJ           2.07536         2.17903       -0.120795
LJ         -0.240187        0.497126       -0.453708
LJ          -2.15882        -2.50386        -1.24883
LJ           1.20622        0.934473        -1.04321
LJ           2.06012         2.36587        -2.13693
LJ          0.342414        -0.34456         1.71147
LJ          0.274205          1.1477         2.14284
LJ           1.09147        -2.13665        0.628808
LJ              -nan            -nan            -nan
