108
#Comment!
LJ           2.44347         2.46271         -1.8827
LJ          -1.29726        -2.50233        -1.26767
LJ          -1.89566        -1.93433       -0.689982
LJ           1.09218         1.64254        -1.65071
LJ          0.307054        0.704287         1.92209
LJ          -2.55241        0.277843        -0.59164
LJ           2.50187        -1.07844        0.697737
LJ          0.811417         2.18483         1.19747
LJ         -0.932286         2.25217          1.5621
LJ           1.01534       -0.210021         2.49635
LJ              -nan            -nan            -nan
LJ           1.90498        -2.15962       -0.374073
LJ           2.50987       -0.442401       -0.264526
LJ              -nan            -nan            -nan
LJ          0.664805        -1.61235        -0.13155
LJ              -nan            -nan            -nan
LJ              -nan            -nan            -nan
LJ              -nan            -nan            -nan
LJ           1.88163         1.32558         1.93874
LJ              -nan            -nan            -nan
LJ           1.62416       -0.667628        0.846133
LJ          -1.01424        0.040473        0.792883
LJ           1.53089         1.71752         1.51853
LJ          0.316719        -1.33374         1.94264
LJ          -2.22946         1.69051        -1.30637
LJ         -0.381127         2.52514       -0.151502
LJ          -1.66213         2.48772        -0.91652
LJ           1.52089         1.82865         1.04145
LJ         -0.578175       0.0933862        -1.84393
LJ         -0.878684        0.339644       -0.983998
LJ              -nan            -nan            -nan
LJ          0.930483       -0.722355       -0.735211
LJ              -nan            -nan            -nan
LJ          0.151179        -1.79201         1.22965
LJ              -nan            -nan            -nan
LJ          0.865926        0.512993       -0.545675
LJ         -0.693372       -0.270826         0.28117
LJ          -0.99096        -1.94625         2.08462
LJ          0.349029         0.07527        0.551771
LJ         -0.303753        -1.28547        -1.01733
LJ           1.68949        -1.93901        -1.73921
LJ         -0.783589        -1.25414       -0.175463
LJ           1.13089     -0.00664588         1.25231
LJ           1.57607         1.91416          -1.827
LJ          -2.14989           2.237        -2.08922
LJ        -0.0047834        -2.15414        -1.12405
LJ          -2.35683        0.103676        -1.06407
LJ          0.236154      0.00863284        -1.86055
LJ          -2.02713       -0.967217         2.50682
LJ         -0.105335       -0.019088        -1.85961
LJ         -0.108372       -0.738317       -0.881571
LJ          -1.67623         1.01074         1.23455
LJ              -nan            -nan            -nan
LJ          0.830191         2.25629        -1.87978
LJ         -0.569644        0.889388         2.08948
LJ          -2.09598         1.43455       -0.282527
LJ           -2.5588       -0.483525        0.122172
LJ         0.0752654         1.05603       -0.196506
LJ           2.26723        0.541774         1.57884
LJ           1.93022       -0.340798         -1.7429
LJ          0.129966          1.7706         1.85698
LJ           -1.2398         1.77284        -2.44256
LJ          -1.68477        -1.08543         1.67968
LJ         -0.624209        -2.05067         1.65278
LJ              -nan            -nan            -nan
LJ          0.574455        -1.04769      -0.0394549
LJ         -0.796925         1.22594          2.2588
LJ              -nan            -nan            -nan
LJ           2.52322         1.43586        -1.47103
LJ          0.717691         1.43969         1.48234
LJ         -0.893201        -2.41204        -1.71337
LJ           1.91235       -0.569403         2.02603
LJ             2.232        -2.47465        -1.08705
LJ           1.76407           1.992        -2.49412
LJ          0.920753        -2.25703        -2.18005
LJ          -1.89591         2.24021        -1.45377
LJ          -1.95157       -0.540175        -2.05704
LJ         -0.205521        0.708357        0.566534
LJ           1.03023         1.49791        0.486296
LJ         -0.775965       -0.468969        0.930665
LJ          -1.40796        -2.46916         1.67665
LJ          -2.26735        -1.99065        -1.04102
LJ         -0.215305       -0.824582       -0.423312
LJ          -1.42133         1.84377         2.03394
LJ           2.28063        0.445134          1.7657
LJ          -2.30464         1.05533          1.6096
LJ         -0.794796        -2.17336        -1.64143
LJ          0.547386          1.7436        -1.63952
LJ           2.39035        -2.13831         1.75346
LJ          -2.33898          1.1121      -0.0193003
LJ              -nan            -nan            -nan
LJ          -1.16038        0.712349        -2.26282
LJ         -0.473473         -1.7058        -1.63912
LJ          -1.91993        -1.58906        -1.35058
LJ           1.35482       -0.311021         2.38883
LJ          -0.25609        -1.50203        -1.48703
LJ           1.12379        0.287651        0.296398
LJ         -0.156293        -1.58175         1.64736
LJ              -nan            -nan            -nan
LJ          -2.44565        0.827074         2.37139
LJ           1.61316         1.67555        -2.22363
LJ           1.25143        -2.38201       -0.718767
LJ         -0.627774        -2.47795        -0.80159
LJ           -1.1545        0.921192         0.15967
LJ              -nan            -nan            -nan
LJ          0.290808       -0.430344         1.22349
LJ         -0.441797       -0.931782       -0.212814
LJ              -nan            -nan            -nan
