108
#Comment!
LJ         -0.550042        0.924516        -2.05669
LJ          -1.92234         2.31938          1.5202
LJ             1.991          1.9013        -1.44261
LJ        -0.0142169        0.685774        0.788597
LJ          -1.17104         1.38108         1.07598
LJ           0.47445        0.371304         1.05354
LJ          0.325207        -1.46236        -2.28859
LJ          0.363282         1.71528       0.0685431
LJ         -0.227322        -2.12565        -1.06816
LJ           2.07538         2.43211        -2.16659
LJ              -nan            -nan            -nan
LJ          -1.63662        0.479118       -0.878856
LJ           2.20084        -1.22977          -1.321
LJ         -0.372318          2.4215         2.23834
LJ          -2.45195        -1.24224       -0.499792
LJ          0.873979      -0.0947896       -0.438082
LJ              -nan            -nan            -nan
LJ              -nan            -nan            -nan
LJ          -1.14065        -1.97628        -1.74722
LJ              -nan            -nan            -nan
LJ           1.78065        -1.92378         1.18933
LJ         -0.710642       -0.186975        -2.14829
LJ           2.41967          1.9096        0.190925
LJ         -0.556211        -1.03502         1.54826
LJ          -2.01495         1.70989         1.44421
LJ           1.91079        -1.27095        0.365886
LJ          -0.50384        0.735507         1.08689
LJ            2.3553         1.30658         1.65134
LJ          0.311946        0.311546        -1.43081
LJ          0.701755        -1.29846        -1.99804
LJ         -0.754931        -2.47609         2.05687
LJ           2.38498         1.76268         1.47236
LJ              -nan            -nan            -nan
LJ          -1.67404         2.01386          2.0685
LJ              -nan            -nan            -nan
LJ          -1.79234       -0.545128        0.112043
LJ           1.39817        -0.98277         -2.0945
LJ         -0.554843        0.696531         1.41585
LJ        -0.0114529         -1.8232         1.60804
LJ           1.71341        0.431342         2.28469
LJ           1.23979      -0.0596202       -0.864677
LJ          -1.01685        -2.32763       -0.328164
LJ          -0.94164        0.762455         1.57949
LJ           2.39501         1.56155        0.514449
LJ           2.28203         -2.3137         1.89312
LJ          -0.86427       0.0890882          1.4964
LJ        -0.0540934         2.21093       -0.559427
LJ          -2.09403       -0.391825       -0.162959
LJ           1.99764        -2.49922         -1.5479
LJ           2.01355        -2.06614        -2.06484
LJ         -0.878141         2.26106         1.52553
LJ          -2.12932        -2.36002         1.36098
LJ              -nan            -nan            -nan
LJ         -0.711754       -0.344786        0.251991
LJ          -1.31854        -1.29973        -1.89216
LJ         -0.183578        -2.06053        0.910534
LJ          -2.51019         2.12675        -2.00858
LJ          -2.07218        -2.14881       -0.527878
LJ           1.19676        0.788784         0.17815
LJ          0.546986         2.12805         2.15656
LJ           2.55156         1.57642        -1.07365
LJ          -0.42647        -2.45085        -1.10432
LJ           2.08926        0.769989        0.271969
LJ          -1.11063        0.368369         2.45236
LJ          0.582195         1.71907            2.21
LJ         -0.525445         2.22743        -0.83035
LJ         -0.551021        -1.87404         1.87897
LJ              -nan            -nan            -nan
LJ       -0.00836755        -1.80046         1.32032
LJ         -0.374597        -1.39217         2.51598
LJ          -1.97509        -1.40839       -0.026796
LJ           1.23474         1.20131          2.5154
LJ          -1.34285         1.85387        0.637548
LJ            2.4681         2.32141        -1.29253
LJ        -0.0166894         2.42604        0.263687
LJ           2.05066       -0.955583         2.17137
LJ         -0.560631         1.22082         1.46247
LJ          -1.84442         2.54139       -0.650744
LJ          -2.45728        -2.07347        -1.78401
LJ         -0.650096        -1.42279        -2.37649
LJ         -0.180089        -1.78373        -1.46597
LJ           1.45999        0.306236         1.75149
LJ          -2.21181         2.15616        -1.28319
LJ             2.542         2.45617        0.500436
LJ          -1.98278        -1.06043         1.93488
LJ          -2.37989        -2.03379         1.74623
LJ          -2.46994       -0.162729        -1.03067
LJ            1.3824        -1.51714         1.46775
LJ         -0.812898        -1.74178         1.23013
LJ          0.351289       -0.265515        -1.24199
LJ              -nan            -nan            -nan
LJ          0.703496        0.868053        -1.21928
LJ        -0.0297303        0.828111         1.28344
LJ           1.32898        0.731199        -1.36498
LJ          -2.00392         1.67043        -1.72902
LJ         -0.247771         1.98279       -0.710161
LJ          -1.05243        0.985013        -2.26034
LJ         -0.994225         1.16085       -0.427121
LJ         -0.115465        -2.25196         2.10675
LJ          0.838902      -0.0543796         1.30583
LJ          0.691578          0.1519        -2.02294
LJ          0.290138         1.80171       -0.275303
LJ          0.966261         1.43631        -2.25283
LJ          -2.16683        0.284125         2.18513
LJ          0.265899         2.03352        -1.87865
LJ          -1.68212       -0.491621       -0.955693
LJ           2.10991        -1.23149        -1.00006
LJ              -nan            -nan            -nan
