108
#Comment!
LJ         -0.301104       -0.641349         2.07207
LJ           1.51158         2.15701        0.677936
LJ            2.3155        -2.25671        -1.79467
LJ          0.781245         -1.9944       -0.637567
LJ           0.94298         1.81453         1.29142
LJ          -1.97497        -1.29755        0.359285
LJ          0.339701        0.525087         1.66406
LJ           2.35025        -2.10731         1.23785
LJ           1.16794        -2.22488         1.72642
LJ          -1.15879        0.828058        0.410966
LJ         -0.665685         2.34843       -0.259678
LJ           -0.2169        -2.56027       -0.746587
LJ          -2.22976        -2.05507        -1.35326
LJ          -1.23336       -0.666003        -0.88593
LJ          -2.50162         1.21187         2.11051
LJ           1.56701         1.51051        -1.83295
LJ          -2.07284         2.09572        0.923603
LJ          0.435087      -0.0802039         1.91055
LJ           1.30419       -0.943377         1.11497
LJ           1.35764        0.808948         2.19779
LJ         -0.211038         2.50478         2.42302
LJ           2.35863        -0.64578       -0.227972
LJ          -2.05481       -0.367814        0.976622
LJ         -0.559471         1.65694       -0.569572
LJ          -1.51384       -0.388989         1.73891
LJ         -0.389905        0.962628         0.97844
LJ          0.537475         1.34654       -0.524643
LJ          -1.78978       -0.063137         -2.4932
LJ          -0.76588        0.469555       -0.664992
LJ           2.54006        -2.13128         2.14547
LJ           1.72106        -1.84468        0.651106
LJ          -1.80387       -0.498362         1.41576
LJ          -2.21136        -1.91399         -1.9609
LJ           1.93412        0.902446       -0.789017
LJ           2.33738         1.49836         2.24701
LJ          -1.11011        0.683711        0.101632
LJ          0.786246        -2.09999        -2.34369
LJ          -1.34808       -0.647604        0.723969
LJ         -0.458628          -1.388        -0.82575
LJ          -1.25428       -0.603803       -0.539058
LJ         0.0726617         1.16019        0.985404
LJ           1.31965       -0.404427        0.570463
LJ           2.04569         2.19435        0.212365
LJ          0.204035        0.859876         -2.3845
LJ           2.38704        0.690299         1.77298
LJ          -1.59863         2.13471          1.7533
LJ          0.503617       -0.190514       -0.756111
LJ          -2.00316       -0.317156         1.51192
LJ          0.557722        -2.20236       -0.948791
LJ           2.35043         1.68171        -1.18038
LJ          0.985841        -1.82317      -0.0288497
LJ          -2.15036       -0.209399       -0.436114
LJ          0.270115       -0.943818       -0.135933
LJ          -1.28064        -1.56757        -1.05983
LJ          -2.12866       -0.893111        -1.29123
LJ           1.07483        0.242916        0.977988
LJ          -2.04804        -2.18275       -0.901974
LJ          0.570969        -1.30031       -0.365754
LJ           2.39919         1.17768         1.43806
LJ           1.37829        0.185225        -0.48613
LJ           2.50592       0.0706059        -2.14859
LJ          -2.39129        0.894079       -0.182666
LJ          -2.20426        -2.03183        0.527769
LJ           1.45219         2.30894        0.817971
LJ           2.19685          1.7418         0.27981
LJ          -1.41181        -1.75991         1.38888
LJ          0.188511         2.10382        0.793421
LJ          -2.47142         2.23316        0.720055
LJ          -1.93726         1.59816        0.835095
LJ          0.884247         1.72693       -0.199982
LJ           1.41355       -0.833175        -2.07758
LJ         -0.650352      0.00275778        -1.68904
LJ          -1.03752         0.11013        -0.87886
LJ         -0.199932       -0.670526        -1.06228
LJ          -1.97531         1.81624      -0.0814595
LJ           2.07081       -0.559152       -0.245668
LJ         -0.464068          1.4486        -0.20819
LJ           0.13616         1.60873         1.25111
LJ          -1.72948         1.42567        0.246614
LJ           0.69369         2.22496      -0.0876563
LJ          -2.07279          2.2757         1.98721
LJ          0.387626        -2.25691         -1.6118
LJ          -1.23313        0.977318         1.95781
LJ          -2.53059       0.0152056        -1.54665
LJ          -1.34229         1.20234         1.15215
LJ          0.247469        -1.97374       -0.624664
LJ          -2.14948       -0.879921        -2.34489
LJ          0.962651         1.47612        -0.72453
LJ           1.01729         1.93274        0.884994
LJ         -0.425341       -0.568741        -2.55249
LJ           -1.0184        0.666527       -0.515085
LJ           2.22647       -0.551492         2.38947
LJ           2.45134        -1.46764        0.676168
LJ          -0.73327        -1.93522        -1.05983
LJ           2.30021        -2.02322        -2.47226
LJ          -0.83388         1.69616        -1.16939
LJ         -0.156786        -1.25965        -1.90277
LJ          0.242513        -1.59846         1.79645
LJ            1.5963       -0.495751        -2.01101
LJ           2.34513        -2.21094        -2.12106
LJ          -1.38154         1.38872       -0.605463
LJ          -1.63588       -0.944882        -2.06675
LJ           2.08432        0.154024        0.607087
LJ         -0.597557         1.42921       -0.137065
LJ           -2.4537        0.692637        -1.63223
LJ          0.276134        -1.72969          1.3569
LJ          -2.00531         2.08437       -0.521007
LJ          0.177506         1.60029        -2.49441
