108
#Comment!
LJ         -0.627035        -1.43283         1.22735
LJ         -0.634317        -1.41367        0.226434
LJ          0.724306        -1.19814        -2.51481
LJ          -1.81774        0.872185       -0.592409
LJ           -2.2602        -1.61763       -0.569334
LJ         -0.200551         1.29719        0.102438
LJ           2.44364       -0.470162         2.14076
LJ           1.80948         2.01635         -1.7366
LJ           2.44683         1.99191         1.06185
LJ         -0.719076       -0.772804          1.3452
LJ              -nan            -nan            -nan
LJ          0.814442        -1.31941         1.52064
LJ         -0.715353       0.0491393        -1.90418
LJ         -0.852086        -2.30595         2.18182
LJ          -1.29711       -0.888837       0.0954174
LJ          0.216101       -0.374913         2.21223
LJ              -nan            -nan            -nan
LJ              -nan            -nan            -nan
LJ           2.11828          2.5271        -0.34224
LJ              -nan            -nan            -nan
LJ           1.73847        0.540959         -2.2577
LJ          -2.24009       -0.413577         -2.0321
LJ             2.038         1.39767        -2.04413
LJ          -1.20563         1.75362          1.4317
LJ          -2.52776       -0.449011        -1.70817
LJ          0.956791        -2.47987        0.539547
LJ         -0.173516        0.950933        -1.61314
LJ          -1.55739       -0.100898         1.17163
LJ          -2.45456        -1.00067         2.42357
LJ         -0.329192         -1.1124        0.137838
LJ          0.835242        -2.25738         2.31177
LJ         -0.410987        -1.31288        -2.49195
LJ              -nan            -nan            -nan
LJ          -2.30772        -0.36609        -2.11139
LJ              -nan            -nan            -nan
LJ         0.0111068        -0.06109        0.136241
LJ          -1.25503         1.98468        -1.86497
LJ          -2.18961       -0.294341        -1.45119
LJ          -1.36195         -1.2536       -0.901668
LJ          0.518622         -2.4726       0.0334969
LJ          -1.52169         0.19162        -1.06677
LJ          0.432318        -2.07798        -1.08321
LJ          -1.94564         1.62605        0.763948
LJ         -0.164674         1.25045        0.850269
LJ          -2.24895         1.18192        0.615213
LJ          -1.89062       -0.578125          0.9375
LJ           1.94146        0.800672        -1.30932
LJ         -0.102696            0.25         1.35222
LJ           1.83783        0.882436        0.842661
LJ          -2.18736        0.171955        -1.00111
LJ          0.393309        0.340519        0.384811
LJ          -2.19313         1.92921        0.227557
LJ              -nan            -nan            -nan
LJ          0.740396        -1.53457         1.82622
LJ          -0.35731        0.647922       -0.827266
LJ         -0.670259         1.50422         -1.6728
LJ            1.2167        0.716768      0.00457701
LJ          -1.29012        -2.00502        -2.33972
LJ          0.660045        -1.76986         1.91109
LJ          0.163426        -1.97441         1.50236
LJ            0.1599       -0.528323        -2.33844
LJ           1.49332         1.98162       -0.164297
LJ            1.1969        -1.03703        -2.53494
LJ          -2.34915         2.51246       -0.652129
LJ          -2.36283         -1.5681       -0.434917
LJ           1.33105         2.30947         -1.1789
LJ           2.19835       -0.404808         1.17275
LJ              -nan            -nan            -nan
LJ          0.818029       -0.620454         1.20001
LJ          0.923385        -0.59549         1.02803
LJ          -2.31284        0.180433       -0.823004
LJ         -0.483864        -1.50542        -1.35411
LJ        -0.0260159         2.50596        -1.19021
LJ          -1.97396       -0.602366        -1.29238
LJ          0.567843       -0.489882       -0.296405
LJ           2.31846         1.51852         2.29111
LJ           1.65543        0.735738         -2.1488
LJ          0.362175        -2.43671        -2.14499
LJ        -0.0597409         1.34138       -0.402556
LJ           1.75417       -0.778461        -1.19477
LJ           1.07308        0.514852        -1.26873
LJ           1.92969        -2.04688        -1.57812
LJ          -1.58064         1.26245       -0.800493
LJ          0.833134        -2.50854          2.3271
LJ         -0.653126       -0.260776        -1.03976
LJ          -2.48139         1.24593        -1.23863
LJ           1.09947       -0.204926        -1.03246
LJ           1.10112        -1.41397          1.9583
LJ          0.124537         1.31809        -1.74341
LJ          0.974569         1.10174         1.41284
LJ              -nan            -nan            -nan
LJ          -1.69836        -1.38731        -1.45286
LJ           -1.4952         1.25636        0.328213
LJ           2.04376          1.9833         0.39441
LJ         -0.935604         1.62732        -1.63634
LJ           2.46805        -1.00627       -0.680393
LJ           2.11242         1.21892        -2.16347
LJ          0.118206        0.335466       -0.450897
LJ         -0.186051        0.126787         1.01591
LJ            2.2555         2.22847         2.17126
LJ           1.40379       -0.519229        0.546769
LJ          0.201266       -0.952129        0.245054
LJ         -0.839854       -0.793796         1.63725
LJ           1.64315       -0.551054         1.07942
LJ          -1.20024         1.12863       -0.165424
LJ        -0.0743175         2.48136         2.40283
LJ          -1.99822         1.51889        -2.25382
LJ              -nan            -nan            -nan
