108
#Comment!
LJ           2.21695       -0.766127        -1.32713
LJ         0.0504956         1.98113       -0.974508
LJ           1.14982        -1.20142        -2.54357
LJ          -2.44968        -2.00469         1.52277
LJ           1.32025         2.07741        -1.40356
LJ          -2.33533        0.403082        0.792925
LJ            1.6141        0.759334        -1.88009
LJ           2.51728        -1.50806        0.319826
LJ          0.398225        -2.43634         1.47436
LJ          -1.41014         2.40041         1.50288
LJ         -0.369771         1.88201         2.00897
LJ         0.0397027         1.18005       -0.591572
LJ          -1.76493         2.29756        -2.42645
LJ           0.57723         2.27952     0.000362374
LJ          -1.79135       -0.358159        -1.92141
LJ           1.59256           1.396        0.616399
LJ          0.304059         2.43949        -2.27391
LJ           1.89534        0.863859         1.68616
LJ         -0.641223        0.766448         1.22228
LJ          -1.01088        -1.49427        -2.47464
LJ           1.52458         1.75573        -1.74487
LJ       -0.00212881        -1.14795        -1.64999
LJ         -0.407888         1.33911         1.67083
LJ         0.0746081       -0.459822        -1.40276
LJ          -1.62128       -0.554892         1.04651
LJ          0.616847       -0.595484         1.24605
LJ           1.66245         1.65832         2.14587
LJ          -1.40959        0.477597        -0.99163
LJ           1.02639         -1.6822        -1.13561
LJ           2.55187        -1.44424         2.11842
LJ           0.35335        -2.42684        0.250125
LJ           1.81571        0.196828        0.905324
LJ          -1.79043        0.551501         -2.3803
LJ           2.31267         -1.8632        0.670497
LJ           1.28791         2.33231         2.33689
LJ         -0.870682        0.409127       -0.926887
LJ          -1.29362         1.94558        0.430097
LJ           2.04161      -0.0786807        -1.74952
LJ           1.83272       -0.522922       -0.929055
LJ          0.450912         1.64665        -2.12213
LJ          0.464371        -2.51648        -1.03284
LJ           0.38933       -0.384497        -2.52886
LJ          0.527947         1.10699      -0.0764125
LJ          -2.33075       0.0177486         -1.0086
LJ          0.530739       -0.659966       -0.112756
LJ          -1.86977       -0.172027       -0.199158
LJ          0.688692        -1.77023        0.934597
LJ           1.05642        0.144103        -1.01936
LJ          0.612102        -1.87397        -1.21266
LJ         -0.539941        -2.13359        0.371005
LJ           2.03435         1.46428       -0.677414
LJ           -1.5268         2.27683         1.78606
LJ         -0.628319         -1.2176         1.38103
LJ           2.23293        -1.41189         1.92571
LJ           2.03655        -2.24423        0.708025
LJ          0.883145         2.22358        0.506468
LJ         -0.556617         2.18848        -1.39282
LJ           1.57996          1.7397         2.30105
LJ           2.03261        -1.76626         1.06073
LJ          -2.13425         1.45577        -2.16394
LJ          -2.47845       -0.420769       0.0210618
LJ           2.45269        -1.96991         1.44437
LJ          -1.27158         2.12478        -1.78409
LJ           1.91685        -0.41977        0.546337
LJ          0.381345       -0.878675        -1.09349
LJ          0.189946        -1.56007        -1.11956
LJ          -0.36847         1.06805       -0.340597
LJ        -0.0191126        -1.07472        -1.77637
LJ         -0.158129        -2.20995         1.73256
LJ          -1.45759      -0.0280369        -2.32616
LJ          -1.33838       -0.944538        -1.13276
LJ           1.50704       -0.271412        -1.83565
LJ          -2.23363        0.942637        -2.27075
LJ          -1.16739         0.18407         2.20715
LJ          -1.69008        0.356383       -0.108385
LJ          0.340701        -2.19496        -1.78472
LJ         -0.459306       -0.634245          2.5613
LJ          0.702348       -0.839918       -0.373188
LJ          -1.30304        0.555303        -1.95176
LJ            2.1426        -1.68502         1.98512
LJ          0.430828        -1.60431        -1.25826
LJ          0.934997        -2.51541        -1.97101
LJ          -2.34195        -1.27369         2.43974
LJ         0.0771476        -0.44551       -0.309324
LJ          0.697508         0.57458        -1.01071
LJ           1.71632        0.265848         1.00045
LJ          -1.01384        0.985461       -0.842139
LJ         -0.378722        -2.38497           1.402
LJ          -1.68236         1.21782        0.318828
LJ           1.96093       -0.708242        -1.03287
LJ           1.02509         1.03656        -1.93049
LJ          0.835927        -1.79625        0.164732
LJ          0.401478         1.16799         1.43794
LJ           2.36014       -0.850292       -0.608468
LJ          -1.23854        -2.43609        -1.95402
LJ          0.675229        -1.79255        0.440781
LJ         -0.948521         2.03317        0.989479
LJ           2.29322       -0.813974        0.203165
LJ          -2.47392       -0.473824       -0.783353
LJ           1.26827         2.39478       -0.241411
LJ           1.70044          2.1195       -0.322637
LJ           2.32175       -0.916135         2.26576
LJ        -0.0911295        -2.27069       -0.217719
LJ         -0.334929       -0.689639       -0.270714
LJ           1.89375         1.68152       -0.579081
LJ          -1.48071        0.162907         1.08005
LJ        -0.0844055         -1.8227         2.00671
LJ           1.68078       -0.252523       0.0589181
