108
#Comment!
LJ          -1.07083         2.15943         -2.5084
LJ          -1.34923         2.47289        0.885819
LJ           -1.5181         -1.1931        0.541025
LJ         -0.705973        -1.59558         2.21563
LJ         -0.392057       -0.670842       -0.624196
LJ          -1.38411        -1.39701         2.45602
LJ           1.29508         2.29259           1.057
LJ         -0.324104        -2.37616         2.47698
LJ           2.52829         1.36735         1.67147
LJ         -0.812189        -1.63883        -1.59681
LJ              -nan            -nan            -nan
LJ          -1.57323       -0.731726        0.777803
LJ          -1.47686         1.29546         1.51592
LJ              -nan            -nan            -nan
LJ           1.91834        0.653895           2.288
LJ              -nan            -nan            -nan
LJ              -nan            -nan            -nan
LJ              -nan            -nan            -nan
LJ           2.45504          1.7898        0.510258
LJ              -nan            -nan            -nan
LJ         -0.100328        -1.27412         1.96795
LJ         -0.714456        -1.17452         1.69221
LJ          -2.52801      -0.0392728       -0.928692
LJ              -nan            -nan            -nan
LJ          -1.11491         1.66578        -2.20551
LJ          0.257795       -0.117181       0.0890636
LJ           2.21107      -0.0532535         1.59078
LJ          0.363033        0.694388         0.15778
LJ          -2.14163       -0.272929        0.155411
LJ          0.956483       -0.780986         1.67587
LJ              -nan            -nan            -nan
LJ          -2.56083       -0.767153        0.871651
LJ              -nan            -nan            -nan
LJ          -1.56864        -1.68881         2.01459
LJ              -nan            -nan            -nan
LJ         -0.607885        -1.79785         1.40544
LJ           1.65836        -1.07614         1.55964
LJ           2.54717        -1.79531       -0.871448
LJ           2.26794           2.183       -0.920945
LJ         -0.619403         2.30888        -1.72593
LJ            1.7402         2.00165        -1.96152
LJ           2.24897         0.92377        -2.41338
LJ          -2.40921         2.53798        -0.75028
LJ          -1.23989       -0.934856       -0.635637
LJ          0.636199        0.744631        0.470533
LJ           2.19122         1.99137       0.0657747
LJ         -0.251722        0.479481       0.0129998
LJ         -0.369254        -2.33135       -0.741511
LJ          0.487004        0.983476         -1.3084
LJ          -1.03346        -2.26984         2.17733
LJ          -2.22628       -0.355551        -2.27245
LJ          0.169323        0.439682       -0.128692
LJ              -nan            -nan            -nan
LJ          -1.75748       -0.842649        -2.21364
LJ          -2.49822          2.5122         -1.4669
LJ         -0.870135         2.48537         0.90144
LJ          0.870068       -0.940338        -1.34405
LJ          -2.51644        0.436385         1.26671
LJ        -0.0484671         2.18679       -0.911356
LJ          -1.09181       -0.414358          1.9453
LJ           1.47871         1.66143         1.51056
LJ          -2.33535          2.3586         -1.9125
LJ           1.09708         2.49489         1.53407
LJ              -nan            -nan            -nan
LJ              -nan            -nan            -nan
LJ           1.66526        -2.33849        -1.97599
LJ          -2.55607        -1.10287        0.570626
LJ              -nan            -nan            -nan
LJ           1.70702       -0.564845         -1.6724
LJ          -1.47183         2.21009         1.74249
LJ           1.50419         2.38282         1.15125
LJ          -1.17101         2.25157         2.29099
LJ          0.861991         -1.0577       0.0735653
LJ           1.75841         2.24828        -1.62124
LJ         -0.280547        -1.80178        -1.12881
LJ           1.07813        -2.28091         1.16129
LJ           1.16622         2.22052         0.38973
LJ           2.03263        -1.31607        -1.56428
LJ           2.22279        -1.74228        -1.09157
LJ           -1.3493       -0.513445        0.455993
LJ            2.2651       -0.987366        -1.31808
LJ           1.11742        -2.14369        -0.96639
LJ          0.734979         1.55526         1.25853
LJ         -0.542529          1.8018         1.66313
LJ           1.62318          2.1927        -2.17387
LJ           1.16728         2.03665       -0.809556
LJ          -1.16541        -1.24212         1.02046
LJ          0.929758        -2.50586         2.29184
LJ          0.234976       -0.449945        0.669692
LJ           1.82923        0.983228       -0.735013
LJ              -nan            -nan            -nan
LJ        -0.0269822         2.08906         2.40468
LJ         -0.717113         2.40659        -1.12653
LJ          0.853447        -2.26171        -1.59738
LJ           2.43371        -1.14404       -0.108745
LJ           1.52619         2.11527        -1.22268
LJ        -0.0582969      -0.0490526          1.9826
LJ         -0.469613         1.84345       -0.885876
LJ              -nan            -nan            -nan
LJ         -0.307566        0.767956      -0.0285991
LJ           1.64585         2.21113        0.320233
LJ          -2.24674        -2.54357        -2.34416
LJ           1.58324        -1.88483         1.63479
LJ            1.1512         1.78785       -0.394848
LJ              -nan            -nan            -nan
LJ          0.600187        -1.22293         2.01336
LJ           1.69911        -1.82493      -0.0244828
LJ              -nan            -nan            -nan
