108
#Comment!
LJ          -1.93574        0.795502         2.51537
LJ          -1.67379        0.213623        -1.02909
LJ         -0.926872         2.01658       -0.352648
LJ          0.616509       -0.684526       -0.169463
LJ          -2.51024         2.21708        -1.18243
LJ          0.871454         1.18479         1.56309
LJ         -0.721493        -1.44738       -0.405947
LJ         -0.794204        -2.45523        -2.26401
LJ          0.498045        -1.37237       -0.856004
LJ            2.1018          1.3083       -0.491763
LJ              -nan            -nan            -nan
LJ          0.895527         2.29094        -1.25742
LJ         -0.247102      -0.0541957        -2.56393
LJ           1.74952         1.20642        -1.08661
LJ           1.96566       -0.587731        -1.80271
LJ           1.75786       -0.721302         1.52884
LJ          -1.02038        -1.01374        -1.26861
LJ         -0.349322       -0.209011         2.23624
LJ          0.321371        -0.73829       -0.968013
LJ          -1.62062       -0.924423         1.53118
LJ          0.921956       -0.897629        0.883091
LJ          -1.56098        0.198696         2.53308
LJ         -0.638118        0.406695         2.33811
LJ          -1.65125        -1.33044         1.57297
LJ           1.15237         1.83369       0.0590469
LJ          -1.68383          1.6325        -1.26806
LJ         -0.904022         -2.0845        -1.87252
LJ          -2.04949         2.23493        -1.04523
LJ          -2.20943        -1.47892        -2.32003
LJ          -1.24733         1.79209        -2.43282
LJ          -1.91781        0.165268        -1.69359
LJ        -0.0459632       -0.093792         -1.5883
LJ              -nan            -nan            -nan
LJ         -0.103709        -2.48594        -1.98666
LJ          0.401891         2.05915        0.162784
LJ          -1.29809         2.35183        0.589093
LJ           1.26018        0.505341        -2.02488
LJ          -1.55986        0.177331         1.26591
LJ          -0.78577        -2.50478        0.209259
LJ         -0.885133        0.801213       -0.788737
LJ          -2.04762        0.873109        -2.28425
LJ          -1.61796      -0.0913874         1.96392
LJ          0.844494        -1.66018        -1.40031
LJ           1.20703        0.713347        -2.08176
LJ          -1.12651        -1.45501         1.83698
LJ          0.759287        -1.52826        0.334299
LJ           1.61211         1.79898         1.61779
LJ          -2.31556        0.705224        -1.61555
LJ         -0.214215         2.43734        -2.23772
LJ          -1.75099       -0.963695          -1.393
LJ          -2.14434        -1.76079        -1.95128
LJ            0.7593        -1.66893       -0.422426
LJ          0.944591        0.351443        -1.55395
LJ         -0.458798        -1.57164       -0.731295
LJ           1.56214        0.929134         1.61111
LJ          -0.22363         1.37284        0.499963
LJ          -1.00757        0.659893        -1.01503
LJ           1.39234         1.80464        -1.55496
LJ           1.13322          2.1584         1.42577
LJ         -0.276913         1.97137        0.778831
LJ           1.98836        0.458436        -1.91998
LJ          -1.75861       -0.142389       0.0751756
LJ           1.59966         -0.8059        0.368766
LJ          0.927751        -2.47987       -0.599356
LJ          -1.52061        0.262596        0.387954
LJ           1.04747         1.52159        0.288896
LJ          0.970706         1.50137        -1.29528
LJ           1.36156         1.58179         1.20851
LJ         -0.533826         -1.4559        0.525346
LJ           2.28816       -0.447946        0.816134
LJ           2.29249       -0.260143        0.266722
LJ          0.544189        0.408215         1.49598
LJ           1.13904        -1.82071         1.34212
LJ          -1.90639        -1.92771        -2.30599
LJ          0.624928         1.76646        -1.27646
LJ            1.6696         1.59005       -0.670251
LJ           2.27856         2.34252        -2.33283
LJ           1.18218       -0.730967         2.00882
LJ           1.53621        -1.16873          1.6729
LJ          -1.20755         2.21897         2.13871
LJ          -1.23442       -0.983385       -0.282159
LJ          -0.55575        0.506624      -0.0790138
LJ         -0.220089       -0.586167        -1.92348
LJ          -1.35169        0.169938        -2.08728
LJ          0.865386         2.53542      -0.0843403
LJ          -1.83374       -0.760126        -2.24122
LJ        0.00765262         1.50574        0.213422
LJ           1.16162         2.51659         1.45174
LJ           1.36712         1.49633         1.65755
LJ          -1.21882         2.14802        -1.92781
LJ          -2.09039        -1.67814       -0.526319
LJ          -1.09597         1.44021        0.489379
LJ          -2.02599         1.56159        -1.82277
LJ          0.411629          0.9079        -0.52905
LJ          0.548235         2.16663        -1.79098
LJ         -0.188109         1.69436       -0.858555
LJ         -0.104151        -2.49218        -2.51825
LJ            1.6828         1.58451        -2.55266
LJ           2.31829        -2.38779        0.772625
LJ           1.91001         -1.5172        -1.62954
LJ          -1.84522        0.987859        -2.52447
LJ         -0.437702         1.56411        -1.46123
LJ          0.892583        -1.78169       -0.086173
LJ           1.76143        -1.91834         1.10103
LJ           2.21731        -1.21678        -1.52833
LJ          -0.43647       -0.319525         -1.7597
LJ          -1.10945        0.916045         2.52676
LJ           1.02357        -1.24395       -0.298651
