108
#Comment!
LJ           0.24292         1.81681         2.29893
LJ           2.54807        0.436513          1.4026
LJ         -0.157304        -1.87981        -1.16977
LJ          -2.14609       -0.938495        -1.43735
LJ           1.17806       -0.850546       -0.679243
LJ          -0.62627        -2.46241        -1.49534
LJ           1.89601       -0.569165        -0.35685
LJ          0.803084      0.00791659        0.164085
LJ         -0.248905        0.345503       -0.656169
LJ         -0.623953       0.0814302          2.1322
LJ              -nan            -nan            -nan
LJ          -1.98014        -1.55919        -0.78868
LJ           1.15747       -0.282683       -0.577796
LJ          -2.15949         -2.4511         1.66538
LJ          -2.39093       -0.387891        -1.84886
LJ            2.5452        -1.11528        -1.44095
LJ          0.550333        -1.92517         2.05029
LJ           2.34783       -0.774284          2.4739
LJ            1.6232       -0.706579        -2.28388
LJ          0.123529         2.00185       -0.338892
LJ           1.94343         1.15268         1.53879
LJ         -0.908127        -1.15708         2.13591
LJ          0.651855        0.268674        -1.56386
LJ          -2.25156         1.02251       -0.664596
LJ          -2.48754      -0.0541494        -2.34335
LJ          0.534179       -0.505072         2.22397
LJ           0.48323         2.14159       -0.766117
LJ           1.96583       -0.977586        -1.17729
LJ          -2.41109        -1.14558       -0.319428
LJ           1.78575         1.95408        -1.65382
LJ           2.41899        -2.31003        -1.82168
LJ          0.915441        -1.96665         2.20544
LJ              -nan            -nan            -nan
LJ           1.29828       -0.702111        0.158231
LJ         -0.896718        -1.10754        -1.19026
LJ         -0.231451       -0.999235         1.60168
LJ           2.18426         2.50963        0.544964
LJ           1.14756         1.82732        -1.30733
LJ           2.39062        -2.54177        0.452578
LJ           2.02282        -2.44686        -1.00873
LJ          -1.74146        -2.28037        -1.79627
LJ         -0.440981         1.28521         1.30836
LJ          -1.42568        -1.08671       -0.480064
LJ          -1.72325        -1.94391         2.43335
LJ           2.01128        0.315246        -1.59596
LJ         -0.732176       -0.118945         -1.9867
LJ          -1.57855        -1.45133         2.34179
LJ         -0.644215         1.27972        0.224825
LJ           1.59366        0.883011       -0.789643
LJ          0.174457        -1.41396         1.97968
LJ          -2.22336         1.56734         1.01935
LJ          -1.35333        0.906926        0.187508
LJ          -1.28949         1.37867        -1.32583
LJ          -1.40487       -0.938803        -1.19566
LJ         0.0921294       -0.468099        -1.00208
LJ         -0.396421         2.19675        -2.02686
LJ        0.00418306         1.03526        -0.30849
LJ           1.61068         -1.4494        0.868862
LJ         -0.637215        -2.22364        -2.14943
LJ            1.3732       -0.273481       -0.311722
LJ            1.8945         2.24967        -1.33637
LJ          -1.38538         2.00899       -0.928527
LJ         -0.351611         2.28344       -0.685005
LJ          -1.35638        -1.53084        -1.59022
LJ           2.10247      -0.0988091         2.01793
LJ           -2.2275         1.93656       -0.463433
LJ          0.824227          2.1503        -1.23295
LJ           1.41783       -0.254195        -1.70809
LJ              1.91         1.72495       -0.477706
LJ          0.401455        -2.07623        -1.67182
LJ           2.46951         -1.3773       -0.936526
LJ            1.7999         1.66044         2.45728
LJ           1.99355      -0.0591159       -0.592564
LJ           1.72768        -2.37897         2.43574
LJ         -0.739841         1.50556        0.105427
LJ         -0.867267         1.07601       -0.990567
LJ           1.69904        0.441362         1.17143
LJ          -2.39155         1.18823        0.372161
LJ           1.93072        0.999974         2.26362
LJ          0.653845        -2.23325        0.323211
LJ           0.70044        -1.07189       -0.123746
LJ          -0.14027        -2.25701        -0.95362
LJ          -2.30593        0.604782       -0.315349
LJ            0.8867        -0.51494        -0.26651
LJ          -2.30895        -1.47128          1.9941
LJ           2.32704        -2.56226           1.448
LJ           2.54334        -2.06377        -1.62781
LJ          0.819176       -0.276985       -0.199517
LJ          -2.46726         2.06064          -2.021
LJ          -2.05851       -0.684065       -0.384364
LJ          -1.92154          1.2901        -1.63402
LJ           1.68976        -1.65764         1.25036
LJ         -0.330753        0.673939        -2.14035
LJ          0.864951        0.811769        0.126272
LJ         -0.700348        0.067724         1.14968
LJ           2.23498       -0.503576        0.134555
LJ           2.18235        -1.53438          1.8477
LJ           -2.2986        0.613763        -1.08593
LJ          -2.10623        -2.37239         0.96599
LJ         -0.220981         1.64985        0.867555
LJ          -2.30228       -0.452671         1.63029
LJ           1.07936        -2.08058       -0.337287
LJ          -0.98901         1.82204       -0.537609
LJ          -1.77566        -1.03602        -2.22983
LJ          -2.06039         2.08805        -1.19334
LJ           1.53568         1.14857        -2.56232
LJ         0.0648637         1.75789       -0.955218
LJ           1.04446        -1.51335       -0.893592
