108
#Comment!
LJ          -1.13299        -1.69662        -1.10877
LJ           2.15783       -0.552971       -0.380155
LJ          -1.89754         -2.3112       -0.389985
LJ          0.961818        -2.35888         1.46667
LJ          -2.21419       -0.364359        -1.91756
LJ         -0.979706        -2.48729        0.894701
LJ           1.59253        -2.06596         1.96582
LJ          0.428124         1.82325        -1.30784
LJ          0.544943         2.46017       -0.105184
LJ         -0.440776        0.815379         0.50881
LJ              -nan            -nan            -nan
LJ           -1.7221        0.508721        -1.82893
LJ          -1.83324       -0.458641         2.18108
LJ              -nan            -nan            -nan
LJ          -1.92387          2.3711        -1.37136
LJ              -nan            -nan            -nan
LJ              -nan            -nan            -nan
LJ              -nan            -nan            -nan
LJ          -2.55357        -1.69786        0.705169
LJ              -nan            -nan            -nan
LJ           1.27454         2.15835       -0.910729
LJ           2.36513        0.686669         1.19673
LJ          -1.49314         1.34141         1.57444
LJ              -nan            -nan            -nan
LJ           1.71574       -0.349067        0.893469
LJ          -1.06007        -2.21142         -1.2349
LJ          -1.16972          2.4701         2.05109
LJ           1.80368       -0.925715        0.740971
LJ          -1.61939        0.356256       -0.168585
LJ           1.10086        0.803612        -1.96593
LJ              -nan            -nan            -nan
LJ            1.0798         1.47993         1.76137
LJ              -nan            -nan            -nan
LJ        -0.0361726        0.070873       -0.689302
LJ              -nan            -nan            -nan
LJ           1.86671       -0.294821        0.809735
LJ           2.26389       -0.366007         1.68311
LJ          0.239288        -1.46943        0.787107
LJ           1.53765        -2.05482         1.26878
LJ            2.4208      -0.0520278       -0.666492
LJ          -1.27865        0.197454         2.56215
LJ          0.790564        0.686245         2.31864
LJ          -1.38913        -2.46155        0.365948
LJ            1.4766        -1.70153        -0.74195
LJ          -1.78502        -1.27645         -2.4773
LJ           -2.0346       -0.659851      -0.0251776
LJ         -0.121638         1.24492         1.57579
LJ          -2.22137         1.37335         2.46634
LJ          -2.55144        0.797856        -0.41707
LJ         -0.865464        0.309979        0.833251
LJ          -1.47345       -0.512293        -2.50024
LJ            1.4455          -1.709      -0.0740227
LJ              -nan            -nan            -nan
LJ         -0.331885        -1.96544          1.4425
LJ         -0.473881         1.04939         1.07168
LJ          -2.53765         -1.5362       0.0378329
LJ         -0.516358         1.34111        -1.87374
LJ           1.02118        0.211188        -1.88417
LJ           1.62399        -1.45176        -1.81615
LJ          -2.36346         1.07735        -1.55824
LJ          0.191317       -0.640462         -1.6541
LJ          -2.21872       -0.908063         2.00202
LJ         -0.439792        -1.63754        -2.20068
LJ              -nan            -nan            -nan
LJ              -nan            -nan            -nan
LJ           1.34122        0.645419         2.08851
LJ          -1.38936        0.351211       -0.452387
LJ              -nan            -nan            -nan
LJ          -1.48218        0.390566         1.59365
LJ        -0.0441432        0.823371        0.335995
LJ          -1.74339         1.14665        -1.22559
LJ           1.49805        -1.89491        -1.53174
LJ         -0.381632        -1.39211         1.63185
LJ           1.39949       -0.776167         -2.0028
LJ           2.20377         2.08023        0.417204
LJ          -2.19657       -0.248651        -1.86766
LJ         -0.206124       -0.597724         1.40317
LJ         -0.386415         1.23964         1.81626
LJ           2.38393        0.303099         1.51699
LJ          -1.59694        -2.46172        0.398348
LJ           1.98637        0.926531         1.32814
LJ           1.46726         1.21212        -1.03805
LJ          -1.05331         0.50711        -2.23677
LJ           1.99365        -0.94525       -0.736975
LJ         0.0616842        -1.96596        0.374684
LJ           2.10583        -1.57733         2.31578
LJ           0.51559       -0.814629       -0.626292
LJ         -0.323378        -1.91734        -1.38092
LJ            2.4691        -2.36504        -1.97481
LJ         -0.208195        -1.30573        0.710572
LJ              -nan            -nan            -nan
LJ        -0.0331399        -2.52324         2.15902
LJ          0.619159        -2.27681         -1.2173
LJ          -1.33936          1.2771        0.326556
LJ           1.70605        0.178636       -0.848788
LJ           2.43228         1.30442        -1.83184
LJ         -0.856783         2.23065        0.852641
LJ          -1.65003        0.306438        -1.96011
LJ              -nan            -nan            -nan
LJ          -1.34621       0.0887479        -1.09693
LJ           1.34685         2.28298        -0.87092
LJ         -0.691716        0.925392        -2.32529
LJ           1.23345       -0.244075        -2.38572
LJ           2.02281        -2.52627         2.13874
LJ              -nan            -nan            -nan
LJ          -1.14806          2.3967        0.407284
LJ          0.343589        0.359461         1.84799
LJ              -nan            -nan            -nan
