108
#Comment!
LJ           2.14065         1.27618         1.62495
LJ           2.11347        -1.05791         2.45768
LJ          -1.42096         1.69616         -1.4219
LJ          0.635548        0.515418        0.826427
LJ           0.59122        -1.37155        0.280289
LJ          -2.26281        -2.20867         2.14632
LJ          0.682025         1.47935        0.589889
LJ          0.800841          1.2812        -2.09194
LJ           1.52514        -0.69344        0.182404
LJ          -2.48061         1.66769        -1.91331
LJ              -nan            -nan            -nan
LJ          0.512632        0.639958         -1.4727
LJ          0.642976         2.23357        -2.26746
LJ              -nan            -nan            -nan
LJ          0.626346        -0.29504         2.44085
LJ              -nan            -nan            -nan
LJ              -nan            -nan            -nan
LJ              -nan            -nan            -nan
LJ         -0.167613          2.2186       -0.156475
LJ              -nan            -nan            -nan
LJ          -2.47575         2.36113         2.18335
LJ         -0.802757         0.72254        -1.00542
LJ           1.17914         0.40407        0.848364
LJ              -nan            -nan            -nan
LJ           0.48112        0.602786        -1.07381
LJ          -2.53007        0.478829        -1.92173
LJ           1.73299         1.71632         1.60514
LJ          -2.49913       -0.652493       -0.747619
LJ          0.655587         1.16029          2.3461
LJ          -1.58288         2.46521         1.17222
LJ              -nan            -nan            -nan
LJ           -2.0249         1.55329        -2.09643
LJ              -nan            -nan            -nan
LJ           1.38054       -0.922342       -0.434257
LJ              -nan            -nan            -nan
LJ           2.30656         0.22512         0.54664
LJ         -0.620368        -2.44463        0.545949
LJ          -1.41294        -2.42055        0.887467
LJ          -1.79046         2.32776        0.535391
LJ          -1.48209        -2.41656        -1.10173
LJ           1.35462          1.1774        -1.49339
LJ         -0.161316       -0.468629       -0.498847
LJ           1.33983         1.90542       -0.660143
LJ         0.0344392        -2.00716        -1.94544
LJ          -2.30535         0.16666        -1.75676
LJ         -0.174917         2.10089        -2.13577
LJ         -0.391952         1.26894        -1.84834
LJ         -0.104938         1.14381        -1.69507
LJ           1.18219        -1.99818        -2.05218
LJ           -1.8776       -0.860435       0.0345793
LJ          -2.45872     0.000592218       -0.436798
LJ           1.67102        -1.10022       -0.329514
LJ              -nan            -nan            -nan
LJ           -1.1435         1.51592        0.127777
LJ         -0.301589        -1.65703        -2.53692
LJ         -0.850638        -2.55612         1.00235
LJ         0.0916608         0.86042         2.06781
LJ          -1.07518        -1.36816       -0.723666
LJ          0.566029       -0.559357          1.0769
LJ          -1.00361         1.17435        0.869071
LJ        -0.0269791         2.48867         0.39095
LJ           2.28622        0.457326        -2.24802
LJ          -1.30317        -1.85034        -1.06716
LJ              -nan            -nan            -nan
LJ              -nan            -nan            -nan
LJ          -1.66637        -2.23425          1.2236
LJ           0.40052        0.907463         2.31611
LJ              -nan            -nan            -nan
LJ         0.0982693            1.71         1.41432
LJ          0.165369          2.4703        -2.33138
LJ         -0.243641         2.11243        -1.21693
LJ          -1.35497        -2.21619           2.109
LJ          -2.11179        -2.32894        -2.05673
LJ         -0.970069          -1.855        -2.34961
LJ           2.12912         1.27649         1.17588
LJ          -1.35895         2.28193         2.26343
LJ          0.655987        -0.55827        0.192772
LJ          0.113462         1.41361         1.53865
LJ         -0.579562       -0.598841      0.00756705
LJ            0.7445        -1.42829         -2.3342
LJ         -0.881656        0.497285        -1.39371
LJ          -2.37896        -1.60425        -1.61425
LJ          0.406013          1.5263         1.12944
LJ          0.303838        -1.70736       -0.389042
LJ          -2.30456        0.620992        -1.14721
LJ          -1.56019       0.0686496         2.41236
LJ           -1.1155       -0.837514        0.755846
LJ           2.24653        -1.85731       -0.446576
LJ          -1.03203         1.13642         1.09217
LJ           2.37559        -1.84735      -0.0815658
LJ              -nan            -nan            -nan
LJ           2.18166         -1.0005        -2.55089
LJ          -1.27001       -0.568354        -1.17507
LJ          0.123948         1.15848        -1.82144
LJ           1.99422         1.32288        -1.80631
LJ          -2.41115         2.04213       0.0389039
LJ          -1.50481        -1.50897         1.42447
LJ           2.19096         1.17876        0.244459
LJ              -nan            -nan            -nan
LJ          -1.89842        -1.75185         1.72571
LJ           2.53756         1.89198        -1.07653
LJ           1.40432          1.7033         1.73511
LJ          -2.05868         -2.4522        0.236496
LJ          -2.09837         1.53462         2.21481
LJ              -nan            -nan            -nan
LJ        -0.0572992         -1.4351        -1.44484
LJ         0.0824673         -1.7841       -0.712289
LJ              -nan            -nan            -nan
