108
#Comment!
LJ           1.22403         2.00137         1.39281
LJ          0.360376        0.361411      -0.0450422
LJ           1.44491          2.1662        -2.04483
LJ       -0.00999198         1.46914       -0.232359
LJ          0.355974         2.13801         2.30034
LJ          -2.16273         2.38654        0.744498
LJ          -2.47531       -0.814917       -0.447422
LJ          0.404844        -1.87454       -0.203964
LJ          -1.68132         1.29155         1.35237
LJ          0.835793        0.987619        0.612342
LJ              -nan            -nan            -nan
LJ           2.06249       -0.580724         2.40867
LJ          0.165404          0.4037        -0.81074
LJ           1.15385        -0.10033         0.65776
LJ           1.63139       -0.457999       -0.962962
LJ          0.297588         1.20011         1.93056
LJ         -0.794093       -0.842163         1.23838
LJ          -1.99243        0.762825        0.641822
LJ         -0.839897        -2.11732        0.945186
LJ           1.03644       -0.318816       -0.984821
LJ            1.1482         2.52933       -0.593813
LJ         -0.727171       -0.759778        0.365031
LJ          -1.14222       -0.454374         2.40794
LJ           2.46247        -1.08574         1.44454
LJ          -1.57359       -0.845388        -1.16983
LJ          0.939682         1.49162         1.44663
LJ          0.161538         1.37075         0.18503
LJ          -0.39668         1.61738         -1.6799
LJ          -1.21253        0.590539        -1.09304
LJ           1.02372         -1.0501         2.05858
LJ         -0.300514        -2.04497        -1.18195
LJ         -0.701142        -2.31187        -1.56413
LJ              -nan            -nan            -nan
LJ         -0.754073        -2.38112        -1.54432
LJ              -nan            -nan            -nan
LJ         -0.124351       -0.709205          1.5289
LJ           1.35481       0.0696541        0.204697
LJ         -0.114833        0.171133         2.46196
LJ          0.255892        -2.03899        -0.49593
LJ          -1.57835        -2.38995         1.44361
LJ           1.60079        0.654327         -1.1317
LJ         -0.655788         1.77961        -1.22895
LJ          0.287948        -0.81422       -0.325715
LJ           1.62811         2.29567          0.5464
LJ           1.96857         1.43485        -2.28979
LJ          0.347032       -0.951465        -1.57587
LJ           1.73893        -2.11699         1.99023
LJ          -1.13296        0.459538         -1.9511
LJ        -0.0682469        -1.10744         2.52886
LJ          0.976163        0.178184         2.33135
LJ         0.0585135        -1.36971        0.856938
LJ          0.281077       -0.359913         -1.4305
LJ          -1.99665        -1.78815        -1.96252
LJ           1.05298        0.463023        -1.94611
LJ           2.20065         1.51574        -2.42573
LJ          0.417931        0.550568          2.4552
LJ         -0.254082        -1.95656        -1.10139
LJ            2.2915        0.955032         1.59737
LJ        -0.0441165        0.833649          1.8266
LJ          0.223417          1.7242         1.22967
LJ          0.731501        -1.49713         1.52196
LJ          -1.47794         1.85395         1.50304
LJ          -2.17049        0.962521         2.01544
LJ          -1.44188        -2.16874         2.26135
LJ         -0.226345         1.69599       -0.364107
LJ           -1.0286        -1.20526       0.0507095
LJ          -2.52042        -2.25629        0.594452
LJ              -nan            -nan            -nan
LJ           -1.5859       -0.919709         1.75144
LJ          -1.89293         1.10485         1.76916
LJ          -1.50499        -2.29167         2.32977
LJ           1.13096        -1.67161         1.84823
LJ           1.81343       -0.963097        0.173002
LJ          -2.21632          2.5464         1.96993
LJ          0.113896         2.28008         1.69629
LJ          -1.26251        0.869702        -1.27213
LJ         -0.262373      -0.0373617        0.286665
LJ           1.96755         0.16005        0.829577
LJ          0.112377       0.0542169        -1.98933
LJ          0.112733         0.94861       -0.712067
LJ         0.0914572       -0.041349        0.449868
LJ          0.915073         -2.4794       -0.796041
LJ          0.387098        -1.52775         2.10302
LJ          -1.59955        -2.05388         1.32348
LJ           1.14628        -1.02329          2.4991
LJ         -0.232069      -0.0604104       -0.787914
LJ           1.12429         1.70617       -0.111571
LJ          -1.17857        -1.06003       -0.816984
LJ           1.88095         1.47111         1.69544
LJ          0.367747       -0.548993         1.74363
LJ          -1.10508         1.70429        -2.38757
LJ          -0.90045        -2.27225        -2.47347
LJ         -0.418414        -2.52401       -0.843225
LJ           1.17713        0.947829        -1.36836
LJ         -0.397544       -0.771948        0.580203
LJ           1.64237        -2.45055       -0.492416
LJ           1.76067         -1.5813        -1.44995
LJ          0.737753        -1.11625        -1.11807
LJ          0.574845         -2.3928         1.88372
LJ          -1.03833      -0.0430368       -0.945748
LJ          -2.48897          2.2072        -2.02212
LJ          -1.57215       -0.477737         2.03756
LJ           1.55075        -1.47201        -1.38201
LJ          -2.02755        -2.52873         1.39863
LJ         -0.765272         2.04588         2.25941
LJ          -0.98455        -1.52823        0.548272
LJ          -1.46944       -0.211363         1.28874
LJ         -0.660401        0.181047        0.115256
