108
#Comment!
LJ         -0.657383         1.50721        0.268698
LJ           1.07077         2.52511         2.50343
LJ          -1.68125      -0.0137141           1.144
LJ          -1.77201         2.21894       -0.731551
LJ          -2.23342        -2.17043         1.23696
LJ          -2.20468         -2.2761         2.25706
LJ         -0.211034       -0.834178        0.221666
LJ           2.47856        0.223377          1.6278
LJ          -2.14128        -1.93878        0.275831
LJ         -0.140013        0.832079        -0.36624
LJ              -nan            -nan            -nan
LJ           2.46787        0.879397         2.17317
LJ        -0.0676796        0.495575        -1.72324
LJ          -1.81252       -0.483261        -2.19336
LJ         -0.876279         1.29358          2.5087
LJ          0.930173        0.451484       -0.377783
LJ          0.994794       -0.119908        -2.36166
LJ         -0.782243       -0.686449         1.22666
LJ         -0.977755         1.27481         1.94686
LJ         -0.641704        -2.01561        -1.12862
LJ          0.783368       -0.134851           0.305
LJ          -2.06955         1.37331        -1.71025
LJ          -1.54884         1.60495        -1.80981
LJ           1.68304        -1.83638       -0.264291
LJ         -0.766645       -0.309377         2.25834
LJ           1.17443        -1.15066       -0.953308
LJ          0.109722         1.14175        -2.22898
LJ          -1.00934         1.84388         1.81247
LJ          -1.63325         -2.1073         2.28595
LJ         -0.736189        -1.91966        -2.19091
LJ          -2.27635         1.45916        0.567753
LJ           1.50512         2.38686         -1.6998
LJ              -nan            -nan            -nan
LJ         -0.723717       0.0382292       -0.270321
LJ              -nan            -nan            -nan
LJ          -2.35398       0.0885204        -1.10371
LJ         -0.176807        -0.67187         1.91345
LJ          -1.61989         1.50103       0.0442651
LJ         -0.023259         1.01767       0.0259899
LJ          0.569748         1.32982       -0.902295
LJ           2.18202        -2.47047         1.93473
LJ          -2.38935        0.699044        -1.64034
LJ          -1.55292        -1.34633       -0.683833
LJ          0.454712        0.818243         2.06034
LJ           2.47599        -1.55089        0.605525
LJ          0.665899         2.30079       -0.696562
LJ           1.54714        -1.13286       -0.599131
LJ          -2.05673        0.215238        -2.37935
LJ          0.928812        0.145798          1.8026
LJ           2.49437        0.210526       -0.402951
LJ          -2.11948       -0.620512        0.449968
LJ          -1.96656          1.9555        -1.61476
LJ         -0.120289        -2.18809         2.14193
LJ          -1.80367         0.72714         -2.1539
LJ          0.569869        -2.23663         1.30445
LJ           2.49848       -0.408291        -1.89395
LJ           1.24253          0.6913         2.51323
LJ          -2.25464       -0.897976         2.08146
LJ         -0.823513         2.38904       -0.577809
LJ           2.53519         1.36301         2.46766
LJ          -2.51719        0.378571        -1.35632
LJ          -0.66229         2.47572        -2.16079
LJ         -0.705867        -1.53182       -0.870635
LJ           1.86091        0.579668        0.177819
LJ           -2.2637        -1.89039        -1.61198
LJ           1.23185         2.17198         1.80442
LJ         -0.869354        -1.13569         2.47817
LJ              -nan            -nan            -nan
LJ            0.9758       -0.317885        -2.10044
LJ         -0.529748         2.45083        -1.50911
LJ           1.27083        -2.51055         1.60063
LJ            1.2565        -2.54237       -0.854477
LJ          -1.44614        0.609327         1.79077
LJ           1.93692          -0.157        -1.40411
LJ        -0.0427642         0.55351       -0.176248
LJ           -1.8853       -0.133287       -0.821837
LJ           1.96667         2.51598        0.619064
LJ          0.295406       -0.132746         1.45429
LJ          -1.05156         2.26315        -2.45026
LJ           2.26657       -0.298539         2.36212
LJ         -0.908872       -0.626392         2.45225
LJ           1.22254        -2.50852        -1.65072
LJ          -1.79579         0.68224       -0.822787
LJ           2.04083        -2.14411        -2.17661
LJ          -1.86862        -2.31548        0.307913
LJ          0.601196        0.725349        0.573669
LJ          -2.51164      0.00144663         1.92221
LJ           1.19095         0.90766        0.709231
LJ          -1.43687       -0.580373        -2.08785
LJ         -0.955557         0.61863         2.51533
LJ           1.63475         0.61244        -2.15417
LJ         -0.631199        -2.56008        0.084918
LJ         -0.222888         1.72267        -1.81709
LJ            1.4626       -0.149042        -1.65356
LJ          0.568323         2.35237         1.05827
LJ           -2.1869        0.146671        0.304277
LJ         0.0483213        -1.57285         2.27656
LJ            -1.535       -0.924022        -2.00309
LJ         -0.200363         2.35073         1.72355
LJ         -0.310824       -0.810193        0.755096
LJ            -1.406        -2.41929        -1.05282
LJ           1.29169         2.34878       -0.831516
LJ         -0.255557        -2.22227        -1.01187
LJ         -0.623108        0.655874        0.251258
LJ          -1.80831        -2.27691          1.5747
LJ          -2.52811        0.689273        -1.19664
LJ         -0.667305        -0.12689       -0.339437
LJ          -1.77396        0.793789         2.08794
