108
#Comment!
LJ          0.219403         2.29287        -2.32804
LJ          0.667834       -0.505073        0.152139
LJ           -2.1486       -0.569555        0.011007
LJ          -1.70161        -2.04474        -1.46417
LJ          -2.38096         -2.2513        -1.45509
LJ         -0.418081       -0.670323        0.358231
LJ          0.278696       0.0903761        0.315391
LJ          -2.51176         -2.1525        -1.81656
LJ          -1.82053        -1.20891        0.573441
LJ          0.113478        -0.19344        0.370749
LJ              -nan            -nan            -nan
LJ          -1.18861        -1.40832        0.756493
LJ           0.52007        0.666497        -0.28441
LJ          -1.83399         1.97403         1.25211
LJ          0.363527        -2.34837        -2.52609
LJ           1.32324         1.27121         1.57328
LJ              -nan            -nan            -nan
LJ              -nan            -nan            -nan
LJ          0.129068        -1.43197        -1.00275
LJ              -nan            -nan            -nan
LJ          0.733445         1.55755         0.46169
LJ          -1.00895         2.12945         1.23715
LJ          0.801423        -1.52092       -0.224371
LJ          -1.25746       -0.803907         -1.3061
LJ           2.06532         2.38587         0.78233
LJ          0.547176        -1.48014         1.86185
LJ          -2.47432        0.949644       -0.673475
LJ           1.47553         2.16589        -2.13857
LJ           1.40812        -1.46679        0.076768
LJ          -1.60617        0.317918         2.38307
LJ          0.885693       -0.197037         -2.2407
LJ         -0.355845         2.22532          1.3662
LJ              -nan            -nan            -nan
LJ          -1.74984        0.133411       0.0566592
LJ              -nan            -nan            -nan
LJ           2.31799         2.03541         1.08729
LJ          0.352183         2.26783         1.61012
LJ          -1.66843      -0.0560501        0.423076
LJ          -2.28727         -2.0395        0.867412
LJ           2.56051        -2.14428         2.48556
LJ          -1.11684         1.45291        -2.27631
LJ           -1.2756        0.153293        -0.99348
LJ            1.7489        -1.07596         1.60211
LJ          0.920982        -2.02709       -0.907714
LJ          -1.74747        -1.45935       -0.972196
LJ        -0.0665186        0.196149        -2.03516
LJ        -0.0554573       0.0409661        -1.07527
LJ           1.28417        -2.35048         1.35334
LJ         0.0948079        -1.00411       -0.152668
LJ          -0.02143       0.0655279       -0.803751
LJ         -0.309305         1.27264        -2.07489
LJ          -1.28045         1.14504        0.547817
LJ              -nan            -nan            -nan
LJ           -2.2957         1.88732         1.86979
LJ          -1.31753        0.922963        -2.42705
LJ          0.836392        -0.37788        0.899058
LJ           0.83386        0.196831         1.05532
LJ         -0.947475         1.10797        -1.53688
LJ            1.4878         1.70175      -0.0729628
LJ           2.34442         1.83975         1.12899
LJ           2.05957         1.90358         2.45389
LJ           2.12132       -0.661079         1.69417
LJ             2.479        0.973603      -0.0890579
LJ          0.788369         -2.1373       -0.159129
LJ         0.0741741         1.91726        0.139677
LJ          -1.23127        -2.56419         -1.1655
LJ           1.79969       -0.867978         1.53921
LJ              -nan            -nan            -nan
LJ           2.27067        -1.72827         1.98284
LJ          0.362133       -0.848297        -2.17449
LJ           1.50657       -0.281173        -2.50759
LJ           1.43559         -2.4911        0.267379
LJ          0.549669           2.292        -2.50834
LJ          -2.38685         1.71681       -0.723284
LJ          -1.85228        0.608717         2.49381
LJ          0.472655       -0.249631        -1.31711
LJ        -0.0296006      -0.0208621       -0.264541
LJ          -2.40143       -0.685282         -1.9046
LJ           1.63044        -2.43073        -1.47992
LJ          0.799712        0.513297       -0.246176
LJ          0.903959        -1.00935        0.739336
LJ          -2.55123        -2.25846        -1.04519
LJ          0.123187         1.99034         2.06835
LJ          -1.05645         -1.2698        -1.60363
LJ          0.545384         1.01825       -0.729059
LJ            1.9936         1.86887         1.14604
LJ           1.96934       -0.947693        -1.34068
LJ          -2.07496       -0.775192        -1.27913
LJ         -0.259186        -1.32481       -0.735944
LJ          0.864598        -1.54404         1.56834
LJ              -nan            -nan            -nan
LJ         -0.840011        0.166597        -1.03077
LJ           1.62226         2.43908       -0.011283
LJ          -1.69019          1.9544         1.54748
LJ          0.446859         1.16721        -1.12767
LJ        -0.0415932         2.04977        -0.25817
LJ            2.3089         2.49561         2.38183
LJ           1.44318       -0.218668          2.2657
LJ          -2.02966        -1.99151         1.72162
LJ           2.14689        0.552164       -0.821713
LJ           1.57759         1.55569         2.11493
LJ          0.419516        -0.12202        -1.91597
LJ          -1.43488         2.27475        -1.64869
LJ          -1.57744        0.256323        -1.50888
LJ           1.43381        -1.12529        -1.52449
LJ           1.55707        -2.45939         1.24561
LJ          -1.72481          1.3223         1.06934
LJ              -nan            -nan            -nan
