108
#Comment!
LJ          0.594741       -0.832245       -0.230442
LJ          -1.63811         1.76163        0.322151
LJ          -0.27828         1.73361       -0.843809
LJ         -0.110224         1.40102        -2.08051
LJ         -0.980244        -1.07871        0.823152
LJ          -1.15044        0.771062         2.22351
LJ           2.11046        -2.19985       -0.651395
LJ         -0.224008         1.23628        -1.96794
LJ          0.167572       -0.890487         2.54137
LJ          -1.32398        -0.53345       -0.940189
LJ              -nan            -nan            -nan
LJ          -2.02414         2.09273        -1.06946
LJ            1.2409         1.68439       -0.578019
LJ         -0.541542        0.943174         2.34732
LJ          -1.05448        -1.76249        -2.10311
LJ          0.784029        -1.68332        -1.41095
LJ              -nan            -nan            -nan
LJ              -nan            -nan            -nan
LJ           0.71843         1.34991        0.866395
LJ              -nan            -nan            -nan
LJ         0.0426264        -2.33153        -1.16621
LJ           2.51835         1.87691        0.232553
LJ         -0.787353        0.562654        -0.98932
LJ          -1.81309        -1.68765        0.225518
LJ          -1.11029         1.24368       -0.930847
LJ           1.27552        -2.29342         0.28894
LJ         -0.831089        -1.20316        0.666017
LJ          0.129926        0.281769        -2.55662
LJ          -1.32969       0.0381058         2.53346
LJ         -0.108927        -1.26517       -0.785671
LJ         -0.765449         2.46233         1.04554
LJ          0.926442         1.88414         2.55028
LJ              -nan            -nan            -nan
LJ          -1.41707         1.77432         -1.7645
LJ              -nan            -nan            -nan
LJ          -1.53381       -0.975097        -1.68458
LJ          0.522645        -2.12505        0.245353
LJ           1.83024        0.896364       -0.248856
LJ         -0.355115       -0.978597          -2.296
LJ          -1.14057        -2.24504        -2.12986
LJ          -2.38597        -1.79538       -0.964695
LJ          -1.09333        -1.97752         1.39535
LJ          0.950344         2.54459         1.56002
LJ           1.78868       -0.578463       -0.528728
LJ           2.02803        -1.74032        0.434049
LJ        -0.0726649        0.259807        -2.48016
LJ          0.401804        -1.58681         1.85028
LJ           2.36838        0.890691       -0.818825
LJ           1.19673        -1.23726         1.27853
LJ          0.836549        0.406978         -1.2069
LJ          -2.39847        -2.28892        -1.31227
LJ           -1.3205       0.0784429       -0.214451
LJ              -nan            -nan            -nan
LJ          -1.08782        0.511942       -0.580691
LJ          0.508499        -1.62749         2.49509
LJ          -1.57598       -0.371872         0.50046
LJ        -0.0189494          -2.382         1.59826
LJ           1.14369        0.720905        -1.70384
LJ          -1.72127        -1.88507        0.254963
LJ         -0.379416        -2.16744        -1.87598
LJ          -1.41602        -2.26331         1.44534
LJ           2.41675        -2.22181        0.907452
LJ           2.05589       -0.413507         1.70602
LJ          -2.00067      -0.0647091       0.0422351
LJ          0.840078         1.26794         1.70509
LJ          -1.40884       -0.875304        -1.68161
LJ          -2.17994          2.4757        0.389659
LJ              -nan            -nan            -nan
LJ         -0.925278         1.20851         1.49755
LJ          0.174392         -1.4764        0.422805
LJ          -1.29738        -2.03909        0.882276
LJ           2.13024         -1.3427        0.201953
LJ           1.71667       -0.403452        0.529184
LJ           2.41923         1.59865         2.12926
LJ         -0.954861        -1.94217         1.94443
LJ           1.93428         1.76068       -0.807756
LJ           2.51856         2.49043         1.39445
LJ           -1.9644        -1.63019        -1.42347
LJ           1.21697        -1.30933         1.04046
LJ         -0.198651        0.565438        -1.44801
LJ          -2.35243         2.43152        -1.00387
LJ        -0.0610191         2.54856       -0.860314
LJ          -2.46318         1.47054        -1.33509
LJ           -0.5048         1.49626         1.81283
LJ           1.48966         2.45409         2.11418
LJ         -0.971496         1.72056        -1.86257
LJ         -0.324165        0.475135         2.42222
LJ           1.06636        0.186089       -0.644586
LJ           1.66031         2.35729         0.64941
LJ           1.73758         1.19672         0.86898
LJ              -nan            -nan            -nan
LJ           1.44335        0.483467        0.284228
LJ          -2.19229        -1.16513       -0.347422
LJ         -0.502033          1.5418        0.899762
LJ          -1.02394        0.344669         2.55733
LJ          0.312742         2.38936         1.21805
LJ          0.283547         2.20065         0.51504
LJ          -1.07435         2.52738         -2.5344
LJ          -2.53536        -2.12834         1.19699
LJ         -0.805333         2.05638         2.37153
LJ          -1.99559        0.113942         2.25098
LJ           1.98802        0.265046        -1.24026
LJ          -1.34899        -1.24024        0.026315
LJ          0.446521        -2.00479        -2.03076
LJ          -2.36688        -1.83534        -1.02255
LJ           1.11518         1.70318         2.13416
LJ         -0.659609        -1.46377        -1.59169
LJ              -nan            -nan            -nan
