108
#Comment!
LJ           -2.2875        0.350054        -1.66472
LJ          0.705112         1.75523        -1.61756
LJ         -0.632675         1.64508        0.772709
LJ          0.676014        -1.86225        -1.03203
LJ          -1.55133       -0.458045        -0.64118
LJ          -0.24595        -1.27003        -2.28178
LJ           -2.4978        0.888137        -1.38526
LJ           1.58203       -0.699311         2.40535
LJ           1.78197         1.69425         2.39519
LJ           2.23075         1.85018      -0.0401579
LJ              -nan            -nan            -nan
LJ          -1.58335       -0.864689         -2.0348
LJ           -2.0871        -2.37933         1.61978
LJ              -nan            -nan            -nan
LJ         -0.392193         1.64858         1.94186
LJ              -nan            -nan            -nan
LJ              -nan            -nan            -nan
LJ              -nan            -nan            -nan
LJ           1.30088        -1.95928        0.417549
LJ              -nan            -nan            -nan
LJ          0.585982        -1.66647        -2.13866
LJ          -1.81467      -0.0366193        0.168616
LJ           1.02288         2.36502        -1.75688
LJ          -2.55041         2.27639        -1.30756
LJ         -0.615297        -1.00494        -1.18119
LJ          -2.44362         2.19246        -2.28997
LJ          0.104304         2.35892          2.2591
LJ          -2.30006        -1.19887        0.309452
LJ           2.25851         2.11976         1.46383
LJ         -0.251409       -0.814851        0.221005
LJ              -nan            -nan            -nan
LJ          0.881242          1.5488         2.50848
LJ              -nan            -nan            -nan
LJ          -2.19619       -0.766031        -1.25754
LJ              -nan            -nan            -nan
LJ           -2.2181       0.0947116        -1.26974
LJ          -1.98464        -2.24887         1.91046
LJ         -0.783395        0.595377         1.21848
LJ           1.76071         1.43252         1.19538
LJ          0.753903          2.3258       -0.596935
LJ          -1.47452        0.237056         2.30113
LJ           -2.1697        -1.39806        -1.15744
LJ         -0.169094         1.09607         2.10013
LJ           2.05264         2.27807       -0.642825
LJ           1.86229        -1.95535        0.806736
LJ         -0.653481        0.273702       -0.256371
LJ           1.04114         1.48635         2.52434
LJ          -2.02597        0.882077       -0.597704
LJ          0.252935        -2.13911         1.16401
LJ         -0.600771        -2.14482        -2.40209
LJ           -1.1351       -0.701731        -2.42842
LJ           1.33612         1.80382         1.92291
LJ              -nan            -nan            -nan
LJ          0.138429        0.126139       -0.880387
LJ          -0.91909        -1.20627       -0.557153
LJ          -0.27167        -1.88961        0.333288
LJ         0.0975417        0.102828         2.29192
LJ         -0.707111       -0.824283         1.51232
LJ          0.499218         2.39219        0.675255
LJ          -1.94873         1.79389         2.16179
LJ          -2.10509       -0.316457          2.3452
LJ           1.60017        -1.73243        -1.42647
LJ          -1.43306         2.53406         1.50407
LJ         -0.569704       -0.227732        0.508524
LJ              -nan            -nan            -nan
LJ          -1.75097        -1.28744       -0.217085
LJ           1.31173        0.993989        0.938648
LJ              -nan            -nan            -nan
LJ          0.972927        0.855696         1.59295
LJ          -1.83626        0.496306          2.3925
LJ         -0.891746         2.41966        -0.70193
LJ           -1.8562          1.1854       -0.427087
LJ          -1.44516        -1.66506         2.31262
LJ           2.30326         2.28628        -0.92053
LJ         -0.217653        -2.31762          1.7917
LJ            2.2737         2.44373         1.58903
LJ         -0.151423         1.46437        -1.26622
LJ          0.266625       -0.166036         2.35573
LJ           1.87031         1.61003         1.26922
LJ          -1.01419        -1.00603         1.38649
LJ         -0.940135        -2.04518         1.19369
LJ           2.01842        -2.05901        -2.46595
LJ           1.77258         2.34545        -1.33649
LJ        -0.0307472       -0.688234        -2.21563
LJ          0.988789         2.37108        -1.04095
LJ          -1.37727       -0.371051      -0.0561223
LJ            2.3513         1.64328        -1.89442
LJ           1.71628         1.59697        0.594046
LJ         -0.387329         2.45825        0.397073
LJ           -1.0513        -2.08504        -2.08461
LJ              -nan            -nan            -nan
LJ            1.1853         1.60376        0.883535
LJ           2.09744         1.40164       -0.679163
LJ           1.10789        -2.51305        -2.29716
LJ          -1.80836         1.95879         1.10831
LJ          0.299438       -0.750257       -0.329207
LJ           2.30163        0.768784         2.01223
LJ           0.53327        -1.42936        -1.18052
LJ              -nan            -nan            -nan
LJ          -1.58627         0.38607        -2.27964
LJ           1.94743        0.812849       -0.517983
LJ           2.41433         1.87419       -0.997337
LJ          -0.96849        0.101863        -1.43534
LJ           1.00993       -0.358719         1.03388
LJ              -nan            -nan            -nan
LJ            2.3254         1.31361         -2.1889
LJ          -2.45557        0.832033        -2.07756
LJ              -nan            -nan            -nan
