108
#Comment!
LJ          -0.10199        0.188656       -0.914972
LJ         -0.805729       -0.539505          2.4001
LJ        -0.0639798         1.24593        -2.15071
LJ          0.341325        0.603681        0.875073
LJ         -0.911715        0.451555         1.29467
LJ           1.54098         1.98103        -1.53006
LJ         -0.865848        0.396606         2.30073
LJ          0.175152        -1.56079       -0.533864
LJ          0.117095         -1.2876         2.02068
LJ           1.01159        -1.00633        0.237121
LJ              -nan            -nan            -nan
LJ          -2.52062         1.03998         1.99916
LJ          -1.07998         1.21114         1.32152
LJ              -nan            -nan            -nan
LJ           2.38959       -0.400373         1.48156
LJ              -nan            -nan            -nan
LJ              -nan            -nan            -nan
LJ              -nan            -nan            -nan
LJ           1.03707        0.301582         1.29514
LJ              -nan            -nan            -nan
LJ         -0.812735         1.96169       -0.899471
LJ           1.05039       -0.361424        0.950751
LJ           2.34268         1.45237        0.949036
LJ              -nan            -nan            -nan
LJ          0.682605        -0.94754       -0.118454
LJ          -1.28821        -1.33558        -2.47625
LJ          0.424177        0.329593       -0.942544
LJ         -0.231832       -0.336825         1.87461
LJ         0.0902429         1.46235        -0.73679
LJ           2.53156        -1.76118        0.240465
LJ              -nan            -nan            -nan
LJ          -1.28257        -2.30778         2.30962
LJ              -nan            -nan            -nan
LJ          -0.92095         2.10301        -1.47952
LJ              -nan            -nan            -nan
LJ           1.78128        0.398847         1.40945
LJ           2.53133         1.95882          -2.257
LJ           1.71678        -1.61509        -1.03742
LJ          0.496336         1.53652        -1.81442
LJ         -0.759392       -0.188328         1.23919
LJ          -1.52932         0.29198        -1.15492
LJ          -2.43819         1.38472        -2.52888
LJ          0.836369        -1.90515        0.981523
LJ           1.87139       -0.304992        -1.93702
LJ          0.696056        0.607858       -0.959532
LJ          0.383102         1.81139       -0.213833
LJ          -2.29306       -0.457064       -0.542109
LJ            1.9551       -0.391512         1.89231
LJ           2.32014           1.385        0.771754
LJ         -0.867767        -2.26339        -1.81975
LJ          0.795975          1.7571        -1.81429
LJ         -0.347493        -1.84694         2.23416
LJ              -nan            -nan            -nan
LJ          -1.13629        -2.43403        -2.07651
LJ           -2.0308         2.36284        -1.98401
LJ           1.09057        0.593453         2.39119
LJ          0.469838       -0.683947         2.48038
LJ          -1.59572        -2.23066       -0.458157
LJ          0.786576         -1.6679       -0.238936
LJ          -1.97267          2.0852        -1.32935
LJ          -2.42005         1.32132      -0.0534056
LJ          0.989376       -0.863826         1.53381
LJ          -1.98021        0.835264          1.5007
LJ              -nan            -nan            -nan
LJ              -nan            -nan            -nan
LJ           2.32717        -2.06387        -1.47977
LJ           1.01366       -0.624688         2.14948
LJ              -nan            -nan            -nan
LJ          -1.46259       -0.194645          1.8065
LJ         -0.982063        0.361684       -0.743949
LJ         -0.475133        0.659859         1.78405
LJ           1.40329        -1.30425         1.75741
LJ          -2.05266       -0.266461         2.17651
LJ          -2.05181         2.17372        -1.53804
LJ           1.13512        -1.44633      -0.0551248
LJ          -2.21878         1.57105         1.45001
LJ           2.30185       -0.687347       -0.080741
LJ          0.144595         1.55569         -2.5003
LJ        -0.0111858        0.958792         1.11839
LJ          0.862084        0.314994        -2.11794
LJ          -1.08755        -1.63824       -0.891191
LJ          -1.53439        -1.00171        0.941936
LJ           -1.4721        0.409341        -1.38311
LJ          -2.39576        -2.33876       -0.600616
LJ        -0.0867203        -2.45828        -2.28108
LJ         -0.806611       -0.566287       -0.263103
LJ           -2.2095        -2.41321       -0.721421
LJ          0.333576        0.123482        -1.65786
LJ          -0.17971         2.12591        -2.39277
LJ          -2.37145         1.14171        0.889228
LJ              -nan            -nan            -nan
LJ          0.413921           2.516        -2.28092
LJ          -1.00636        -1.90944        -1.30132
LJ          -1.66793        -1.99707        -1.35306
LJ           1.63716        0.455264          1.2058
LJ           2.08358        0.933271         2.10421
LJ         -0.179545        -1.12976        -1.55972
LJ          -1.02965         1.57563         1.63641
LJ              -nan            -nan            -nan
LJ           1.46894         1.86054         1.83943
LJ           1.37504        -2.34459         2.06104
LJ          -1.92347         2.01897         2.25881
LJ         -0.908942        -1.46571        0.868915
LJ          -2.09288        -1.61767        -1.50217
LJ              -nan            -nan            -nan
LJ          -1.59962        -0.83419          2.5146
LJ          -2.18866       -0.180906         2.36713
LJ              -nan            -nan            -nan
