108
#Comment!
LJ           1.07513        -1.22314       -0.609367
LJ           1.65973         1.99027         1.19884
LJ          -2.36642         1.12195         -1.1191
LJ         -0.376551       -0.366404         1.50196
LJ          -0.95028         2.36777         1.33653
LJ          -1.34843         -1.3716        0.899966
LJ           2.31489         1.37753        -2.38959
LJ          0.786793       -0.330473         1.92828
LJ          -1.97247        -1.58665        -1.91878
LJ           2.14189         1.01919         1.20218
LJ              -nan            -nan            -nan
LJ         -0.711455         2.55656        -1.30134
LJ          0.553597         1.85159        -1.36936
LJ            2.1873       -0.467529        0.965144
LJ          0.716831         1.84164          1.5981
LJ          0.901073        -2.04116         1.08517
LJ          0.776858        -2.01658      -0.0674163
LJ           0.34712         1.98801         -2.0239
LJ           1.57733         1.21744       -0.323223
LJ          0.698025        0.224296       -0.813068
LJ           1.65418        -2.55718        -1.64159
LJ         -0.857679        -1.68926        -2.26054
LJ           1.92995         1.83914          1.7972
LJ          -2.14779       -0.595845         2.01769
LJ          -2.38767        -1.49227       -0.672955
LJ          -1.12003        -1.65636        0.288702
LJ          0.299796        0.682536          2.0578
LJ         -0.210328        -1.69048        0.544721
LJ         -0.989996       -0.102265         0.65687
LJ           1.60984         1.12264         2.23207
LJ        -0.0277587        0.999905       -0.207914
LJ         -0.121239       -0.473272         1.10794
LJ              -nan            -nan            -nan
LJ          0.136348        -1.51901         1.02884
LJ              -nan            -nan            -nan
LJ           1.63519        0.509526        -1.70687
LJ          0.234921        -2.25828        -1.69241
LJ          0.995161        0.574907       -0.159153
LJ         -0.749987        -1.57068         2.54538
LJ           1.95409         2.12733       0.0448706
LJ          0.527463        -1.03174         2.09592
LJ          0.114234       -0.697642         1.67084
LJ          0.571019        0.961927        -1.79581
LJ          -1.71711         -1.4811         1.95291
LJ          -1.54433         1.71381        -1.57451
LJ          -1.48465         1.23888       -0.795063
LJ          0.362672        -0.11714         2.41961
LJ          -1.82453         0.29914         -1.8515
LJ         -0.441495       -0.305339        0.493194
LJ           1.52264        -2.00793       -0.866246
LJ           2.53206         2.08363        -2.08533
LJ           2.29062        -2.11226        0.404267
LJ          -2.51242         2.28615         1.47671
LJ           1.49991         1.15843         1.22051
LJ          -1.71309         1.18985         2.52981
LJ         -0.611394        -2.51953         2.31087
LJ          -2.20222        -2.44952       -0.964977
LJ           1.30954        -1.53487        -1.70318
LJ           1.69001         1.74789        -1.59155
LJ          -1.72911        0.119161         2.22106
LJ          -0.87563       -0.616222        -2.48138
LJ           2.11267         0.44042         0.81663
LJ          -2.17311        0.517489        0.524636
LJ          0.802952         1.56939         0.06378
LJ            2.3054         1.69331        0.300278
LJ          0.716936        -1.90416         1.61919
LJ         -0.698496         1.88951        0.341265
LJ              -nan            -nan            -nan
LJ           1.67049       0.0514854      -0.0563235
LJ           2.34537        0.437708        -1.75266
LJ          -1.34201        0.207397         2.05125
LJ          -1.72415        0.872979        -1.26256
LJ           2.27709          1.3165        0.488191
LJ         -0.603373        -1.87338        -1.87842
LJ         -0.922999         2.00345       -0.758576
LJ           1.24918       -0.381973         2.13286
LJ           1.66108        0.913257       -0.388418
LJ           1.32746       -0.840039        0.703738
LJ           2.38856         2.08206        -1.17024
LJ          -1.22567         1.64609         0.25637
LJ         -0.876114         1.23361         1.70834
LJ           1.64172         2.51125         2.03901
LJ           -2.0256         1.19304         2.35198
LJ          -1.67915        -1.87377         1.74909
LJ          -0.64798        -2.20288        0.154591
LJ           1.74378         1.73058        0.614763
LJ          -2.42398        0.367086        -1.27596
LJ         -0.572455       -0.039512        0.731744
LJ           1.59205        -2.47413        -0.85975
LJ           1.35603        -2.32416        0.968333
LJ         -0.783282        -2.21278          0.6508
LJ           2.18716       -0.814778         -1.2414
LJ          0.191128          0.9685       0.0789423
LJ          -2.41949        -2.11597           2.037
LJ           -1.3383         2.04584         -0.6745
LJ           2.06921         2.54685        -1.45945
LJ          -1.59236         2.43125      -0.0248805
LJ         -0.202332         1.38281       -0.143783
LJ          0.435715       -0.932176        0.805009
LJ           -0.7287         1.33009          0.3403
LJ           2.17701          1.4856        -2.42081
LJ           2.47745        -1.08035      -0.0334784
LJ         -0.770527         2.23722        -1.66535
LJ           2.52759       -0.292034         1.28123
LJ           1.43057         2.46104         2.16443
LJ          0.790973       -0.879518       -0.935579
LJ          -2.30047         1.16054         1.29639
LJ           2.35798        0.959954        -1.94535
