108
#Comment!
LJ          0.836733        -1.78176        -1.05484
LJ          0.305739         -1.1396        0.327638
LJ          0.365578       -0.749197        -2.00199
LJ          -2.08609        0.050289       -0.248494
LJ           1.38156       -0.393512       -0.776312
LJ          0.321471         1.34992         2.28403
LJ          0.474798         -2.2668        -1.43483
LJ          0.436758       -0.347706         1.10136
LJ         -0.313171       -0.164426        -2.54643
LJ         -0.652564         2.07636        0.730628
LJ              -nan            -nan            -nan
LJ          -2.37107        0.917194         1.39688
LJ           -1.3247         2.35638         1.37021
LJ          -1.98819         -2.0749        0.475745
LJ           1.67809         2.54821         2.53105
LJ          -1.81835        0.865482        -1.42435
LJ         -0.844161         1.22098        -1.33576
LJ          0.454098       -0.777435         1.48432
LJ          -1.41257        0.747347        -1.79681
LJ          -1.25673         1.79207         -1.1678
LJ          -2.55802         1.17913        -1.34294
LJ           1.56032        -1.96587        0.861254
LJ           1.11243        -2.42013        -2.51047
LJ          0.284708        0.399943         1.99571
LJ         -0.218597         1.59426         0.14449
LJ           -1.3728        -1.09565          2.0076
LJ           1.78951        -1.49859        -0.20896
LJ           1.13205       -0.850823         -1.3689
LJ          -2.38538       -0.934589        -1.94152
LJ           2.52314        -2.49794        -0.21359
LJ           1.83264        -1.68999         2.04091
LJ          -1.57492        0.358864          1.8805
LJ              -nan            -nan            -nan
LJ           1.85621        -1.86758        -1.12172
LJ           1.06047       -0.266353        -1.72389
LJ           1.83211         1.91382          2.3928
LJ          -1.41648         1.64028         1.65744
LJ         0.0965422        -1.16797        -1.48782
LJ         -0.635162         1.44099         2.43424
LJ          0.339526        -1.00448         1.72056
LJ          -2.28322       -0.727976        -1.76611
LJ          0.798088        0.858682        -1.16231
LJ          0.674563        0.775493       -0.845541
LJ            1.6546         2.22546       -0.107991
LJ           0.94327         -1.4724       -0.897959
LJ           1.37077         2.41254      -0.0279913
LJ          -1.26893        0.340841      -0.0278956
LJ           2.02224        -2.24976         1.01982
LJ          -2.06211       0.0628523       -0.398301
LJ         -0.951846        -2.15895        0.220449
LJ          -1.97435       -0.521946        -2.01974
LJ          -1.23625        0.366193        -1.61045
LJ            0.8289        -2.42457          1.2527
LJ         0.0508382        -1.33944        -0.24243
LJ           1.97139         1.41938        -1.07405
LJ           1.54542       -0.474164         1.24636
LJ          0.453094       -0.607566        0.108869
LJ          -1.50922        0.908616         1.21576
LJ          0.830773       -0.843674         1.58917
LJ           1.17971        -2.07985        -2.26514
LJ         -0.965363         1.01691        -2.33891
LJ          -1.81203        -2.31347        -1.03316
LJ           2.01267        -2.26276      -0.0985204
LJ           2.14028        -1.32997         1.52843
LJ          -1.72063       -0.674462       -0.478249
LJ          0.952952        -1.56022        -2.38358
LJ            1.5156         2.11936         2.34308
LJ          -2.54271         1.61322        0.184285
LJ         -0.239554         1.33701         1.31632
LJ         -0.529288         1.56192        0.597536
LJ          -2.56256        -1.46388        -2.22115
LJ           1.21095        -2.21066       0.0707567
LJ           1.43509         0.32193         1.39444
LJ          -1.26488         2.43619        0.297553
LJ          0.786397       -0.031305        0.601534
LJ           1.75068        -1.49554         -2.2104
LJ          -0.32367       -0.175405         -2.3193
LJ          0.616357        0.792002        -1.49108
LJ          0.489887       -0.305351            0.22
LJ         -0.865501       -0.698556         2.40745
LJ           1.27185        -1.72633         2.07881
LJ          -2.55385         1.30139       -0.938115
LJ          0.821963         1.65179        -1.93708
LJ          -1.27047        0.301171        -2.43857
LJ          0.901353        -2.32554        -0.95234
LJ          0.487004        0.449183       -0.592667
LJ         -0.120038         1.80842       -0.473613
LJ         -0.531349       -0.508483        0.435537
LJ              1.76         1.68312        -1.53513
LJ           1.59688         2.39201     -0.00492722
LJ           1.16289        -2.33909        0.772195
LJ          0.116042          2.0432        -1.78075
LJ         -0.767869         1.40952         1.79804
LJ         -0.920167         2.17716          2.3272
LJ         -0.678085        0.730722        -1.54753
LJ          0.211705        0.883423        -1.06602
LJ          -2.22183        0.775896        0.812735
LJ         -0.628878       -0.991687         2.07404
LJ            1.3557         2.48987         2.47631
LJ            1.2039         2.18762         2.47463
LJ        -0.0590257       -0.827215        0.233542
LJ           1.44748       -0.337483         2.53726
LJ         0.0793764        0.500546        -1.63465
LJ           1.60041       0.0462149        0.104849
LJ         0.0128325         2.51855       -0.173654
LJ         -0.118335        -1.22963        0.833647
LJ          -1.79984        -2.14325         0.83398
LJ           2.07799        0.356604         1.83169
