108
#Comment!
LJ           -0.7519         1.90895        -2.11075
LJ           1.86013        0.162829        -1.84801
LJ            2.5434       -0.624447         2.05424
LJ          0.620146         1.08233        0.873991
LJ         -0.736141        -1.06935         1.51589
LJ            1.7483         1.03162         1.78627
LJ          -2.14009        -1.92591        -2.36415
LJ           2.13459       -0.983151        0.411603
LJ          -2.05405       -0.382037         1.33752
LJ          0.274887       0.0236798        -2.30098
LJ              -nan            -nan            -nan
LJ          -1.13679         1.08364       -0.500583
LJ           1.98609        -2.25165        0.383565
LJ              -nan            -nan            -nan
LJ          -2.16865         0.33841          2.0584
LJ              -nan            -nan            -nan
LJ              -nan            -nan            -nan
LJ              -nan            -nan            -nan
LJ          -1.94015        -2.27373         2.01181
LJ              -nan            -nan            -nan
LJ           2.30682        0.808609        0.531946
LJ           1.98558        -1.12938         2.01991
LJ           2.46341        -1.72375        0.619581
LJ              -nan            -nan            -nan
LJ          -1.49898        -2.43482        -1.65107
LJ         -0.599217        0.835953         1.37718
LJ          -1.66406        -1.92318         2.35841
LJ          -1.01938        -1.64004         1.23135
LJ          -1.73675        0.692286         2.21162
LJ           1.88722        -1.67208        -0.86979
LJ              -nan            -nan            -nan
LJ         -0.252734        -2.05085         2.36079
LJ              -nan            -nan            -nan
LJ         -0.572606         1.72466        0.482125
LJ              -nan            -nan            -nan
LJ           -1.6303         -1.5912        -1.82444
LJ         -0.093869        0.100535       -0.239544
LJ          0.574321       -0.151501        0.413996
LJ          -1.06834         1.57864         1.46101
LJ          -1.12334         1.26388        -1.89201
LJ            1.1387        -1.79502       -0.227663
LJ          -2.10452        0.246063        -2.55949
LJ         -0.149535         -1.2723        0.769218
LJ           0.56463         1.90154      -0.0614832
LJ         -0.498286         2.28601        -2.20577
LJ          -1.31432         1.09762       -0.590435
LJ          0.787741        -2.32768        -1.40033
LJ            -1.101        -2.02509         -1.4734
LJ         -0.690898        -1.75656         0.60847
LJ          -1.11928       -0.511661       0.0421795
LJ          -1.75006       -0.473401          1.8672
LJ            2.2982         1.84883        0.813404
LJ              -nan            -nan            -nan
LJ          0.812651         1.12425        -1.57601
LJ          -1.68873        -1.51414         2.08029
LJ           1.83776        -1.61126         0.33072
LJ            2.1982          1.9528         1.22357
LJ        -0.0308343        -2.20869        0.776878
LJ           2.53454        0.419059        -2.02004
LJ          0.934435       -0.111739        0.321732
LJ           2.11433       -0.803237         2.56428
LJ           2.32688         1.26413        -2.24538
LJ          -1.10926        0.723948          1.4138
LJ              -nan            -nan            -nan
LJ              -nan            -nan            -nan
LJ          -1.65213        -1.10557         1.72743
LJ          -2.03208         1.42912         1.65744
LJ              -nan            -nan            -nan
LJ          -1.16517        0.477818       -0.719572
LJ          -1.20453        -1.44059       -0.635982
LJ           1.38745         -1.7238        -1.45412
LJ           1.95018         1.72998        -0.86207
LJ           1.89809         1.58137         1.02146
LJ         -0.259826      -0.0388226        0.940643
LJ           1.06121       0.0657084       -0.541336
LJ          -2.40795         -1.2389         2.03058
LJ           2.34397        0.591201       -0.371157
LJ          -1.52878         1.02575         1.41265
LJ           2.21813        0.583269         1.09012
LJ          0.375585         1.68192         1.70064
LJ          0.212136        0.715601        0.391268
LJ         0.0798722       -0.120989         1.53042
LJ         -0.468334        -1.94165       -0.773662
LJ          -1.84021        0.764336       0.0114233
LJ          -1.69994        -1.37141         1.62257
LJ           2.02108         1.24797         2.09503
LJ         -0.612235        -2.32559        0.609993
LJ           2.51378        -2.16708       -0.798342
LJ          0.170929        -0.75233         2.02208
LJ          -1.04066       -0.332872        -1.17997
LJ              -nan            -nan            -nan
LJ           2.18495        -2.29354        -1.29591
LJ           -1.8232      -0.0352644        0.555015
LJ           2.54824         0.95208        -1.86384
LJ           2.50614       -0.393638        -0.42542
LJ          -2.47026       -0.658033         2.31072
LJ          -1.47622        0.444594         2.27453
LJ          -0.07818         1.39008         2.28261
LJ              -nan            -nan            -nan
LJ        -0.0797037         -2.0011        -2.56283
LJ          0.338794         1.80045         1.08376
LJ          -1.39645         1.67829        -1.31523
LJ          0.767338        -1.50918        -2.53806
LJ         -0.728604         1.44467         1.25635
LJ              -nan            -nan            -nan
LJ           2.06435        -1.94928         1.00543
LJ           2.42607        0.847668         1.04792
LJ              -nan            -nan            -nan
