108
#Comment!
LJ           1.54441         2.09545       -0.377456
LJ           1.64991        -2.24432         1.99191
LJ         0.0213596        -1.46889          2.1518
LJ          0.706534          1.0985        0.761594
LJ          0.981904        -2.32033         1.15905
LJ           1.28949         0.38526        0.985954
LJ          -1.89115       -0.977388        0.247586
LJ          -1.83753        0.342922        -0.67816
LJ          -1.31922         1.98294        0.498744
LJ          0.408432        -1.87505        -1.05993
LJ              -nan            -nan            -nan
LJ          -2.51242        0.871003         2.45782
LJ          -1.87086         1.94292         1.36533
LJ          0.960057         1.18608         1.68957
LJ          -2.23875         1.57836        -2.51186
LJ              -nan            -nan            -nan
LJ              -nan            -nan            -nan
LJ              -nan            -nan            -nan
LJ           1.65002        0.639203         1.71936
LJ              -nan            -nan            -nan
LJ          -2.55118       0.0164941       -0.414394
LJ          -1.79063       -0.236775        0.789418
LJ           2.31739         0.21114       -0.386993
LJ         -0.436148        -1.66708          2.2164
LJ          0.369629         1.87346         1.58643
LJ           1.53272        -1.73161       -0.144152
LJ          0.192904        0.912864         2.26268
LJ          -2.02428        0.173995        0.881288
LJ         -0.954306        -1.05336        -2.00792
LJ          0.118142        -2.36328       -0.341337
LJ          -1.46372        -1.78941          -2.173
LJ         -0.815276        0.798564        0.254039
LJ              -nan            -nan            -nan
LJ           1.25027         -1.5782         1.60875
LJ              -nan            -nan            -nan
LJ            1.0737       -0.280713         -1.6513
LJ           2.18718        -1.24151         1.10626
LJ          0.990809         -1.0541         1.45648
LJ           1.56007         1.33724         2.27694
LJ          -1.66343         2.24365         2.20324
LJ           -1.3217         1.88902      -0.0590804
LJ          0.536825        0.611694        -2.54101
LJ          0.151824        -1.90139         1.39253
LJ          -1.63001         2.52835       -0.189747
LJ          0.695199         1.22705         2.54634
LJ         -0.927253         1.84156        -1.43916
LJ          0.370266        0.761079        0.203674
LJ          -2.13567       -0.969596        -2.03929
LJ         -0.629938       -0.996081        0.440579
LJ           1.65644        0.759508        0.448202
LJ          -1.22642        0.676215       -0.312532
LJ         -0.511966       -0.192872         1.02181
LJ              -nan            -nan            -nan
LJ          -1.64541        -1.80403        -0.83777
LJ          0.322759        0.730654       -0.146729
LJ           2.12628      -0.0880423       -0.797619
LJ          0.201767         1.85943         1.94989
LJ          -0.29563         1.91389       -0.675943
LJ          -0.87217       0.0668752         1.75856
LJ        -0.0476805         1.96944        -2.01661
LJ          -1.38347       -0.557957       -0.215802
LJ           1.19254       -0.201717        0.203418
LJ          -1.04969        -1.94626        -1.57587
LJ          0.463947       -0.199276        -2.21018
LJ            1.5421         -1.9244         -1.5605
LJ          -1.15887         1.79373         1.99674
LJ           2.24934        0.351349         1.83899
LJ              -nan            -nan            -nan
LJ          -2.07774        -1.28851       -0.470102
LJ          -1.68006         1.13884        -1.22631
LJ            -1.676        -1.06286        0.333452
LJ          -1.60335       -0.816297          2.3021
LJ          0.902646        -1.56236        -2.35075
LJ           1.56572        0.607754         1.39386
LJ          -2.21754         1.50185        -1.10478
LJ          -2.42406         -1.9069        -1.37775
LJ          -2.15188        -1.63734      -0.0134447
LJ           1.14003        0.251581       -0.108673
LJ          0.891283         1.47568         1.06577
LJ         -0.990097         1.22398        0.290913
LJ           2.48031        -1.67727       -0.413057
LJ          -1.35978       -0.294773         1.51359
LJ          -2.41796        0.568576         0.20674
LJ          0.372322         1.80543       -0.465302
LJ           1.77973        -1.07841        -2.45483
LJ           1.88631        0.599344         1.24509
LJ         -0.117572          1.6862         1.15603
LJ           1.27522         2.23186        -2.49707
LJ          0.262766         2.38179        -1.19098
LJ           1.38963       -0.932506         -2.2828
LJ              -nan            -nan            -nan
LJ         -0.544008        0.959249        -1.66466
LJ           1.56574         1.18879        -2.44433
LJ          -1.48543         2.07395         2.55223
LJ          0.431305         1.98193        0.900662
LJ          -2.18981         1.29757         1.11437
LJ         -0.567368        0.627682         2.49703
LJ           2.51476         1.74687         1.94283
LJ              -nan            -nan            -nan
LJ           2.16347         2.21427        0.227472
LJ         -0.146573         1.83499        -0.62757
LJ          -2.43764        -1.67895        -1.66213
LJ           2.44745         1.26728          1.3465
LJ         -0.609325         1.23869        0.417991
LJ           1.76706         -1.0061         1.31795
LJ          -1.32105         1.45804         2.55354
LJ          -1.75519        0.116341        -1.37291
LJ              -nan            -nan            -nan
