108
#Comment!
LJ           1.64035         2.47398       -0.711133
LJ          0.756361        0.316229        -1.29095
LJ         -0.417105        -1.51529       -0.965968
LJ          -1.33005        0.300901       -0.226072
LJ          -1.38371        0.328068         1.33813
LJ           1.95592        -1.88635       -0.650482
LJ            1.4626        -1.94067        0.237995
LJ         -0.893681         0.56294        -1.68285
LJ          -1.20704        0.235123         2.06562
LJ           2.27421        -1.18864        -1.33067
LJ           -2.0156        -2.34634        -2.46556
LJ          -1.30171          1.0629        -1.83381
LJ          -1.16184       -0.552811        0.853868
LJ           2.04535       -0.686891        -1.56396
LJ           -1.4838       -0.527267        -1.29987
LJ           1.79929         2.31835        -2.48952
LJ         0.0365569         2.50805       -0.768455
LJ         -0.025212      0.00916262       -0.844094
LJ            1.9652         2.02889       -0.265163
LJ         -0.427909        -2.32362        -2.41658
LJ           1.31745        -1.98758        -1.73603
LJ          -1.80029         2.10381      -0.0424794
LJ          -0.93117         1.89804        -1.38361
LJ           1.75627          -2.359        0.343599
LJ          0.515935          0.8516        -1.48505
LJ          -1.19366        0.488319         1.70816
LJ           1.63885         -2.4585         1.38503
LJ           1.51015        -1.96048         1.76422
LJ          -1.99507       -0.871903        -2.52031
LJ           1.59934         1.88176       0.0363866
LJ          -1.00385       -0.747199        0.416367
LJ          0.837718      -0.0184558       0.0354276
LJ          -2.15204        -0.59764       -0.245304
LJ           -1.2897        0.101138        0.495801
LJ          0.552688        -1.21475        -0.17027
LJ        -0.0361461        -1.70944         0.33898
LJ          -2.42492        -1.27853         1.96514
LJ         -0.133063         0.89126         1.36868
LJ            1.6593        -1.26182         1.00412
LJ            2.0183        -1.33646        -2.52692
LJ          0.475432        0.875333           -1.43
LJ         -0.606707        -2.18609           1.457
LJ          -1.63336         1.12558       -0.927973
LJ          0.659353        -1.69628        0.208948
LJ          0.457485        -1.34921        0.282598
LJ           1.00073         2.11056         1.57329
LJ         -0.697436         2.35856         1.74255
LJ           0.95063         1.60308       -0.815979
LJ           1.24693         2.05431        -1.90877
LJ           1.78268         1.73895        0.347808
LJ          0.758867        -0.22489       -0.330748
LJ          0.550649        -1.95353         2.02202
LJ             2.081      -0.0620003         2.52957
LJ          0.385527        -1.77293        -2.13782
LJ          0.511339        -1.47615        0.400652
LJ          -1.42521         1.35127        -2.54274
LJ         -0.288078       -0.586644        -2.21644
LJ         -0.444042       -0.249594        -2.46965
LJ          0.706068          0.9725       -0.168392
LJ          -1.26644         1.07807         2.33126
LJ          -1.72637         2.01328        -2.45879
LJ          -2.32208         -1.2686       -0.830467
LJ           0.45586        -1.82616         2.11753
LJ           -1.3626        0.713494        -1.54382
LJ            1.6055       -0.518422       -0.398248
LJ         -0.542186        -1.73566        0.257251
LJ          -1.56798        -1.72591        0.314363
LJ          -1.52654        0.776682        -2.11182
LJ         -0.541478        -1.93148        -1.47596
LJ          0.435192        -2.38597        -2.16301
LJ           1.51389        -1.11942         1.95166
LJ          -2.54693        -1.91368         1.14569
LJ           1.25059        0.124776       0.0820662
LJ           1.24786       -0.143234        0.496703
LJ         -0.988578        0.850401        0.426453
LJ         -0.467845          -1.883         1.68631
LJ          0.847526       -0.246046        0.403712
LJ         -0.773398        0.320578        -2.25123
LJ         -0.948803       -0.626962         0.35167
LJ          0.033607       -0.894391         1.82507
LJ          0.531357        0.232074         1.97914
LJ          0.536995        -2.05124        0.963465
LJ           -1.1672        0.923138         1.58517
LJ          -1.14509        0.546563        -1.90176
LJ          -1.46836        -1.05771        -2.35554
LJ          0.621515         1.62427         1.76009
LJ         -0.450445         2.03408        0.522751
LJ          -2.09367        -1.95347       -0.275679
LJ          0.618795        0.121177        0.389099
LJ          -1.08581       -0.309299       -0.566181
LJ          0.947376        -1.64274         1.15871
LJ          -2.32046        -2.23053          2.0734
LJ          -2.26416        0.470753        -1.19955
LJ          -1.47466         2.48529        -2.27824
LJ           1.84811        0.790046         -1.8117
LJ           0.72751         2.48803        0.444754
LJ           1.88837        -1.15636        0.238015
LJ           1.01425        -2.12497       -0.361506
LJ          -1.58526        0.453414        0.964583
LJ          -1.29984         2.16761       -0.284936
LJ           2.51441        -1.51514       -0.737921
LJ           1.77957        0.234429        -1.87412
LJ           1.26872       -0.506552        -1.24058
LJ         -0.227152         2.47491        -1.38368
LJ           1.11987         1.97112        -1.77985
LJ          0.909663        -1.40296       -0.534429
LJ           1.96991        -1.02968        0.688192
LJ          -1.72922        -2.43801      -0.0461012
