108
#Comment!
LJ          -2.00008         1.85567         1.03442
LJ        -0.0866204        -1.51481        -1.52069
LJ         -0.912091        -2.28822        -1.37904
LJ          -2.24934         2.39683          -1.538
LJ          -1.23264         2.37997       0.0965128
LJ         -0.278764         2.49503        0.223937
LJ          -2.01539        -1.29051         1.04371
LJ         -0.598221        -1.97912         1.61061
LJ           2.51051         1.68004         2.47379
LJ           2.49293      -0.0827364         2.27936
LJ              -nan            -nan            -nan
LJ          0.272478        0.372024         1.17982
LJ            0.7228         2.28963         -0.4543
LJ           1.24866         2.37737       -0.786722
LJ         -0.839946         1.03876        0.406111
LJ          0.964226         -1.9232         -0.5019
LJ          -1.24106        -1.64055          1.5718
LJ           2.05851      0.00717366        0.608321
LJ          -2.00533        -1.24652        0.828192
LJ          0.833327         1.74154        0.709669
LJ           2.56399         1.09154        -1.42339
LJ           1.85445       -0.201192        -1.45408
LJ           1.50351         2.23385        0.970352
LJ          0.106439         1.21532         2.48113
LJ          -2.10131         2.40266         1.89889
LJ           2.04006        -1.10879        -2.49189
LJ           2.04581        0.874868      -0.0484405
LJ          -2.39864       -0.120553        -1.99867
LJ           1.74003         1.82551       -0.709625
LJ           1.44652        -2.14955         1.36768
LJ         -0.616165       0.0129074         1.93274
LJ           1.65387         1.54493        -0.73166
LJ              -nan            -nan            -nan
LJ           1.74514         2.05136        -2.45824
LJ         -0.413451       0.0437889       -0.537137
LJ           2.38609       -0.761858        0.442886
LJ           1.85252         1.26948        -2.28251
LJ          -1.95027       -0.185383         2.29138
LJ           -1.3968         1.98842         1.36078
LJ           2.27778       -0.102596         1.79694
LJ           -1.3707        0.714495        -1.52444
LJ          -2.05641         2.17186         1.50421
LJ           1.40592         1.60809        0.133742
LJ        0.00524611       0.0477972        -2.10818
LJ          -0.18127        -1.31665        -2.19696
LJ           1.44143        0.819407        -1.93719
LJ          0.976195       -0.292769         1.74939
LJ          0.876851       -0.782962        0.846442
LJ         -0.351054        0.902607       -0.579556
LJ          -1.24416         1.42238         1.38231
LJ          -1.60417         1.77671       0.0223532
LJ         -0.410398        -1.18744        -1.59028
LJ          0.467912        -1.18952          1.6441
LJ         -0.927424       -0.775148        -1.10762
LJ          -1.72527        0.655636         -1.3826
LJ          -2.20947        0.968947       0.0719787
LJ          -1.59652        -1.62935         -1.5439
LJ           -1.9622         1.26261        0.349162
LJ          -2.03167        -2.44009         1.45132
LJ           2.23196        -1.01234        0.297299
LJ          0.552264        0.331256       -0.304683
LJ          -2.55544         1.75303        -1.95539
LJ           1.11965         1.97777       -0.460917
LJ        -0.0726752        -2.55007        0.157066
LJ        -0.0443882       -0.814316        0.112437
LJ             1.646        -0.58163       -0.270461
LJ          -1.92971         1.34814         1.39469
LJ          0.676199       -0.971685        0.234871
LJ         -0.180314        -1.53051        -1.39529
LJ           1.70162        0.724238        0.193243
LJ         -0.334237       -0.306614        -2.18396
LJ          -1.48208       0.0460307        -1.35258
LJ          -1.57549         1.98097         -2.5065
LJ          0.673032         1.55888         -1.3652
LJ          0.826464       -0.180441         -1.6789
LJ           2.43537         1.60763        -2.46836
LJ          -1.73818        -2.44218        -2.51375
LJ           1.57903        -1.23171      -0.0393656
LJ         -0.179124       -0.472453        0.069525
LJ           2.06649         2.00033        0.696836
LJ           1.36986        -1.55937        0.141701
LJ          0.560984        -1.52389        -0.58157
LJ          -1.42697        0.943821        0.593896
LJ            2.5616         1.20173         1.88334
LJ          -2.54575        -0.98169        -1.89146
LJ         -0.376351         2.11464         1.01242
LJ          0.916648         2.47835        0.647121
LJ           2.51014       -0.370021       -0.160626
LJ           2.15112        -1.32136      -0.0336768
LJ           1.54285        0.827173        0.886232
LJ          -1.83587         1.61991        0.126289
LJ          -1.36217       0.0693156        0.930685
LJ          0.349569        -1.57311       -0.500584
LJ          -2.53743         -2.2227         1.84702
LJ           -2.2927        -2.17976        0.372036
LJ           2.56043        0.492586        0.340791
LJ           1.39468      -0.0379686       -0.358664
LJ           0.39326       -0.503894        -1.19295
LJ            2.4759        -1.65008        -1.07105
LJ          0.261545           2.391        -2.24348
LJ         -0.612123         1.56565        0.147571
LJ         -0.265356         1.07238        -1.19167
LJ           2.21042       -0.895076        0.270905
LJ         -0.994532        0.843743       -0.489076
LJ          0.661634         1.09266        -1.10622
LJ           0.69774         2.20979         1.25117
LJ          -1.42423         1.38222       -0.232993
LJ          -1.65702       -0.222736      -0.0592749
