108
#Comment!
LJ          -1.35214         1.89738         1.37275
LJ         -0.399594         2.22943         1.41219
LJ          0.797768        -2.40829        0.756312
LJ          0.218944         2.22104         2.01472
LJ          -1.85235        0.866806        0.930766
LJ        0.00545155         2.11262        0.733728
LJ          0.422929       -0.967933        0.749155
LJ          -1.80289         2.18195       -0.391259
LJ          0.479681        -1.37112       -0.628726
LJ          0.226198         1.21359        0.761488
LJ              -nan            -nan            -nan
LJ          -1.77076          1.3153         1.98985
LJ          0.339604         2.14032         2.39752
LJ          -2.21388        0.867556         1.88172
LJ           2.06408        -1.33403         2.19335
LJ           2.06264         1.98601        -1.78212
LJ         -0.540148       -0.590852         1.05337
LJ          -1.11779         1.38673          1.2606
LJ          -2.53169         1.34238        -2.35261
LJ          -2.56346         1.56458         1.43874
LJ           1.38464        0.888622         1.51834
LJ            2.2883       -0.411147         2.15128
LJ        -0.0810603        0.862491        -1.32523
LJ           2.38959        0.323867         1.13067
LJ          -1.71059         2.40986        -1.29094
LJ           2.08267       -0.414486       -0.696976
LJ           1.51134       -0.757718        -2.46854
LJ           1.79497        0.676076        -2.50804
LJ           1.29488        -1.92763        -2.01962
LJ          0.637639        -1.83223        0.187738
LJ          -2.27655       -0.923409        0.753089
LJ          -1.54137        -1.69453        -1.96047
LJ              -nan            -nan            -nan
LJ           1.42213        -1.70743        0.846646
LJ           1.73889         -2.1438        0.450123
LJ         -0.405614         -2.3203       -0.615261
LJ          0.855871        -2.07883        0.893098
LJ           1.43206        0.507746        0.353152
LJ           1.65368         1.16104       -0.208314
LJ           1.61881         1.26028       -0.817695
LJ           2.24543        0.182699        0.925088
LJ           1.87767        0.110973       -0.237692
LJ           2.37768         2.41313         1.96805
LJ          -1.08981         2.28297        0.949887
LJ          -2.39787        0.400043        -1.88051
LJ           2.14578       -0.873875        0.471164
LJ           2.42752         2.33036         1.66827
LJ         -0.819313         1.94407        0.670268
LJ           -2.3798         -1.7083        0.679205
LJ           1.58524         1.95762        -1.49351
LJ          0.306857        0.426647        0.960921
LJ          -2.40466       -0.768992        0.662715
LJ           2.31357       -0.882568        0.923959
LJ           1.97426         2.40519       -0.943157
LJ         -0.253385         2.03145        -1.88141
LJ         -0.931085        0.397625         1.74856
LJ         -0.636845       -0.923668        -1.22256
LJ          0.562142       0.0240081        0.150874
LJ           1.63771         2.28379        -1.41987
LJ           1.97228         1.87996        -0.23058
LJ          -1.71332        0.115138        -1.88155
LJ          -2.02608         1.58985        -2.11007
LJ         -0.726274        0.358003         1.22847
LJ          0.142209        -2.09081        -1.83753
LJ          -2.38955         1.90577         1.25422
LJ         -0.272718        -1.33287      -0.0451507
LJ          0.916704        0.253675       -0.561253
LJ          0.159701       -0.762312         1.30959
LJ          0.621166         2.01842        -1.83422
LJ        -0.0886874         1.40278         2.02235
LJ          0.502127        0.615015        -1.60405
LJ          -1.29854       -0.823412     -0.00784279
LJ          0.146024       -0.655984        0.921528
LJ           1.09083       -0.490618       -0.572645
LJ           2.33618      -0.0623294        -1.14953
LJ          -2.31156        0.818637         2.23779
LJ           2.54779        0.975201        -1.99726
LJ          -1.50012         -1.6642        0.146552
LJ            1.2384         1.96913        -1.19455
LJ          -1.50389         0.89073        -2.36798
LJ           1.86119        0.418294        0.132153
LJ           2.32293        -1.53375         2.09272
LJ         -0.260158      -0.0382551         -2.4959
LJ           -1.4265        -2.16382       -0.134814
LJ           2.36631         2.45582        0.328373
LJ          0.886135        -0.87329        -1.65813
LJ         -0.251433         1.92869       -0.747725
LJ          0.922593         1.10004        -1.65801
LJ          0.806291         -2.1539        -1.55242
LJ         -0.175299        -2.08909         1.27793
LJ           1.91632         2.20586       -0.372185
LJ          0.552412        -2.50175       -0.674674
LJ           0.32806         1.67263        -1.62564
LJ           2.20653        -2.38832         2.17228
LJ           1.70122       -0.245269          -1.437
LJ          0.135922        -1.93089        0.798289
LJ          -1.60607       -0.898897        -1.34938
LJ           1.68037         2.48009         1.43775
LJ           2.20717         2.17151         1.98919
LJ         -0.689454       -0.683517        -2.17878
LJ         -0.292177       -0.199954       0.0253314
LJ           1.20442         1.90634         1.88094
LJ         0.0986469         1.86168         2.11899
LJ        -0.0280381       -0.234392         1.92869
LJ         -0.420743         2.41311         2.26387
LJ           1.96876        -1.28111       -0.420108
LJ          -1.93854        0.411646        -1.04445
LJ           1.95805         2.34385         1.24747
