108
#Comment!
LJ         -0.567141         1.01095        0.947353
LJ          -2.05215         1.72554        0.279491
LJ           2.48959        -2.27582        0.715099
LJ           1.48844         1.26388       -0.106159
LJ          -1.91752        0.988107         1.86804
LJ          -2.31316        -2.41608        -1.97811
LJ         -0.280684          -0.162        -1.50781
LJ           -1.7234         2.34856         1.34036
LJ         -0.309994         -2.3623         2.45442
LJ           -2.4587         1.73991        -1.87934
LJ              -nan            -nan            -nan
LJ          0.966913         2.12767       -0.298968
LJ          0.799867         2.35712         1.49303
LJ              -nan            -nan            -nan
LJ         0.0951194        -1.60318        -1.51743
LJ              -nan            -nan            -nan
LJ              -nan            -nan            -nan
LJ              -nan            -nan            -nan
LJ           1.31985        -1.31278        -2.12006
LJ              -nan            -nan            -nan
LJ           1.93302        0.996555       -0.347778
LJ           2.32943         -2.0398        -1.14014
LJ         -0.460438        0.646696       -0.235817
LJ          -2.07291        0.426265         1.02832
LJ           1.81174       -0.626071       -0.233735
LJ          -2.31946         0.28969        -1.43275
LJ          -2.12803        0.801726         1.52371
LJ         -0.735072        -2.41486       -0.586805
LJ           2.09584         1.60141        -1.38689
LJ          0.931361         2.32069         1.19967
LJ              -nan            -nan            -nan
LJ           1.72617        -1.77214       -0.904987
LJ              -nan            -nan            -nan
LJ         0.0605196       -0.987738         1.56264
LJ              -nan            -nan            -nan
LJ           2.24955       -0.854883         2.49486
LJ          -2.44038       0.0573829        -2.49593
LJ          -2.00866        0.253148        0.873739
LJ          -1.59266         2.46835         1.86912
LJ         -0.048405       0.0581115       -0.777322
LJ          -1.82962        0.969346        -1.20363
LJ           1.40966      -0.0261943         1.21635
LJ          -2.15118         1.27208        -1.41787
LJ           2.36127         2.39578       -0.978864
LJ           1.57749         2.04501        -1.87685
LJ         0.0843189        0.651162        -2.53938
LJ         -0.392968        -1.36786         2.09772
LJ           2.50758        -0.91335        -1.96348
LJ          -2.42505         1.17017        -1.29487
LJ           2.04986       -0.810939       0.0375874
LJ         -0.847643        0.747304        -1.10755
LJ          -2.01301        -2.30911       -0.661317
LJ              -nan            -nan            -nan
LJ          0.834304        -1.82443         -2.0762
LJ          -2.39826         1.58563      -0.0149063
LJ          -1.29706       -0.175311         2.27632
LJ         -0.673365        -1.06167         1.75106
LJ           1.15014         1.64826        -1.13392
LJ          0.773158        0.533564         1.09357
LJ          0.569024        -1.08269       -0.715883
LJ          -1.79459        0.638667       -0.903174
LJ           1.65716       -0.801416         1.01689
LJ          -1.43309       -0.490994         1.19993
LJ          -0.19989        -1.35543        -2.45251
LJ              -nan            -nan            -nan
LJ           1.38299        0.135178         -1.6967
LJ           2.21762        -1.25964        0.723527
LJ              -nan            -nan            -nan
LJ          -2.23627         1.91141       0.0554566
LJ           1.16697        0.804247        -1.18345
LJ           2.52289        -1.19434         1.74669
LJ           2.12915       -0.610214        -1.13786
LJ          -1.90242        -1.02574        -2.03315
LJ         -0.802335         1.98979        0.937926
LJ         -0.151153        0.230366        -1.19284
LJ           -0.2104       -0.803527         1.26676
LJ          -2.42257       -0.799144        -1.68004
LJ           2.23377         1.47511         1.41666
LJ        -0.0193969        0.122449        -2.21785
LJ         -0.733345         2.06932         1.71967
LJ           1.91904         2.20465         -0.6856
LJ         -0.782714         1.38557       -0.381734
LJ           2.16972         2.09076        -1.31807
LJ          -2.15833        0.906383        -2.15161
LJ          0.337701        -2.20156       -0.204181
LJ         -0.198723        -1.95983          1.9293
LJ         -0.955281        -1.03677         1.84786
LJ          -2.18104         0.88779         2.14274
LJ         -0.566913         2.55248        -1.04815
LJ           -1.8161        0.631537        0.516388
LJ              -nan            -nan            -nan
LJ          0.780704         2.26325       -0.781166
LJ            1.9194       0.0570466        0.419354
LJ          -1.48186        -1.07493         2.04279
LJ           1.08327         2.35283        -2.16468
LJ           1.35666       -0.913133       0.0239508
LJ           1.04131          2.5542         1.00986
LJ            -1.423       -0.988031         2.36764
LJ              -nan            -nan            -nan
LJ          0.852944         1.93903       -0.225869
LJ          -1.92293         1.56306         1.64249
LJ         -0.089877         1.57056          1.2161
LJ          -2.53222        -1.12024        0.213105
LJ          -2.55956       -0.628382         1.48543
LJ              -nan            -nan            -nan
LJ           1.16607        0.305008         2.01996
LJ         -0.576405        -1.15984        -1.93794
LJ              -nan            -nan            -nan
