108
#Comment!
LJ           2.51851        -2.37299        -1.78562
LJ           -2.3169         1.53318        -2.52373
LJ           2.21905       -0.149429         2.14223
LJ         -0.130746        0.563182          1.8122
LJ          -2.20635       -0.926829       0.0870268
LJ         -0.585346       -0.978818       -0.609433
LJ          0.350151        0.813361       -0.659427
LJ           0.90331        0.165068        -1.99927
LJ           1.19247       -0.563463         2.17036
LJ         -0.873192        -2.20864        -1.42406
LJ              -nan            -nan            -nan
LJ          0.317517         1.80323          -2.038
LJ           1.93628        -1.30011        -1.91455
LJ              -nan            -nan            -nan
LJ         -0.371786         1.30958       -0.062705
LJ              -nan            -nan            -nan
LJ              -nan            -nan            -nan
LJ              -nan            -nan            -nan
LJ        -0.0579311         -1.7211        -1.77405
LJ              -nan            -nan            -nan
LJ          0.861466        -2.14727       -0.864672
LJ          0.283322         2.07787         1.05065
LJ          0.816914        -2.45738       -0.632598
LJ           -2.2617         1.73742         1.71333
LJ           0.37365       -0.295938       0.0944661
LJ          -1.57907       -0.429876         2.44085
LJ               2.5          -2.197        -2.51938
LJ         -0.840632        0.705059         2.53924
LJ          0.289594         1.17164         1.31957
LJ         -0.889438          2.4106         2.15043
LJ              -nan            -nan            -nan
LJ         -0.864749        -2.33991       -0.476995
LJ              -nan            -nan            -nan
LJ        -0.0455505        0.975135        -2.09813
LJ              -nan            -nan            -nan
LJ           2.33911        0.685386          2.0905
LJ          0.946045         2.24009         2.48352
LJ          0.802831        0.336646       -0.752607
LJ          -2.32836         2.27398         1.45719
LJ          -0.80101        -1.72964         2.16973
LJ          -2.42389        -0.37787      -0.0335188
LJ          -1.73743        -1.35116        0.829667
LJ         -0.148018        -1.07816         1.88772
LJ          -1.26253        0.237774         1.22558
LJ           -1.9699         0.54947        0.785062
LJ          -2.44789        0.672815        -2.07438
LJ          -2.17873        -2.32886        -1.71166
LJ           1.33459       -0.249435      -0.0282811
LJ          0.802601       -0.320077        -1.26377
LJ          0.200214        -2.37169         1.54159
LJ          0.851372       -0.243911        -2.25554
LJ          -2.08168        0.492836         2.11893
LJ              -nan            -nan            -nan
LJ         -0.770396       0.0658195         2.32487
LJ           1.58475         1.85623         1.94813
LJ           1.00127        0.991194         -1.6163
LJ          -1.14994        -2.26801        -2.33095
LJ          0.916628       -0.426365         1.45839
LJ         -0.688345         1.08219        -1.53443
LJ           2.13119        -1.79976         -1.9313
LJ          0.633275       -0.892263         2.54847
LJ          -2.26597         2.53833         1.42629
LJ           2.01388       -0.183325        -1.02263
LJ          -1.92682          1.4718        -2.39347
LJ              -nan            -nan            -nan
LJ           1.98044         1.38557        0.268887
LJ         -0.739489        -2.44674       -0.446655
LJ              -nan            -nan            -nan
LJ         -0.102579        0.355662        -0.81436
LJ          -2.31365        0.382782       0.0369363
LJ          0.306349       -0.328376       -0.860961
LJ          -2.40369         -1.8615        0.320236
LJ           1.81413        -1.95654        0.330017
LJ          -1.82149         1.91863         1.30143
LJ          0.768461         2.54475        0.250242
LJ          0.690069        -0.19218        0.363146
LJ          -1.44197        -1.78036        0.166836
LJ           1.44757        -1.98203         2.19703
LJ         -0.182631         2.07295        -2.23237
LJ         -0.640825         2.38825        0.531643
LJ          -2.21674      -0.0594516        -1.44332
LJ           1.22162         1.48118         1.22454
LJ         -0.878412         2.11348         2.22246
LJ        -0.0781085        0.794057         2.15984
LJ           2.19776        -1.92034         1.15207
LJ          -2.43969       -0.910494         2.40059
LJ          0.263469        -1.85961       -0.151756
LJ          -1.53844        -0.13777         2.06774
LJ           2.34946         1.27535       -0.851253
LJ         -0.238088      0.00736863         2.36071
LJ              -nan            -nan            -nan
LJ          -1.53233      -0.0753262        -1.82264
LJ         -0.928758        -2.07766         1.44715
LJ          0.416787         1.72741       -0.954335
LJ         -0.529528       -0.221301      -0.0973241
LJ         0.0394897        0.891299        0.383685
LJ           1.44181        0.395774         2.45611
LJ          0.233814        -1.15536        -1.25863
LJ              -nan            -nan            -nan
LJ           2.52644        -1.04922         1.21817
LJ          -2.08806       -0.623538        0.887674
LJ           2.31095       -0.765205        -1.31395
LJ          -1.29655      -0.0573571         2.12877
LJ          -0.10191        -1.64838        -2.17437
LJ              -nan            -nan            -nan
LJ         0.0461347         2.12062       -0.627153
LJ         -0.395791         -1.3055        -1.47192
LJ              -nan            -nan            -nan
