108
#Comment!
LJ          -1.23545       -0.981518         2.38074
LJ          0.143129       -0.970725        -1.34716
LJ          -1.50411      -0.0984947        0.379049
LJ          -2.34074        0.758954         1.29121
LJ          -1.26875          1.6882         1.42138
LJ          0.848893       -0.114298        -1.47648
LJ          0.216102         1.81892         1.60203
LJ           1.59619        -2.21935        -0.41692
LJ          -1.00732        -2.12488       -0.969046
LJ          0.702669       -0.918155        -1.85815
LJ              -nan            -nan            -nan
LJ          0.188299        -1.89532        0.434338
LJ           1.15954        -2.13435         1.54556
LJ              -nan            -nan            -nan
LJ          -1.04611       0.0920391         2.35328
LJ              -nan            -nan            -nan
LJ              -nan            -nan            -nan
LJ              -nan            -nan            -nan
LJ           1.02389        -2.35282       -0.821095
LJ              -nan            -nan            -nan
LJ           2.41515        0.779474        0.325951
LJ          -1.25876         2.03121        -1.58859
LJ            -1.043        0.294516        -2.52287
LJ              -nan            -nan            -nan
LJ           2.08082        -1.93255        0.705223
LJ          0.368684       -0.111201        0.499076
LJ          -2.29372       -0.712364         0.35464
LJ          0.818976        -1.58281         2.03455
LJ           1.55215         1.38198       -0.696464
LJ          0.673185         2.43729        -1.66823
LJ              -nan            -nan            -nan
LJ          0.351096        0.732491         1.91333
LJ              -nan            -nan            -nan
LJ           1.53115          -2.319         1.91486
LJ              -nan            -nan            -nan
LJ         -0.611851        -2.46745        -2.23857
LJ          0.921327        -2.28649         1.69791
LJ          -1.84409        -1.81658        0.274643
LJ          -1.04422        0.242041       -0.391006
LJ         -0.187907         1.94351        0.264503
LJ           2.07125         1.35238         2.24086
LJ          0.561495        0.398684        0.916041
LJ          -1.57252         0.52692        -2.51475
LJ          -2.39217        -1.34071       -0.926891
LJ          -1.61538           1.671        0.216616
LJ          -1.72357        -1.29149         0.51231
LJ           1.87417          1.3315       -0.859897
LJ         0.0604241           1.978         1.10142
LJ          -1.28375       -0.751722         -2.0861
LJ          0.198816        0.312943        -2.52261
LJ          -1.16894         2.37444         2.28865
LJ          0.546427        -1.19865        -1.60985
LJ              -nan            -nan            -nan
LJ          -2.09112         2.52506       -0.365838
LJ          -1.33425          1.8327        -2.03165
LJ          0.497516         1.25874         1.92838
LJ         -0.592946        -1.31549        -1.31182
LJ          -1.77431         2.48064        -2.34417
LJ           2.46786         1.66227        0.639093
LJ           1.11629        0.659153        0.438255
LJ          0.757721        -1.79076       -0.941565
LJ          -2.07831         1.78745         1.88776
LJ          -2.09974       -0.200393       -0.255408
LJ              -nan            -nan            -nan
LJ              -nan            -nan            -nan
LJ          -1.73328         -2.4532        -1.12571
LJ         -0.281977       -0.444524         -1.7553
LJ              -nan            -nan            -nan
LJ           1.79312        -1.10455      -0.0729791
LJ          0.216548         1.73943       0.0937967
LJ           1.33058       -0.233081         2.28988
LJ          -2.36462         2.34206        0.509172
LJ           1.46958         2.23217        0.296861
LJ          -1.60946        -2.55905       0.0466654
LJ           -1.2228        -1.44787       -0.112517
LJ          0.404729         1.44075        -2.13637
LJ          -1.64849         1.34998          1.8262
LJ           1.25978         2.19027       -0.305702
LJ          -1.59772         1.44791        0.581091
LJ           1.36797       -0.986267        -1.31337
LJ           -0.8089        0.103328         1.44209
LJ          -1.23391       -0.316563          1.9648
LJ           1.32653        0.692642      -0.0147673
LJ          -1.91288         0.49567     -0.00388484
LJ          -2.22204       0.0540752        -2.36307
LJ          0.105268         1.82167         1.50419
LJ           2.12399         2.49343       -0.645912
LJ           -1.2864        -1.57382         2.00329
LJ          0.464289         1.51084         1.80423
LJ          -2.49758        -0.76182        0.252538
LJ              -nan            -nan            -nan
LJ           2.06124        -2.40266       -0.697716
LJ           1.57787         1.71736         1.20787
LJ          0.370905        0.668331        -1.87214
LJ           1.64832     -0.00713573          -2.045
LJ           1.01876        0.782732        -1.51897
LJ          -2.10851       -0.802504        -2.33209
LJ        -0.0254544    -0.000936723        -1.14476
LJ              -nan            -nan            -nan
LJ          -1.35263        -2.53823       -0.970401
LJ          0.749146        -1.19561        -1.37629
LJ          -1.73573         1.82414        0.124501
LJ         0.0277663        0.547148        -1.34247
LJ           1.25564        -2.20791        0.301164
LJ              -nan            -nan            -nan
LJ        0.00625155         2.56018        -2.37535
LJ          -1.87154         2.56075         1.46228
LJ              -nan            -nan            -nan
