108
#Comment!
LJ           1.15193        -1.89505       -0.735951
LJ          0.707167         -1.7499         1.54332
LJ          0.247729        0.475205         1.99466
LJ          -1.01262       -0.141909       -0.794365
LJ           1.94198         1.82124         1.25223
LJ           1.38418        -1.04803         1.17606
LJ         -0.887807         0.52354         2.52137
LJ          0.673203        0.297756         0.81553
LJ          0.698497         2.47447        -1.67472
LJ           1.58099        -0.34126         1.53193
LJ              -nan            -nan            -nan
LJ          0.175075         1.83355         1.32763
LJ          -2.08132        0.112868        0.825408
LJ           1.20656       -0.294944        -1.25014
LJ         0.0892886        0.362487         2.42858
LJ          0.495808        -2.39796         1.53297
LJ              -nan            -nan            -nan
LJ              -nan            -nan            -nan
LJ         0.0247299         1.42562         1.37118
LJ              -nan            -nan            -nan
LJ          0.550231        -1.50527         1.24133
LJ         -0.648405       -0.772989         1.89121
LJ          -1.36184        0.417936       0.0346258
LJ          -1.00826        -1.91163        0.940663
LJ           1.10282      -0.0182545        -2.06048
LJ          0.455904        -2.50639         2.33402
LJ          -1.58757        0.720803        -1.33204
LJ         -0.675059         1.12674         -1.1568
LJ          0.874866        -1.92353       -0.591802
LJ          -1.36671        -1.43728         2.19622
LJ         -0.301549        0.688491        -0.74646
LJ          -1.52061        0.700971        -1.14763
LJ              -nan            -nan            -nan
LJ          -1.30317       0.0482633       0.0940294
LJ              -nan            -nan            -nan
LJ          0.349094        -0.22223        -2.11436
LJ          0.820605        0.514872        -1.29067
LJ          -1.21968         -1.1446         -2.2997
LJ         -0.615865        -1.19965         -1.5317
LJ          -1.17209        0.388657        0.718586
LJ        0.00691934        -1.28036       -0.577972
LJ           -2.3901         2.18382        0.600342
LJ           -1.1142        0.370652          1.3836
LJ           1.21549         2.47927        0.762731
LJ          -2.15149        -2.00551         2.11501
LJ          0.773525         1.93041         1.35814
LJ           2.30483        -2.37928        -1.45856
LJ          -2.04451        0.522488         2.10737
LJ          0.867756         1.53889       -0.147022
LJ           2.41501        0.163164        0.345547
LJ          0.735873       -0.195811        -2.32387
LJ            2.3522         0.47977         2.27444
LJ              -nan            -nan            -nan
LJ           -2.5119         1.04189       -0.165919
LJ           2.05796        0.325596         -1.9796
LJ          0.170179        -1.58746         1.69995
LJ           1.52561        -1.20074        -1.43732
LJ           2.45256         -2.5516         2.23584
LJ          -2.34745        -1.41763       -0.830612
LJ           1.72945         -2.3644        0.518056
LJ          -1.30051         0.47404         -1.3111
LJ          -1.10681        -1.24505         2.16421
LJ           2.13834          1.5335         1.54437
LJ          0.691294        -2.36484         1.89429
LJ          -1.19605        0.591311        -1.22947
LJ           2.23024        -1.02964        0.522592
LJ           2.21341       -0.441144         1.99126
LJ              -nan            -nan            -nan
LJ          -1.79792         1.16567         2.47207
LJ        0.00225496        -1.41362        -1.95557
LJ         0.0125341        -1.00576       -0.675837
LJ          0.603359         1.27294         2.46539
LJ          -1.14778        -1.19223         1.08461
LJ         -0.499195        0.431102        0.514432
LJ          -1.50193        -1.95315        -2.33828
LJ         -0.924988        -2.22068       -0.681811
LJ            2.2228        -1.73761        -2.18327
LJ         -0.656858        -0.82789       -0.643409
LJ           0.41066        -1.46494       -0.120776
LJ           2.53489         1.38149        0.634107
LJ           2.31448        -2.53879        -1.81638
LJ          -1.57236        -2.14042        -1.45214
LJ          -2.20281       0.0190868         2.34217
LJ            2.0697      -0.0811463         1.56838
LJ         -0.531431          2.0069        -1.74134
LJ          0.391316        -1.39722         1.06093
LJ          -1.43975        -1.03244        -2.05177
LJ          -1.23831        0.905581       -0.849323
LJ          0.253146        0.500096         1.94965
LJ           2.31202       -0.422765        -2.36554
LJ              -nan            -nan            -nan
LJ          0.500712        -2.16635        -1.01777
LJ           2.03274       -0.919195        -1.38051
LJ           0.65124         2.35746         1.87426
LJ           1.65375       -0.139556        -1.68465
LJ          0.459362         2.35153        -1.85583
LJ          0.202981         0.36925         1.56536
LJ           1.90269        -1.69459        -1.15122
LJ           2.25347       -0.358765         1.76745
LJ          -1.13662        -1.41047          2.2082
LJ          -2.53732        -1.96635         1.11261
LJ          -2.49305          2.4717        0.638101
LJ           1.14297       -0.970034        -1.44713
LJ           1.67459         1.52492        -2.08723
LJ         -0.817604         1.56413        -1.10729
LJ         -0.407999        0.937206        0.825684
LJ          0.289427         2.13377        -1.01799
LJ              -nan            -nan            -nan
