108
#Comment!
LJ         -0.660151         2.53772         2.07405
LJ         -0.898499         2.42446         1.32783
LJ          0.467132         1.04101         2.28464
LJ          -1.99994         1.26243        -1.53359
LJ          -1.86809        -1.51533       -0.764979
LJ           1.13155        0.567452       0.0869167
LJ          -2.50246       -0.145569         1.36426
LJ           1.51911       -0.846875       -0.914581
LJ          -1.22685         2.34927        -1.39715
LJ          -2.37234         2.05299       -0.543336
LJ          -2.16421         2.10646         1.64084
LJ          -2.18572         1.23124         2.37842
LJ         -0.347348        -2.32085        -2.07453
LJ          0.801437        0.981654         -2.3013
LJ            2.3007        0.347059       -0.374621
LJ         -0.661106       -0.523612       -0.239274
LJ          0.482333       -0.214537        -1.84897
LJ         -0.950097       0.0771504          2.3546
LJ           2.43872         2.43458        0.318701
LJ           2.37885       -0.472937         1.61623
LJ           1.00592         2.43123       -0.494797
LJ          -1.94846        -1.90114        -1.79265
LJ           1.34384         0.42593        0.498213
LJ           2.25732        0.164862         2.12203
LJ           1.41329         1.61728          2.2657
LJ          0.348874         1.46182        0.472257
LJ           1.60426         1.39292         1.95261
LJ          -1.14862        -1.54589       -0.503966
LJ           0.93921      0.00628824         1.38849
LJ           2.26709         1.24205        0.195801
LJ          0.233837        -1.12385        0.997248
LJ           1.15772        0.147407        0.457224
LJ         -0.479143        0.327473          1.6267
LJ          0.748649        -1.11518        -1.21472
LJ           2.18211       -0.137216          1.4984
LJ          0.916679         1.21409        -1.01434
LJ           1.39512         -2.5583        -2.11416
LJ          0.585332         2.35241       -0.700903
LJ         0.0183248       -0.352168       -0.484502
LJ           1.74488        -2.21635         1.83038
LJ         -0.148101       -0.948296           1.077
LJ         -0.512668       -0.727672         2.40632
LJ           1.24166         2.54226        -2.22545
LJ           1.58322        0.133908        -1.78706
LJ          -1.35664         1.81446       -0.208395
LJ           1.98539        -1.32373         1.61447
LJ          0.642641        0.615557       -0.349412
LJ           2.31577         1.34873         2.09505
LJ           2.55244        0.941633       0.0575807
LJ           2.39501        0.523376         1.32551
LJ          -1.14305        -2.29649        0.681474
LJ           1.50188       -0.878419       -0.210892
LJ          0.397071        0.355195        -1.09724
LJ           1.63071        -1.19172       -0.739311
LJ          0.941407        0.502793        -0.30034
LJ          0.418466        0.578873        -2.49041
LJ           1.69497         1.39592      -0.0430243
LJ          -2.30266        -2.48939          -1.623
LJ          0.866989        -1.60099        -1.46329
LJ          -1.17953        -2.06806         1.04405
LJ          -1.00244        0.749619        0.134277
LJ          -1.80015         1.58384        0.709583
LJ         -0.649963         1.67324        -2.25085
LJ           2.07081       -0.470569        -2.46499
LJ         -0.585593       -0.456578         0.31581
LJ          0.902537         2.29398        0.591943
LJ         -0.447183        0.849003        0.220964
LJ      -0.000946227         1.50891         2.48956
LJ          -1.30507        -1.19201       -0.701191
LJ          -2.43013         1.89192           -2.43
LJ          -1.34874       -0.547192         1.44613
LJ          -2.25767         1.17391        -1.95453
LJ          -2.18427         1.43166        -2.40951
LJ           1.61659       -0.648027         1.11537
LJ         -0.964657        -1.07399        0.929871
LJ          0.295566        -0.83845         1.22583
LJ           0.15884        0.209221         2.42511
LJ          -1.34793        0.298336        -1.83087
LJ           1.08874         2.53933         1.43689
LJ         -0.443101       -0.520807          0.1002
LJ           -1.7188        -2.54382        -1.79046
LJ           1.60754        -1.37566        0.762208
LJ           1.28438          1.1121          1.2641
LJ          -1.16286         2.02702         1.69584
LJ          -2.18987      -0.0474261        0.526962
LJ          -1.38914       -0.615472        0.415741
LJ           1.98227         1.59074         2.46701
LJ           1.98043        0.869143        -1.76888
LJ            -1.093        -1.54348         2.54575
LJ          -1.22142         1.24697        -2.55786
LJ           1.31625         1.52493       0.0605413
LJ           1.87246        0.467029      -0.0354469
LJ          -1.68535        -1.85486        -2.36141
LJ        -0.0941857        0.122099         2.12525
LJ           1.45922        -1.26611       -0.724523
LJ          -2.50539         0.21485        -2.16032
LJ          0.305767         1.72998         1.70711
LJ           0.14168         2.53149          2.4948
LJ          0.319896        -1.41227       -0.988723
LJ          0.766251         -1.0413         -2.5495
LJ          -1.84198         -2.4358         1.19623
LJ           2.09001        0.854989         1.29128
LJ           1.59058        -1.34982         1.62411
LJ           1.70288        -1.04467        0.208142
LJ           1.96555       -0.133804        -1.87102
LJ          0.181424        -2.49937        0.205133
LJ          -2.44397       -0.237495         2.05275
LJ         -0.990259        -2.39097         2.25228
