108
#Comment!
LJ           1.31933       -0.543505         2.41565
LJ          -1.41608        0.760459         2.16461
LJ          -1.85833         2.03745       -0.340348
LJ          -0.33567        -1.55955        -2.40974
LJ          -2.40282         -1.2265        0.285121
LJ          -0.75707         0.74643         1.78895
LJ         -0.947725         1.11959      -0.0901908
LJ         -0.489592         1.49029         2.25501
LJ          -2.52821         1.30872        -2.25761
LJ          -2.12957        0.768958        -2.26205
LJ              -nan            -nan            -nan
LJ          0.751207        -2.24451        -1.46566
LJ          -2.39935        -1.53354        -1.78077
LJ           1.46005        -1.75952        -1.53904
LJ          -1.26363         1.72595       -0.796597
LJ           1.47414         2.28066       -0.411474
LJ              -nan            -nan            -nan
LJ              -nan            -nan            -nan
LJ           2.42068      -0.0513347        -1.90002
LJ              -nan            -nan            -nan
LJ          0.256428         1.45613         2.18583
LJ           2.13367         1.23823        0.875367
LJ           2.27959         1.98551        -1.28582
LJ         -0.962821         0.75344        0.288161
LJ           2.31155         -2.1108          1.4778
LJ         -0.885336        0.748992       -0.262529
LJ          -2.24619         2.37635        -1.85912
LJ        -0.0781155        0.182198       -0.831345
LJ         -0.143911         2.26502         1.44847
LJ         -0.143424         1.92749         2.11518
LJ            1.4818         2.10549        -1.57575
LJ          0.137244        -2.42797        0.419705
LJ              -nan            -nan            -nan
LJ          -0.78227         1.31832         1.01937
LJ              -nan            -nan            -nan
LJ          -1.82231        -1.72564         2.10796
LJ          -1.45622         1.24069         1.12115
LJ           1.65583        -1.84337         0.93029
LJ           1.17158         1.47891       -0.435488
LJ           2.20683        0.453931         2.18525
LJ         -0.433229        0.801458        0.312268
LJ           2.14691        -1.35613        0.466802
LJ           -1.9693       -0.459024        0.137418
LJ           1.67843        -1.78382         1.53437
LJ          -1.74862        -2.47328       -0.206196
LJ           1.78565      -0.0623637        -2.27146
LJ           1.62938         1.20125       -0.824901
LJ          0.511997        -2.18915       -0.927415
LJ          0.127715        -1.33523        -1.63779
LJ            2.3317        0.788995         1.88755
LJ           2.01108       -0.864609       -0.413601
LJ         -0.516159        -2.36994        0.301799
LJ              -nan            -nan            -nan
LJ          0.212665        -1.99113        0.322012
LJ          -2.52861         1.61136        -1.02193
LJ           -2.0292       -0.539844         1.72894
LJ         -0.539831         1.49738        -1.13379
LJ          -1.15641        0.946391       -0.390645
LJ          -1.38748        -2.15514       -0.701012
LJ           2.17494        -1.08189         -2.2064
LJ           -1.1891         2.33269        -1.63479
LJ           1.76487        -1.35752         1.14808
LJ          -1.33054       -0.522985        -1.59883
LJ           1.18055        0.403668       -0.672405
LJ            1.2309        -1.63228        -0.92115
LJ          -1.90296       -0.711179         1.74329
LJ           1.70421        -1.96237       -0.952083
LJ              -nan            -nan            -nan
LJ          0.521385        -1.24344       -0.149689
LJ           2.32681        -1.97104       -0.374642
LJ          -1.03052       0.0131819        0.688436
LJ          -1.12213         2.31358        0.654359
LJ             -2.32         1.50725         1.80114
LJ          -2.26844        0.268831        -1.22141
LJ          -0.22647       -0.820336        -1.77482
LJ          -2.01039        -2.25903          2.2112
LJ           1.61831        0.524428       -0.108656
LJ        -0.0927091        -1.00637         1.78781
LJ          -1.25077         2.12996         -1.5053
LJ          0.441723        0.455232       -0.972137
LJ         -0.783319         2.07026        -1.41869
LJ          -1.36802       -0.699883       -0.587319
LJ         -0.275932       -0.158907         0.33534
LJ          -1.14493       -0.874819        0.840675
LJ          -2.28097        -1.16678       -0.137615
LJ         -0.777582         1.83288       -0.259587
LJ           1.19565        -1.51511         1.97626
LJ         -0.571189         1.64941        0.529403
LJ          -1.78814        0.222381        0.616883
LJ           2.53894        -0.64028         2.39573
LJ              -nan            -nan            -nan
LJ           2.02951         1.14109         -1.0412
LJ         -0.779199         2.08141        -2.24058
LJ           1.18657        -2.49493        0.422428
LJ         -0.439832         1.43226       0.0973228
LJ          -1.87895         1.57333        0.963027
LJ          -1.73641        0.606787        0.702546
LJ          -1.35295        0.416529       -0.580073
LJ          0.294229        -1.60449         1.95598
LJ         -0.747003         1.49316         1.53001
LJ          0.314235       -0.764957        -1.72131
LJ          0.503316        -2.22311         1.56954
LJ          -1.69862        -2.46657          1.6475
LJ          0.121667         -1.8323        -1.38981
LJ           1.79116        -0.05333        -2.07318
LJ           2.08847         2.34411        0.627124
LJ          -2.33789       -0.882184         -1.9305
LJ              -nan            -nan            -nan
