108
#Comment!
LJ         -0.402832         1.24897        0.250922
LJ           1.68786         2.36816        -2.38623
LJ        0.00438182      -0.0242539         2.41441
LJ          0.427172       -0.509572       -0.258493
LJ           -1.0605        -2.45126        -1.37788
LJ           1.51758       -0.260412        0.456622
LJ          0.264233        0.830866        0.880827
LJ        -0.0887627         2.05189         2.51482
LJ           1.02289        0.582683         -2.1189
LJ          -2.19464        -1.07226         -2.5365
LJ              -nan            -nan            -nan
LJ          -1.18017        -2.01737        0.107885
LJ           1.75529        -1.76049        -1.28466
LJ           1.57676          1.0976         0.56892
LJ         -0.518811       -0.984954         1.47647
LJ          -1.80984        -2.27178        0.412543
LJ           2.26028         1.01358         1.43815
LJ          -1.54722        0.683083        -1.15279
LJ         -0.824098        -1.28433        -0.54657
LJ           2.23405       -0.413508       -0.244278
LJ          0.741441         1.24094         0.50806
LJ          0.799008        0.619817        0.148878
LJ           1.77898        0.467599         1.51091
LJ          -2.23594        -1.75324         2.11483
LJ         -0.452268        -1.71119        0.148012
LJ          0.890688        -2.12692        -2.27344
LJ             1.335       -0.679058        0.297944
LJ          0.514287        0.243103       -0.788606
LJ           2.02199        0.965072         1.19433
LJ           1.32766        -1.41193        -1.05281
LJ           0.70916        -2.51879         2.51057
LJ            2.1834          2.0324       -0.879158
LJ              -nan            -nan            -nan
LJ          -1.88175         1.83833       -0.565429
LJ              -nan            -nan            -nan
LJ         -0.197238       -0.701019        0.841261
LJ          0.222647         1.22274         2.00623
LJ          -2.55616         1.74249       -0.447038
LJ           2.09183        0.275382         2.22629
LJ           1.79899        -1.39902        0.309268
LJ           2.47433        -1.82267         -2.3793
LJ           1.34524       -0.406694        -1.77493
LJ         -0.658273       -0.442438        -2.00267
LJ          0.142275        -1.90035         1.92163
LJ           1.37111        -1.19021         1.86696
LJ           1.33185         0.71136        -2.39635
LJ          -0.70386       -0.796227        0.601556
LJ         -0.683155        0.604153           2.528
LJ          0.674919         1.93791       -0.384468
LJ          -2.23666      0.00552772    -0.000765504
LJ         -0.217398         2.36492        0.624983
LJ         0.0458923        -2.53574       -0.981739
LJ           2.06425       -0.755407         2.28335
LJ           1.46258         1.97568          1.0879
LJ          -1.78995       -0.568796       -0.942181
LJ           1.68177        0.921607        0.380128
LJ          -1.17768        -2.32929        -2.10945
LJ         -0.103112        -1.53162        -2.10013
LJ          0.392367         1.85741       -0.468842
LJ          -2.34818        -2.19631       -0.844602
LJ          0.559078         1.21807       -0.308762
LJ          0.776559        -1.39252       -0.159536
LJ           1.47087         2.50988         1.27548
LJ         -0.125986         1.88608        0.505659
LJ         -0.865182        -1.87099       0.0142032
LJ          0.267207        0.601824         2.34592
LJ          0.178076         1.36776        0.869508
LJ              -nan            -nan            -nan
LJ           2.26847          1.0514        -2.40076
LJ         -0.402463        0.972279          -1.202
LJ           0.42642       -0.874876         1.45639
LJ            -0.245        0.020219         1.71351
LJ          -2.30063         1.56929        -1.57613
LJ          -1.65432         2.33325        -1.65591
LJ           2.26887         1.69611        0.210921
LJ          0.370942         1.36986        -1.28801
LJ           0.81945       0.0695679       -0.665025
LJ           2.39622         1.55499         1.83107
LJ         -0.124732         1.75304        0.925863
LJ          0.214019         1.52799         2.18287
LJ          -1.86717        -2.26911        -2.49435
LJ          -2.21073       -0.533295       -0.168017
LJ           2.56411        0.534154        -1.95505
LJ          0.941029         1.19599       -0.721226
LJ           1.07092         1.16511        0.572022
LJ          -1.79782        0.337207         2.37954
LJ          0.166215       -0.794458         2.50678
LJ          -1.85012        0.933011        -2.39197
LJ           2.24847         1.99695        0.131707
LJ         -0.106876         2.50797        -2.24042
LJ           2.04164        -2.41772         2.08799
LJ         0.0321243         1.11915        -1.93884
LJ          -2.26305        -1.40866        0.126027
LJ           0.96555         2.55339        -2.03456
LJ         -0.778383       -0.422738         1.94706
LJ           1.36393        0.113871       -0.978824
LJ           0.91434         1.40579        -0.68684
LJ         -0.372715       -0.636183       -0.615108
LJ         -0.921444       -0.265115         1.93639
LJ           1.80476         1.43801         -1.9543
LJ           1.72483        -2.56132        -0.49278
LJ          -1.41989        -2.10673         1.72093
LJ         0.0359846         2.55501       -0.312571
LJ          -2.26491        -2.56147        -2.02456
LJ          0.607306        0.887444       0.0634517
LJ          -1.84803        -1.90711       -0.297071
LJ           1.26541        0.472799       -0.667903
LJ         -0.724611         1.33498        0.636617
