108
#Comment!
LJ          -1.39696          2.3369        0.947583
LJ         -0.941738         2.12349        0.807845
LJ           1.65571          2.0898        0.491237
LJ         -0.656737         2.02177        -1.39777
LJ         -0.923836        0.737126        0.221788
LJ          -2.45064          1.0562         1.06655
LJ         -0.601308        0.153655         -2.3476
LJ           0.61822         1.24834        -1.95796
LJ          -1.08262        -1.74988        -1.44161
LJ          0.131118        0.875081        -1.73298
LJ              -nan            -nan            -nan
LJ           1.83491         1.64601         2.48395
LJ          0.862983         2.15834       -0.892827
LJ           1.77526       0.0214043        -1.37459
LJ          -1.66598        -1.13274        -1.78468
LJ          0.420671        -1.43716        -1.63242
LJ          0.392914         2.30183        -1.16623
LJ           2.09168       -0.470715       -0.426577
LJ           1.08513        -2.12319         2.33514
LJ              0.55        0.298687        -1.75488
LJ           1.51545        -1.00059         1.51542
LJ          -1.95789        -2.53954         1.16095
LJ           2.23818         1.98872       -0.285981
LJ          0.923553         1.93612         1.63385
LJ         -0.610452        -1.94607        0.172781
LJ          -1.38261       -0.117278        0.926436
LJ           2.18928         2.29048        -1.67557
LJ         -0.653137         1.94523        0.385349
LJ           1.35871         2.28796        0.812947
LJ          -2.36659        -2.12928        -1.99171
LJ          -1.28577        -1.36951         2.13216
LJ         -0.241875        -1.92441        0.146091
LJ              -nan            -nan            -nan
LJ         -0.893677       -0.293753       -0.919433
LJ              -nan            -nan            -nan
LJ          0.894736        -0.31983        -1.39314
LJ         -0.868792       -0.491746       -0.615046
LJ           -2.4332        0.222847       -0.596541
LJ          -1.96497        -1.77783        -2.46576
LJ           2.09758        0.524782         1.23912
LJ         -0.807372        -2.05712        -1.27735
LJ           1.65918        -2.11521       0.0200562
LJ          -2.29769       -0.661549        0.104631
LJ          0.651235         2.15229        -1.52835
LJ          0.289267        0.313981       0.0629387
LJ          -0.25991        -1.23572        -1.50783
LJ           2.08884          2.3148        -2.36005
LJ          -2.04523          1.6396         1.38205
LJ           2.39979        -1.15656         1.46304
LJ           1.65013         2.38869        0.191567
LJ          -1.16683        -2.50477       -0.310469
LJ          -2.45402         1.47906       -0.547392
LJ          -1.33544         1.18986        -2.46756
LJ          -1.42276         1.23954        0.482049
LJ        -0.0567914         2.45929        0.772202
LJ          -1.63443          0.5043       -0.335586
LJ          -1.29975        -1.21889        -1.07853
LJ         -0.711922         2.52221          2.1233
LJ          -1.07118        0.265795         2.29427
LJ          0.173554       -0.347841        0.692869
LJ          0.448219        0.179091        -1.69461
LJ          -1.93006       -0.205283         0.49837
LJ          0.441327       0.0784852        -2.27396
LJ           1.58406        -1.02154        0.968134
LJ           1.02494       -0.619151         1.88175
LJ          -0.46517         2.08559        -0.49638
LJ           1.95686        -2.54544         1.80203
LJ              -nan            -nan            -nan
LJ           2.19966        0.176913         0.74499
LJ          0.491642          1.5917         1.34323
LJ           2.41225        -1.47121        0.719821
LJ          0.614463         2.02514        -1.44285
LJ         -0.149537       -0.135832        -2.00829
LJ          -1.38506         2.16159         0.47538
LJ           1.65042         2.15776        -1.99298
LJ           1.81348       -0.947895        -2.42535
LJ         -0.103984        0.943589        -2.19803
LJ           1.33623         2.49197         1.01692
LJ          0.142418           2.509        -2.53071
LJ          -1.46681        0.549611        0.484727
LJ         -0.536168        -1.91558       0.0308815
LJ          -2.14266         1.77262        -2.53588
LJ          -2.00433         2.54508         0.83434
LJ          -0.61707         -1.2428       0.0979799
LJ             1.875       -0.439742      -0.0708164
LJ           -1.1004        -1.31286         2.38665
LJ          -1.01473       -0.784689        0.974036
LJ          -2.55284        -1.19531         2.02911
LJ         -0.677316        -1.92554        -2.46713
LJ         -0.422969         0.31956        -1.38259
LJ           -2.2958         2.14596        -2.36667
LJ           2.39098         1.60554        0.836536
LJ          0.413377        0.807971         1.08936
LJ          -1.60461        0.464462        -2.07499
LJ           0.24548       -0.996174        -1.99103
LJ           2.14243         2.34897       -0.501201
LJ         -0.747975        0.219282         2.07524
LJ           2.06518        0.318613         1.19906
LJ          -2.39322        -2.48975          2.1306
LJ          -2.48383         2.10881         1.28915
LJ         -0.384671        0.760398       -0.604788
LJ           1.48369        -0.90641       -0.208373
LJ           1.86774       -0.586731         -1.0193
LJ           1.42777        0.161902       -0.210984
LJ          -2.22946         1.02698        0.712507
LJ          -2.45184        -2.05479        -2.37007
LJ         -0.853017        -1.22872         1.62691
LJ           1.07751         2.56234       -0.848457
