108
#Comment!
LJ          0.376868        -1.01387       -0.881866
LJ           1.85043       -0.256954        0.742421
LJ         -0.618343      -0.0264093         2.44394
LJ           -2.0722      -0.0405808        0.894226
LJ          -1.56321        -1.58095        0.205778
LJ           0.73091       -0.486658        -2.38324
LJ         -0.114754        -1.35466         -1.2534
LJ          -2.10551        -2.03336        -2.48985
LJ          0.477272        0.358735       -0.406405
LJ          -1.62985        0.830256         1.22934
LJ              -nan            -nan            -nan
LJ         -0.255059       -0.200282        0.283629
LJ          0.166046         2.08771        0.337582
LJ         -0.368871        -1.46781         2.33789
LJ         -0.760347        0.860926         1.36792
LJ          0.255965       -0.916438        0.116449
LJ            1.3663        -2.00591         1.85849
LJ           1.01473         1.14483        -2.19644
LJ           2.05493        0.650083       -0.813571
LJ        -0.0263901       -0.215479        -1.33879
LJ          0.542562        -2.33524         2.53219
LJ         -0.487219        -1.21473       -0.206588
LJ        -0.0744154         -2.2323        0.594239
LJ          -1.53263         1.10256         1.52585
LJ          -2.07596        0.700307        -1.00272
LJ           1.41831        0.647332        0.369271
LJ          0.902635         1.58524        -2.42248
LJ           2.37129          -1.296       -0.416215
LJ           -1.3886        0.711249        -2.49246
LJ           1.79825        -1.63797        0.133911
LJ           2.20928         1.09183       -0.458793
LJ          0.565696         2.12057         1.70242
LJ              -nan            -nan            -nan
LJ          -2.01926         2.42997        -2.47209
LJ              -nan            -nan            -nan
LJ         -0.578387         1.11638         0.28011
LJ          -1.75573       -0.392585         -1.1149
LJ         -0.034694        -2.37383         1.13004
LJ            1.5714      -0.0204895        -2.11201
LJ          0.910677        -2.21671       -0.508861
LJ           1.77052        -1.22943         -1.2107
LJ          0.122558         0.18678       -0.138539
LJ          -1.93006       -0.519537      -0.0480584
LJ          -0.35648       -0.862392         2.51725
LJ            2.5031        -2.09708        -2.00479
LJ          -1.09197        -1.51356        0.242997
LJ           1.68535         2.56222        -1.09607
LJ           1.65329       0.0678817        0.105413
LJ          -2.34054        -1.97516       -0.761914
LJ          -1.42721         1.37708       -0.606239
LJ         -0.357614        -2.28443         2.41234
LJ          -2.25487         1.14878       -0.944542
LJ             1.456       -0.726576        -1.31174
LJ          -1.62359        0.504504        -1.09045
LJ          -1.84103        0.464468        -1.71258
LJ         -0.214312         1.20097        -1.80198
LJ          0.301446       -0.433803        -1.67968
LJ           2.29882          1.0304        -1.69219
LJ          0.105464        -1.29475        -1.25546
LJ          0.503424         2.29222       -0.004747
LJ         -0.194418        -2.47464         2.55072
LJ          -0.20083       -0.167819         2.06088
LJ          0.995036        -1.99733          2.2133
LJ          0.268342         2.09461         1.42836
LJ          0.532724       -0.344169         2.45157
LJ           2.14513       0.0365236         1.23354
LJ           1.20458       -0.169426       0.0714273
LJ              -nan            -nan            -nan
LJ          0.930166        0.927238       -0.253253
LJ          -2.18793        -1.57493         2.15513
LJ          -1.14102        -2.23637        0.523928
LJ           2.26191        0.104999      -0.0884938
LJ           1.94022         2.48541        0.669664
LJ          -1.18913       -0.952034        -2.45588
LJ         -0.179158        -1.03669         1.25573
LJ            2.4055         1.41045        -1.40493
LJ          -2.54674        0.234916        -1.39874
LJ         -0.432809         2.12939      -0.0782509
LJ         -0.335605         1.30579        -2.44974
LJ          0.277696         2.08207         1.50231
LJ           -1.9821        -2.13989         -2.2728
LJ          -1.64293        0.852201        -2.43365
LJ          0.651065      -0.0423096      -0.0826651
LJ         -0.694298       -0.261026        -1.86002
LJ          -1.35732        0.759684      -0.0738219
LJ           1.98638       -0.435342        0.955125
LJ          0.421163       -0.147936        -2.25723
LJ         -0.658991         0.23978       -0.677022
LJ          0.539322         2.43165         1.07557
LJ           2.30657       0.0607536       -0.698623
LJ          -2.30594       -0.367024          1.4323
LJ          -2.06646        0.413615         1.59371
LJ          -2.08741       0.0442102         1.95083
LJ           1.93579          2.3398        -2.41249
LJ           1.32972        -1.34114         2.18453
LJ          -1.14287         -2.3402        0.835204
LJ          -2.22374           1.884         1.36757
LJ          0.278071        0.194795         2.13327
LJ          0.062436          1.2432         2.11728
LJ          -1.07869         1.59281         2.15058
LJ          -1.07999        0.181081         1.83112
LJ          -1.89133       -0.485953         0.71702
LJ          0.246954     -0.00288147        -1.56271
LJ         -0.979353         2.17998        -2.43572
LJ           2.06085       0.0729245       -0.270776
LJ         -0.640237        -1.43641         -2.2246
LJ           1.62052         -1.0322        0.894679
LJ          -1.72242         1.32871         2.41608
