108
#Comment!
LJ          -2.19114        -1.97703       -0.162148
LJ          -1.54556         1.60787       -0.222278
LJ           2.35953        -1.64386        0.382518
LJ           1.83826        -1.62931         1.57416
LJ          0.843779        -1.68824       -0.932081
LJ         -0.516947        -0.73429        0.722854
LJ         -0.594344        -1.40186        -1.58129
LJ           1.47464        0.238902        -1.79041
LJ          -1.75468       -0.700709        -2.51271
LJ         -0.359578         1.67647         1.38216
LJ              -nan            -nan            -nan
LJ            2.0194        0.395497         1.02576
LJ         -0.525025     -0.00122717       -0.580556
LJ          0.185659       -0.225169        -1.81244
LJ         -0.869263        -2.43245        -1.39922
LJ          -1.81905         -1.3452        0.409349
LJ          0.291181        -2.19365        -1.48648
LJ           2.36466       -0.216252       -0.327784
LJ          -2.00168       -0.741776        -1.93816
LJ          -1.66897        -1.23971        0.282389
LJ           1.75332        -1.29609       -0.172473
LJ          -2.07517       -0.304646       -0.410152
LJ         -0.399275        -0.12885        -2.08885
LJ           1.73733         1.00943        -1.03652
LJ         -0.161768         2.29246       -0.249529
LJ          0.728662        0.260395         1.52485
LJ           0.26354        0.297371        -2.18262
LJ           1.91473         2.06592        -1.16209
LJ         -0.924357        -1.32886         1.81999
LJ           1.46217        -1.80626         2.23338
LJ          -2.51347        -2.13581         1.69257
LJ           1.11057        -1.19431         1.24587
LJ              -nan            -nan            -nan
LJ           1.33428        0.648035         1.86873
LJ           1.56278        -1.40742         1.20517
LJ          -1.96929       0.0768218         2.21954
LJ           1.51926        0.300704        0.553456
LJ           1.79022        -1.61976         2.50709
LJ          -2.28216         2.15245        -1.74955
LJ         -0.842429        -1.86463        -1.44375
LJ           2.07533         -2.2961         2.39603
LJ           -2.5126        0.692326       -0.235455
LJ          -1.72183      -0.0307853        0.729258
LJ          -1.77886         2.23296        -1.46217
LJ           1.23012         1.75382         2.14926
LJ          -2.41085       -0.571441         2.26214
LJ       -0.00457147        -2.29319         2.53612
LJ         -0.524928         1.55821        -1.33405
LJ          -1.77081        0.238623         1.53884
LJ            0.4357         -1.1301        0.987946
LJ         -0.707324       -0.166048          2.2425
LJ          -0.23284         0.66364        -1.67182
LJ          -1.97215        -1.47756        -1.13613
LJ          -2.20372       -0.596925         1.16648
LJ           1.59282        -1.11391        0.742253
LJ           0.91265         0.13015         2.05059
LJ            1.8792       -0.577478         1.20453
LJ          0.829238      -0.0518486        0.668657
LJ           2.09258         1.62199         1.81146
LJ         -0.709753         1.17257        0.652397
LJ         -0.832077       -0.894268        -1.58687
LJ         -0.989127      -0.0977048       -0.551084
LJ          -1.82045        -1.89862         1.07673
LJ          -1.73029         1.17401        -1.69131
LJ         -0.492654         1.97734         1.95333
LJ          0.282172        -1.73146       -0.723126
LJ          -2.52373        -1.93618          2.3852
LJ          -1.52522         1.44467        0.844868
LJ           1.49619        -1.48127        0.523652
LJ         -0.498828       -0.614818        -1.74492
LJ          -1.67268         1.24833        -1.02812
LJ           -1.4256        0.658044        -1.76028
LJ         -0.144286         1.50273         -1.5363
LJ           0.72472       -0.527001         1.57446
LJ          -2.47837        -2.23645         0.95925
LJ         -0.506404        -1.32664        -1.31133
LJ        -0.0170146        -1.14702        -1.27235
LJ         -0.217786        -2.11146         1.34265
LJ           1.83606     0.000131111       -0.174776
LJ          -1.60292        -2.13298      -0.0585393
LJ         -0.999817         2.55464        -2.01989
LJ          -1.66032        0.440016       0.0700924
LJ          -1.93482         1.41399        0.978671
LJ         -0.538732        0.436092         2.52495
LJ          0.805791         0.85953         1.94602
LJ          0.103799          2.3328         2.15966
LJ          0.122996        0.791224       -0.438759
LJ           2.00594        -1.05087       -0.715033
LJ          0.194404        -1.19106         1.48277
LJ          -2.24714        -2.11318         2.50895
LJ          -1.30416        -2.53508       -0.709841
LJ            0.9662        -2.06793         1.17067
LJ           1.64554        0.668541         -0.6888
LJ          0.684525       -0.594958         2.20892
LJ          -1.11017        -2.32278         2.34049
LJ          0.960392        -1.63426        -1.70126
LJ           2.22559       -0.544588       -0.536869
LJ           -1.9337         1.79237         1.30425
LJ          0.314493        -1.31295        -1.64121
LJ          0.927927         1.63596       -0.504338
LJ          -1.86914         1.22611        0.155804
LJ           1.49369        -2.28486        -2.05374
LJ        -0.0749167        0.588869         1.13095
LJ         -0.515337        0.136424         -1.6255
LJ           1.04672        -2.01939        0.712704
LJ          -2.30072       -0.312475        -1.88812
LJ          0.876961        0.353363         -2.1958
LJ         -0.371237         1.32419         1.19115
