108
#Comment!
LJ          -2.53546         2.31776       -0.888416
LJ         -0.200924         1.15158          1.9601
LJ          -1.38647        0.716309       -0.580438
LJ         -0.201729         1.69276         0.02598
LJ          -2.43857         2.39597        0.758683
LJ           1.63474         1.37436       -0.367136
LJ          -2.26404       -0.465514         2.28408
LJ          -1.54615         1.83092       0.0250737
LJ           1.60714       -0.179533         1.36853
LJ          0.924776       -0.690393           1.021
LJ              -nan            -nan            -nan
LJ          -2.18978       0.0700346         1.41125
LJ         -0.252427         1.95622        0.466712
LJ              -nan            -nan            -nan
LJ         -0.747699       -0.606581       -0.493424
LJ              -nan            -nan            -nan
LJ              -nan            -nan            -nan
LJ              -nan            -nan            -nan
LJ           1.72227         1.95414         1.31715
LJ              -nan            -nan            -nan
LJ         -0.624943         1.88511        -2.00861
LJ          0.966924        -1.71086         2.09368
LJ          -1.10677        -1.11531         1.26391
LJ              -nan            -nan            -nan
LJ            2.2617        -2.56358         1.22091
LJ          -0.55482         1.75745        0.334251
LJ          -1.13522       -0.340844        -2.53392
LJ          0.240049       -0.873232        0.564598
LJ          0.060914        -1.82825         1.73584
LJ            2.2739         -1.9173       -0.134811
LJ              -nan            -nan            -nan
LJ          0.806804       -0.116976       -0.730085
LJ              -nan            -nan            -nan
LJ           -2.1616        -1.68724         1.24385
LJ              -nan            -nan            -nan
LJ          -1.88539      -0.0125726       -0.460989
LJ           1.97527       -0.134378         1.64231
LJ         0.0484054        -1.54986         2.16956
LJ         0.0568304       -0.553755       -0.703196
LJ         -0.736613         1.76154        -1.96508
LJ           2.47505         1.02909         1.89572
LJ          -2.30266       -0.785139        -1.72257
LJ        -0.0471693         1.24836        -1.16405
LJ         -0.251106        -1.42341        -2.23171
LJ           1.43238        -1.20083        0.712547
LJ          -2.38538        0.314281        0.196162
LJ           2.34694         1.96174       -0.437556
LJ          0.969802         2.52099        -2.31925
LJ           2.56241        0.196367       0.0184784
LJ           -1.6171         1.48814         1.77679
LJ          0.558188       -0.289017         2.55778
LJ          0.327618       -0.805519        -1.41135
LJ              -nan            -nan            -nan
LJ           1.31312         1.06159        -2.31443
LJ          -2.43253        0.127557        0.297993
LJ          -1.70646       -0.777081        -1.91414
LJ           1.30971       -0.582375        0.452777
LJ          -1.25661        -2.49351         2.01806
LJ          -2.42111        -1.71506        0.131865
LJ            2.5156         1.41405       -0.407702
LJ           2.10056         0.69857         2.00982
LJ         -0.840631        0.244349        -1.03107
LJ           1.24909         1.45149       -0.597443
LJ              -nan            -nan            -nan
LJ              -nan            -nan            -nan
LJ          -1.17976        -1.78022          1.2283
LJ          -1.49527        -1.45567        -1.86985
LJ              -nan            -nan            -nan
LJ          -2.13695        -1.52705         2.43131
LJ           2.42973       -0.696201        -1.60362
LJ           1.42025       -0.635071        -2.36882
LJ           1.82447        -1.64279        -1.02723
LJ          -1.22893        0.771929        -2.52252
LJ         0.0647666       -0.877327         1.34962
LJ         -0.103733        -1.94799         1.25941
LJ         -0.228587        0.516214         1.62884
LJ          0.628502        0.405187       -0.977263
LJ          -2.18876        -1.49145         1.06142
LJ          -2.45348        -1.47257        -0.13776
LJ           1.49935        -1.65528        0.632542
LJ         -0.967483         1.74167        -2.56385
LJ          -1.74226         1.57469        -2.11619
LJ         -0.989557        -1.79697        -1.40722
LJ           1.75741        -1.42775       -0.390796
LJ        -0.0892909         2.36092        -1.66102
LJ          -2.27029         -2.5143        -2.50216
LJ          -2.34363       -0.537974       -0.664194
LJ         -0.870897         1.88958         -1.5306
LJ          -2.01273         1.31935       -0.039337
LJ          0.514126         -0.6437       0.0731289
LJ              -nan            -nan            -nan
LJ          0.218353       -0.440588        -1.04596
LJ           1.29192         1.75612       -0.188801
LJ         -0.249396        0.701766        -1.09952
LJ          -1.47012        0.618069        0.212724
LJ           0.71489        0.808922       -0.626196
LJ         -0.240287       -0.907891        -0.63391
LJ           2.22714       -0.458903      -0.0557593
LJ              -nan            -nan            -nan
LJ          -1.77665         2.21721        0.698768
LJ         -0.989986        -2.21467         1.13142
LJ         -0.147436        0.163689        -1.31808
LJ         -0.926576         1.99454        0.429866
LJ           2.53248         0.83686        -1.79652
LJ              -nan            -nan            -nan
LJ          -2.31911         2.41544         2.55063
LJ          -2.52658         2.38246       -0.394351
LJ              -nan            -nan            -nan
