108
#Comment!
LJ           1.19046       -0.496256       -0.293692
LJ           1.31582         2.19108       -0.754214
LJ           2.09713          1.5224        -1.56075
LJ           1.21209         0.81504        -2.05769
LJ           2.56453         2.34112        0.900319
LJ        -0.0139847       -0.357666        -2.51409
LJ          -1.69964          1.4266         2.23199
LJ         -0.404499        -1.70886        0.996704
LJ          0.795602        0.566053        0.288988
LJ           1.78113         2.50351        -2.13155
LJ              -nan            -nan            -nan
LJ           1.55363         2.28852        -2.28699
LJ          -1.96784         1.99885        -0.47824
LJ         -0.532019        -1.24919        -1.30372
LJ           2.37671         -2.0512        -1.27525
LJ              -nan            -nan            -nan
LJ              -nan            -nan            -nan
LJ              -nan            -nan            -nan
LJ           1.68931        -2.52395         1.18882
LJ              -nan            -nan            -nan
LJ         -0.784501        0.992007       -0.598734
LJ         0.0982516         -2.4014       -0.558741
LJ          -1.63184       -0.996558         1.57856
LJ          0.544419        0.746485       -0.707126
LJ          0.156625        0.579258       -0.642371
LJ            1.1645          2.0343        -1.84183
LJ            1.2333         2.16828        -2.53501
LJ          -2.31235        -2.45612        -2.17617
LJ          0.205747        -2.34138        -2.16512
LJ           1.88662        -0.54587      -0.0673304
LJ           2.24965        0.524719         1.03293
LJ            1.5508         2.08508         1.36174
LJ              -nan            -nan            -nan
LJ           1.89826       -0.603557          1.6679
LJ              -nan            -nan            -nan
LJ         -0.353081        0.668518        -1.95523
LJ          -2.52618         1.51118        -2.36719
LJ           1.93613        -1.97733       -0.760497
LJ          -0.16024        -2.17087        0.657241
LJ          -1.42938        0.715117         2.48344
LJ          0.897817        -1.86328       -0.142914
LJ           2.35159        0.117801         1.56651
LJ          -1.17481         -2.4884         2.55875
LJ           1.20618          1.1993         1.81642
LJ          0.996721         1.11021        0.326304
LJ          -1.67458        -2.03332       -0.666843
LJ           1.92788       -0.953342       -0.557758
LJ         -0.395946        -2.43769        0.138633
LJ           2.17891        -1.78507         2.08442
LJ          -0.97738       -0.465199        0.347181
LJ          0.241151        -2.46905         2.27354
LJ           -1.6857       -0.954058        0.231584
LJ              -nan            -nan            -nan
LJ          -1.18748        -2.35974        -1.64815
LJ         -0.642474        -1.31157         2.45364
LJ          -1.26735         2.25563       -0.576395
LJ           1.77899       -0.797287        -2.07629
LJ          -2.50424        -2.24127       -0.319625
LJ           1.57325        0.759422        -1.12439
LJ          -2.49183         1.38882       -0.564822
LJ           1.51271       0.0978885         2.56026
LJ          -1.72339        0.245749         2.49198
LJ           1.12117        -2.15286        -1.80924
LJ         -0.107953         1.87431       -0.636235
LJ          -1.24785         1.88107         1.24901
LJ          -1.36192        -2.42955         0.68497
LJ         -0.969853        0.735104        -1.93603
LJ              -nan            -nan            -nan
LJ           -1.1366        0.953545        0.383372
LJ            1.8807         0.41438         2.28945
LJ         -0.863456         -1.9522        -1.23185
LJ           1.03099        -2.24541        -1.96174
LJ          0.759147        -2.33341         1.19803
LJ           -1.1347        -2.07448        -2.39449
LJ          0.413348        -1.89043          2.3924
LJ          -1.19988       -0.571662       -0.504159
LJ          -1.03439         1.27652        -1.84376
LJ          -1.03663        -2.40043         0.98788
LJ          -2.34143       -0.120487       -0.580152
LJ           1.62848         2.04208         1.10978
LJ          -1.92309       -0.701046        -1.34801
LJ          0.277532        -1.46095        -2.11209
LJ          -1.47558        -1.18545        -1.58221
LJ           1.92149        -2.09033        -2.15425
LJ         -0.184446        -2.18411       -0.840764
LJ         -0.744979         2.41091         1.59939
LJ          -1.95856       -0.756863         1.21451
LJ         -0.296652       -0.737987          1.1272
LJ           0.49736         0.16645       -0.934298
LJ          -2.18556       -0.710147        -0.71428
LJ              -nan            -nan            -nan
LJ           1.06388         -1.6118       -0.573742
LJ           2.55668         2.10168        0.440587
LJ          0.896197        -1.92668        -2.24034
LJ           2.02137        -1.76347        -2.21801
LJ           1.08237          1.3893         -1.3543
LJ          0.510037         1.72224        -2.40598
LJ          -1.08301         1.96813        -1.76149
LJ              -nan            -nan            -nan
LJ           1.22732        -1.83772        0.597159
LJ           1.51374         1.05674        -1.19419
LJ          0.788923         1.63048         2.42679
LJ          0.503614         1.85447         2.49834
LJ         -0.395794        0.706933        -1.01177
LJ         -0.202094       -0.335366        -1.60746
LJ           1.09364         2.51148        0.391217
LJ         -0.255641       -0.411869         1.79406
LJ              -nan            -nan            -nan
