108
#Comment!
LJ          -2.07133         1.21855         1.68085
LJ          0.988752        -1.31423      -0.0327483
LJ           1.45835        -1.62627          0.4281
LJ           2.24786        0.139948        -0.36439
LJ          -1.62489       -0.915538        -1.12444
LJ          -1.94527         1.00449        -0.83536
LJ           1.87342        0.846714       -0.996627
LJ         -0.309569        -1.83144         2.11644
LJ           1.12027        0.613535         1.89391
LJ          -1.77622         2.18939        0.525106
LJ              -nan            -nan            -nan
LJ          0.653443         -2.1389         2.18213
LJ           1.28225        -2.22023        -0.71062
LJ              -nan            -nan            -nan
LJ          0.652692         1.54421        0.827228
LJ              -nan            -nan            -nan
LJ              -nan            -nan            -nan
LJ              -nan            -nan            -nan
LJ           2.19814         1.06452        0.731115
LJ              -nan            -nan            -nan
LJ          -1.68502        -2.25496        -2.48084
LJ          0.222382        -1.45937       -0.612723
LJ        -0.0947286       -0.661881      -0.0910452
LJ              -nan            -nan            -nan
LJ         -0.487439       -0.610351       -0.489322
LJ           2.31941        -2.27773        -1.13744
LJ          0.183717        -1.47369        -1.25503
LJ          -0.48917        0.735563        0.705733
LJ        -0.0334464        -1.52499       -0.960337
LJ            2.3569         1.39806         1.42889
LJ              -nan            -nan            -nan
LJ           1.37101         2.03797         2.27143
LJ              -nan            -nan            -nan
LJ          -1.52052       -0.275601         0.55674
LJ              -nan            -nan            -nan
LJ           2.16502        -2.38361        -1.61106
LJ          -1.17469         2.43609      0.00765254
LJ           1.41458        -1.73635       -0.393336
LJ          0.342184        0.757791         1.92546
LJ           2.45327       0.0482724        -1.73896
LJ          0.305518        0.944958         1.63159
LJ          -2.05626         1.58294        0.518846
LJ         -0.890523       -0.651387       -0.164031
LJ           2.03207       -0.644052        -2.41333
LJ           1.86553        -2.14514        0.287574
LJ            1.8634         1.19705        -0.28146
LJ           0.63398       0.0778508         1.53053
LJ           1.20552          2.1819         1.13617
LJ           2.46834       -0.828641         1.33376
LJ          0.922827      -0.0216322         1.98317
LJ          -1.46561         2.36238        -2.47291
LJ          0.587314        -2.25373       -0.739967
LJ              -nan            -nan            -nan
LJ           1.52707       -0.891001          1.7361
LJ           0.68954        0.775092        0.561515
LJ         -0.531293        -2.14261        -1.34424
LJ          -0.94219        -0.66154        0.996686
LJ          -1.32991        -1.89697         1.64413
LJ         -0.760718          2.3148         1.74835
LJ          0.392437          2.1287        -1.02963
LJ          -2.36183         1.54016        -2.10005
LJ          0.923482         1.82127        0.212763
LJ           1.94917         1.20071       -0.827789
LJ              -nan            -nan            -nan
LJ              -nan            -nan            -nan
LJ          -1.77136        -1.17278        -1.02009
LJ            1.0044        -1.30434        0.598259
LJ              -nan            -nan            -nan
LJ         -0.725711         2.54618         1.70644
LJ          -2.24771         1.87142         0.50826
LJ          0.654391         2.09949     -0.00577646
LJ           1.79147         1.80612         2.01151
LJ          -1.71104      -0.0454841         0.63382
LJ          -2.51631         1.53198        -1.11198
LJ           -2.1748       0.0305932         2.21175
LJ         -0.821907        0.215068         1.64099
LJ           1.47059       -0.203463        -0.87922
LJ           1.65701       0.0212223         1.51411
LJ          0.256888         -2.1403        0.940486
LJ           1.03577         1.36538        0.123518
LJ           2.52566        0.578626         0.13172
LJ          -1.55593        -1.12649        0.891401
LJ          -1.36037        -1.84124         1.09503
LJ          -1.62118        -1.44934       -0.248106
LJ         -0.955361       -0.880985          1.5208
LJ           1.48367          -1.924        -1.39788
LJ          -2.00137        -1.71472        -1.33589
LJ           1.42236         1.36549        -2.05149
LJ          0.597997        -1.32894       -0.532078
LJ          -1.28055         2.36948        0.273834
LJ              -nan            -nan            -nan
LJ           2.44122         1.02693         1.79798
LJ         -0.807602         1.78629        0.423305
LJ            1.6823         1.26976         1.10181
LJ          0.227603         1.19557       -0.546462
LJ          -2.28585        -0.91485         1.98527
LJ           -2.4493       -0.920335        -2.31161
LJ          -2.10236        -1.86703      -0.0106734
LJ              -nan            -nan            -nan
LJ          -0.73902         1.52744         -0.4578
LJ           1.68115          1.1004         2.21453
LJ          0.530897         1.20099       -0.793243
LJ         -0.653479          -1.708       -0.186607
LJ          0.368969         1.43594         -0.3499
LJ              -nan            -nan            -nan
LJ         -0.104315         1.22387        -1.06134
LJ           1.85173         2.33727        -1.52825
LJ              -nan            -nan            -nan
