108
#Comment!
LJ           1.74273         2.11813          1.9749
LJ           1.47581          1.8648         1.29429
LJ        -0.0989871        0.663027        -1.47506
LJ          -2.11041        -1.31848        -1.33395
LJ            1.8553       -0.132568        -1.33042
LJ         -0.619737         1.73285          2.3845
LJ          0.101504         1.26593        0.130301
LJ          -0.47286        -1.43173        0.391987
LJ          -2.22032        0.659597        -2.04079
LJ          -1.52276         1.66488        -2.28032
LJ              -nan            -nan            -nan
LJ           1.07441         2.05531        -2.51198
LJ          -1.30063       -0.351193       -0.122432
LJ          0.143908         1.78847        -2.38766
LJ           2.02993        0.708125          -1.128
LJ          -2.50706         1.29961         -2.5038
LJ        -0.0853048         2.17722         1.92134
LJ          0.629436         2.44671          1.2224
LJ           1.36482      -0.0478885        0.304495
LJ          -2.08416         1.62858        0.997387
LJ          -1.06145        0.562892        0.665477
LJ            2.3243        -2.49414         1.29212
LJ          -1.44428        0.245029        0.884915
LJ         -0.455678        -2.24264         -0.5003
LJ           -1.7842         -0.9604       -0.859614
LJ          -1.07239        -1.47463         1.21101
LJ          -1.55425        -1.32628       -0.537159
LJ          -1.33621         2.29624       -0.681985
LJ         -0.706281        -2.29263         2.15798
LJ          -1.41068       0.0153335       -0.432691
LJ          -2.11487         1.18293        -2.12153
LJ         -0.611138         -1.3728         1.11948
LJ              -nan            -nan            -nan
LJ           1.89993         -1.7152      -0.0698702
LJ           2.49573         1.58155       -0.982013
LJ          -2.26957         1.18744          1.4718
LJ           1.91569         1.16231       -0.709434
LJ         -0.140485         1.68141       -0.760847
LJ           1.96689         1.98381        -2.29299
LJ            1.1132        0.691222         2.45915
LJ         -0.226079         1.30889        0.594454
LJ          -1.76324         1.57484         1.83628
LJ           1.75619        0.753546          0.4861
LJ          -1.87443        0.719668        -2.38075
LJ          0.521321        -1.94235        0.588859
LJ           2.08872         2.16409         1.31015
LJ          -2.41627         2.06998        -1.78428
LJ          0.179114        -1.08541       -0.193986
LJ          0.398614       -0.437521        0.553611
LJ         -0.375989         1.97347        0.861813
LJ          -2.35736         2.50948        0.660367
LJ           1.32335         1.68384         0.04449
LJ           2.19722        0.734859        -1.48256
LJ         -0.121496        -1.42554       -0.496104
LJ           1.23548         1.40285         1.66777
LJ          -1.16556        -1.76587      -0.0950127
LJ          -2.17667         2.46783         1.79369
LJ          0.565393         1.08616        -1.68933
LJ           1.97932         2.13576      -0.0192774
LJ         -0.985387        -2.23471         1.55863
LJ          -2.56315         1.29617       -0.604694
LJ           0.75169       -0.541782         2.04522
LJ           0.25989        0.924329         1.63015
LJ        -0.0643072       -0.861003        0.471673
LJ          -1.84384        -1.14305        0.882001
LJ           1.22426        0.884529       -0.849791
LJ        -0.0496506         1.56588        -1.86173
LJ           1.97698       -0.863054         1.36021
LJ          0.327465         2.08227        -2.22496
LJ           2.41782        0.490853         1.05038
LJ          -1.25685        -1.01713          2.5013
LJ         -0.677009        -2.37816         1.93524
LJ           1.39237         2.06528         -1.8452
LJ           1.54177         -1.8376         2.31721
LJ         -0.499414         1.81103        -2.11597
LJ           -2.0926       -0.805343        0.783901
LJ         -0.811227        -1.70972        0.733304
LJ          -1.69333         2.31776        -2.32113
LJ          0.303561        -1.23403        0.594387
LJ            1.9305        -1.36141         2.08247
LJ           -1.4175        -1.64513        0.392481
LJ          -1.60619        -1.36556        -1.25457
LJ          0.668816         1.30912        -1.57945
LJ          -1.64004        -1.78756       -0.617096
LJ           1.12374        0.989984         2.17645
LJ          0.558822       -0.419606        -1.19907
LJ           2.11502         1.69404        -2.19854
LJ           1.47933        0.914961         1.93761
LJ          0.117053       0.0430587         1.93494
LJ           2.36747        0.292816        0.262602
LJ         -0.142476         1.33877         1.81749
LJ          -2.55138         1.63729        -1.04594
LJ           1.76961          1.6677        -1.43099
LJ          0.678854         2.25244         2.10938
LJ          0.681175         2.17125        -1.24704
LJ           2.35995       -0.144194      -0.0494219
LJ          0.673941        -1.45186         1.03807
LJ          -2.25377        0.251481         1.98756
LJ           1.74821        -2.08844        -1.84964
LJ           2.54208         1.49958         1.19401
LJ           1.04612        -1.94628         2.21888
LJ         -0.490685       -0.825877       -0.386238
LJ           1.19699         2.15996         1.77159
LJ            2.0485        -2.55987        0.160723
LJ           2.16363       -0.506248        0.433765
LJ          -1.10372        0.384205         0.22774
LJ           1.79515         2.51616        0.501094
LJ          -2.39011       -0.125189        0.573386
