108
#Comment!
LJ         -0.247949         2.16975       -0.470018
LJ           2.48449        -1.27595        0.663209
LJ         -0.900117         1.08076         1.83997
LJ          -2.20682        0.868418          1.8866
LJ          0.620987       -0.199773         1.27127
LJ          0.721488       -0.321361        -1.58099
LJ          -1.17799        0.538341         0.58465
LJ           2.19947         1.42515        0.270965
LJ          -1.44788        -1.81846       -0.883583
LJ         -0.799997        -2.48571        -1.45967
LJ              -nan            -nan            -nan
LJ         0.0996932       -0.368487        -2.08185
LJ            1.3127        0.961727         1.07498
LJ          0.152272         2.36262        -1.74954
LJ          -1.57227       -0.788436        -1.39047
LJ          -2.21034       -0.526226         1.21108
LJ              -nan            -nan            -nan
LJ              -nan            -nan            -nan
LJ           -1.4792          1.9034       -0.697337
LJ              -nan            -nan            -nan
LJ           1.35652        -2.04709       -0.324442
LJ          -1.60306        -1.01444        0.676129
LJ          -2.02569      0.00179005        -1.04121
LJ          -1.06499        0.631562         1.37633
LJ           1.30814       -0.496496        0.251007
LJ            2.4047       -0.315849        -1.77057
LJ          0.986508       -0.134255         2.52847
LJ          -1.25302       -0.620373         2.55362
LJ          -2.05305       -0.869197        -1.15042
LJ           1.85888       -0.442824         2.19931
LJ          0.213351        0.209443       -0.433851
LJ          -1.82108         1.01834        -1.95961
LJ              -nan            -nan            -nan
LJ          -1.83681        -1.96389         1.40532
LJ              -nan            -nan            -nan
LJ           -1.6186        0.232757        -2.06073
LJ           0.18858         2.36491        -1.73497
LJ         -0.202279        0.122445          2.5397
LJ           -1.2306         1.51069         0.10792
LJ         -0.110902        0.687416        0.640599
LJ         -0.859897       -0.372033         1.20935
LJ          0.135272        -2.15867        -1.20394
LJ          -1.70669         2.23918        -1.79806
LJ          -2.06953        0.110259        -1.77007
LJ           1.65252          1.7791         1.49321
LJ          -1.14663        -1.00201       -0.780742
LJ         -0.199004       -0.113589        0.138259
LJ        -0.0201937        0.727538        -1.80622
LJ           1.58049         1.76147        0.296121
LJ           1.82944         1.69238         -2.0037
LJ         -0.649724        -0.39352        -1.41388
LJ           -2.2596       -0.251708        0.564404
LJ              -nan            -nan            -nan
LJ         -0.561638         0.29655        -1.43764
LJ         -0.674311        -2.53958        0.459855
LJ           2.13696        -1.25939         1.45462
LJ           1.91676         1.60397       -0.784721
LJ         0.0653083        -2.49012       -0.388768
LJ           1.74482         1.20951      -0.0426978
LJ           -2.1213        0.973575        -1.07921
LJ           1.08747          2.0475        -1.33838
LJ           1.95539         2.21862         -2.4085
LJ           2.14965         1.98499        -2.20595
LJ           -1.7021       0.0509814        -1.22791
LJ          -1.53955         1.60424         -1.2416
LJ           2.15192        0.181795       -0.998356
LJ           1.23751        0.177165         2.20532
LJ              -nan            -nan            -nan
LJ         -0.229173        -2.26942         1.36717
LJ           1.91118        -1.81858         1.87969
LJ          0.215403        -1.69228        0.193114
LJ           2.27429      -0.0627621        -1.46076
LJ            1.8635         1.47147        0.713624
LJ           2.36107        -1.58074         2.22309
LJ           1.75985       -0.772041        0.063294
LJ          0.491491        -1.27252         2.10463
LJ          -1.60898       0.0192378         1.44395
LJ           2.46192         2.43741        -0.21463
LJ          0.132685         1.36444         1.55809
LJ          0.416994        0.871188         2.15444
LJ           1.50956         1.64142        -1.42668
LJ         -0.516013         1.37407       -0.542344
LJ          -2.00971         2.25217         0.98652
LJ          -2.04621        -1.62373        -2.50825
LJ         0.0432564        -1.79341        -1.58467
LJ          -2.02718       0.0747652          1.1442
LJ           -2.1186        -1.24088         1.55656
LJ            1.1117        -1.31732        -1.97468
LJ         0.0356585       -0.376547         2.45189
LJ           2.19983          1.6947        -2.18677
LJ              -nan            -nan            -nan
LJ         -0.140691      -0.0839614         1.31931
LJ         -0.368401         2.27623         1.24442
LJ          0.260133         2.06894        -1.01697
LJ         0.0144267        -1.77564         2.12737
LJ           1.23062        -1.63528        0.095687
LJ          -1.86896        -1.70663        -2.27405
LJ             1.333        -1.13767        -1.19265
LJ           1.55832        -1.78091        -1.34306
LJ          -2.30458        0.835745        -2.12953
LJ           1.77922         1.33647       -0.739402
LJ          -1.45952        0.112221       -0.740594
LJ           1.74116         -2.1013         1.44067
LJ          -1.41119         1.68744       -0.303577
LJ          -1.22687       -0.787218        -2.39599
LJ         -0.297482        0.257695        -1.50979
LJ          0.513954       0.0541398        0.909638
LJ              -nan            -nan            -nan
