108
#Comment!
LJ          0.256019        0.124681        -2.28017
LJ          0.537861         1.77824         1.73353
LJ          -0.86862        -1.58997        -2.03995
LJ          0.322049        0.599459        0.137698
LJ         -0.704031        0.645395        0.923799
LJ           1.41992         1.08177        -1.35943
LJ          -1.08279         0.58982         2.45474
LJ          -1.75969       -0.100503         2.48408
LJ           1.36047         -0.9163        0.766064
LJ            2.5512       -0.163987        -1.65407
LJ              -nan            -nan            -nan
LJ         -0.499677         1.68619       -0.748878
LJ           2.48229       -0.829851         0.26549
LJ              -nan            -nan            -nan
LJ           1.37917         2.49629         1.79247
LJ              -nan            -nan            -nan
LJ              -nan            -nan            -nan
LJ              -nan            -nan            -nan
LJ         0.0739345         1.00721         1.83364
LJ              -nan            -nan            -nan
LJ             1.192         1.99844         2.28212
LJ          -0.41701       -0.934207       -0.630639
LJ           2.18967      -0.0465321        -1.32122
LJ          -1.20088          -2.134         2.31171
LJ           1.76648         2.31048       -0.328996
LJ          -1.38059         1.12865         1.97049
LJ           1.08073         2.28101        -2.42722
LJ         -0.746422        0.959591         2.28175
LJ           2.01678        -2.08558        -1.87827
LJ          -2.19328        -2.42424       -0.631147
LJ              -nan            -nan            -nan
LJ          0.852652        -0.72485        0.814512
LJ              -nan            -nan            -nan
LJ            -0.923        -1.08223       -0.917636
LJ              -nan            -nan            -nan
LJ           1.13985        -1.27854        -1.31041
LJ         -0.435877      -0.0695816         1.49889
LJ         -0.102631        -2.21512        -1.91135
LJ           -1.8938        -2.01114        -1.42164
LJ           -1.1043       0.0837907        0.304922
LJ         -0.396555         2.27589       0.0348598
LJ          -1.23932      -0.0336558         2.17087
LJ         -0.760338        0.503482          0.2824
LJ         -0.332192       -0.886546        -1.37701
LJ           2.05652         1.01973       -0.621133
LJ          0.462982        0.586097       -0.152627
LJ          0.471016       -0.487364         0.78661
LJ          -1.53626         -2.5505        -1.28236
LJ          -1.12757        0.787548         1.19368
LJ         -0.248208         1.11172         2.21692
LJ           2.30651       -0.789351        -1.52416
LJ         -0.146073         1.10044         -2.4719
LJ              -nan            -nan            -nan
LJ          -2.50551         1.63092       -0.239454
LJ           1.53778       -0.379309       -0.931149
LJ           2.13623         1.61103         1.43671
LJ          0.968894        -1.25514         -1.9279
LJ           1.56707         1.79536      -0.0657278
LJ          -1.77587        -1.64081         1.06272
LJ           2.07447         1.44458         1.22718
LJ          -1.88642       -0.192034       -0.172515
LJ          -1.10558         0.12631        -2.51714
LJ         -0.394864         1.60801         2.40615
LJ         -0.713276        -2.29252        -2.15345
LJ              -nan            -nan            -nan
LJ          -1.15056         1.29092         1.07138
LJ          0.210456       -0.209936         2.26118
LJ              -nan            -nan            -nan
LJ          -1.44952        0.548469        -1.41627
LJ        -0.0934427        -1.38691       -0.262143
LJ          0.448834         0.21707       -0.925881
LJ          -1.88742         1.44085       -0.820659
LJ           -2.5496        -2.09576         2.17681
LJ           1.89203        -1.44486       -0.138432
LJ          -2.06898        -2.21623       -0.437561
LJ           1.84963        0.270703      -0.0250015
LJ          0.165305      -0.0719794        0.494711
LJ          0.826545        -1.48062         0.94657
LJ           1.95496         1.56209       -0.201996
LJ           1.94057         -1.1813        -1.58944
LJ           1.51001        0.145328        -1.21825
LJ           2.51543         1.88218          1.3064
LJ          -2.09824         1.97328         1.33976
LJ          0.127059         2.17838        -1.85771
LJ          0.716774       -0.889471         1.53931
LJ         -0.642105         2.18123         1.29099
LJ          -1.00225         1.77201         1.74503
LJ          0.579238         1.59621        -1.74455
LJ           1.27257       -0.201834        0.427023
LJ          -2.37347        -2.35625        -2.13782
LJ              -nan            -nan            -nan
LJ         -0.217197        0.957514       -0.278964
LJ           1.67916         1.74345        -1.10619
LJ          -1.50519         -2.3841        -2.31031
LJ         -0.692498        -2.29575        0.748366
LJ            1.0272        -1.71426        0.977352
LJ           1.52213         1.68023        -2.37577
LJ          -1.72777         2.09585       -0.429762
LJ              -nan            -nan            -nan
LJ           1.95074        -2.09806         1.92145
LJ         -0.353876       -0.749348       -0.197867
LJ          -1.34166        0.181326        -1.70651
LJ          -2.49295       -0.187993          2.3155
LJ           2.24562         2.27007        -1.08287
LJ              -nan            -nan            -nan
LJ          -1.39973        0.827696       -0.641478
LJ          0.117082          1.5288       -0.211417
LJ              -nan            -nan            -nan
