108
#Comment!
LJ           1.04601       -0.895109       -0.376683
LJ         -0.396641         1.82854       -0.874326
LJ         -0.318061         1.63512        0.249759
LJ          0.805808        -2.44615          1.3902
LJ           1.23523        -1.68901          2.0699
LJ            1.5622       -0.721657        -1.63047
LJ          -2.38193        0.804508         1.08786
LJ          0.338451         2.41475          1.5207
LJ          0.668949        -2.43119         0.46229
LJ          0.920606       -0.774813        0.966152
LJ              -nan            -nan            -nan
LJ         -0.282628        -0.66679        0.282005
LJ            1.2814       -0.446509        -0.36278
LJ           1.39041         0.34679         2.05339
LJ          -2.14864         2.37588        -1.87103
LJ         0.0588138          0.1278        -2.16325
LJ          0.644391        -2.18413         1.24349
LJ           1.99309        0.844585       -0.840022
LJ           2.39102        -1.48416         1.44416
LJ           -2.3481        -1.44686        -1.11864
LJ          -1.90692       -0.488001        -2.34674
LJ           -2.2253       -0.941915        -1.51584
LJ          -1.70556        -1.49588        -1.48697
LJ        -0.0356701        -1.00866         1.26455
LJ        -0.0847687       -0.159017        -1.42391
LJ           1.97768        -1.62516       0.0797282
LJ         -0.295467        -1.28129         1.20312
LJ           1.39671        -1.20049       -0.951828
LJ          0.770173        0.184419       -0.134812
LJ          -2.45718         2.21788         1.26755
LJ         -0.144237       -0.835733         1.94334
LJ           1.98587       0.0321405        0.613762
LJ              -nan            -nan            -nan
LJ          0.438128       -0.419392        0.382378
LJ          0.143435         1.83256         1.68339
LJ           0.26946         1.90941       -0.543553
LJ          -1.16101         1.41097        -2.00142
LJ           1.00666         2.22084       -0.191645
LJ          -1.11328         1.74888         2.16505
LJ        -0.0407527      -0.0300509       -0.551437
LJ         -0.298822        -0.18205        0.726461
LJ          0.180074        0.406103       -0.140151
LJ          -1.38386         2.48773         1.27387
LJ           -2.3922       -0.228846        -1.57774
LJ           2.41255        0.858325        -2.02419
LJ           1.18374        -2.54332        -1.77374
LJ           2.35089        -2.40656       -0.018048
LJ          0.742356        0.791338        -2.35291
LJ           1.27556        0.175833         2.06124
LJ          0.433071         2.23267         -2.0964
LJ           2.37461         1.29652         1.68181
LJ           1.39128         -2.2496        -2.38341
LJ           1.41149        -1.57035        0.320406
LJ           1.62312        0.324543        0.991343
LJ          -2.15407        -2.24311         1.23109
LJ          -2.00395         2.26636      -0.0945292
LJ           0.36138         2.32783         1.55977
LJ          -1.42529        -1.34152         1.54964
LJ          0.785107        -2.33519         1.25201
LJ          -2.12352       -0.618476         2.33923
LJ           2.08716        0.450225         1.21182
LJ           2.11632        0.656188        0.777157
LJ           1.10039        0.881399         2.51377
LJ          -1.71937         2.56464         2.06597
LJ           1.06305       -0.534177         1.25573
LJ         -0.530595        -1.16656        -1.12475
LJ           2.52654          -1.946        -2.08408
LJ           1.19669        -1.56949        -1.85579
LJ          0.621486         1.43255        -0.45913
LJ          -1.75381        -1.71108        -1.58765
LJ           -1.2415        -1.39409        -2.09372
LJ           2.54511        -2.46636       -0.453696
LJ          -1.17766        -1.96515        0.714723
LJ           -1.8615         2.34932        0.230977
LJ          0.138382        0.827787        -1.32493
LJ          -1.22812       -0.656009        0.390878
LJ           1.82357        -1.43931         1.42589
LJ           1.40071        -1.60907       -0.664607
LJ          -1.44567       -0.693486         1.14826
LJ          -2.15566        0.930806         2.18078
LJ          -1.76542         1.58053         1.03924
LJ          -1.80847        0.561042         1.69199
LJ           1.40774       -0.355039         -1.7268
LJ          0.891953       -0.516435        -1.80169
LJ         -0.257049        -2.30313       -0.257344
LJ         -0.695731         1.11734        0.986333
LJ         -0.711625          1.9999        -1.34629
LJ          -1.11297        0.589765        -1.51615
LJ         -0.860422       -0.227746        -1.28828
LJ          -2.47019        0.385172        0.601442
LJ          0.552859        -2.26427        -1.84614
LJ         0.0372428        0.504306        -1.61037
LJ          -1.54514        -1.31722        0.823767
LJ           1.52155        -1.55655         0.38888
LJ           2.52861       -0.540124       -0.646706
LJ           1.46912        -1.40124         1.36328
LJ           1.24478        -1.55834       -0.239357
LJ          0.122999         -1.7416         1.98541
LJ          0.737263         -2.5536        -1.54447
LJ            2.0047       -0.733616          1.2115
LJ          0.272409         1.55145         2.33631
LJ         -0.964845         1.07866         1.45196
LJ          -2.51033       -0.225733         2.20708
LJ           -2.2823       -0.214784       -0.926143
LJ          -1.89852       0.0995136         2.00761
LJ         -0.762514         1.20075       -0.223372
LJ          -2.26749         1.82177         2.49213
LJ          0.152746        0.100145         1.72386
