108
#Comment!
LJ         -0.809611        -1.92602        -2.03592
LJ          -2.06315        0.944658        -1.23698
LJ          -1.51424        0.685857          1.6539
LJ          -0.73921         1.99919         -1.2473
LJ          -2.34821         -1.4207         1.79026
LJ          0.350189        -1.15126         1.85505
LJ          0.217302       -0.391095        -2.39402
LJ          -1.23615        0.585197        0.570345
LJ          -2.26942      -0.0977798        0.171634
LJ           1.94064        0.458163       -0.994386
LJ              -nan            -nan            -nan
LJ         -0.514549         1.23987        0.247727
LJ           -1.4045       -0.137603         1.99127
LJ          -1.90474         -1.2069          2.2059
LJ          0.902754       -0.360089         -1.7388
LJ              -nan            -nan            -nan
LJ              -nan            -nan            -nan
LJ              -nan            -nan            -nan
LJ          0.251595         2.18816         2.41861
LJ              -nan            -nan            -nan
LJ           2.45728        -1.86044         1.11352
LJ          -2.14906        -2.47783         -2.0506
LJ          -1.06213         1.34736         1.47036
LJ          -2.38848        -1.11153      -0.0160103
LJ          0.955111        -1.38802        -1.79271
LJ          0.898226        0.763266         1.46964
LJ          -1.66346        -2.15647        0.981715
LJ            1.2047          1.9403        -1.64349
LJ           1.30575        -1.05104         1.69463
LJ         -0.493886         -1.9161       -0.161655
LJ           2.47163        -2.18142         1.78011
LJ           2.28392         0.41155      -0.0120758
LJ              -nan            -nan            -nan
LJ          -1.70794        -1.64214        0.366131
LJ              -nan            -nan            -nan
LJ          -1.43388      -0.0846662        0.126757
LJ         -0.203258        0.830452         1.59244
LJ            1.1135        0.387288        -0.60034
LJ        -0.0286098        0.729892       -0.718482
LJ         -0.914991        -2.47881        -1.84089
LJ          -2.21164       -0.986654         1.83406
LJ          -2.33155        -2.01464        -1.76564
LJ           1.22405       -0.544126         2.12309
LJ           -1.8516         1.71354        0.232722
LJ           1.11352         1.63315        -1.06352
LJ        -0.0868767       -0.960011        -1.22736
LJ          -2.44917       -0.913202        0.229191
LJ          -2.24526         1.24279      -0.0953441
LJ          -0.22313       -0.586389         1.94855
LJ          0.681681         2.29367        -2.42147
LJ         -0.251442       -0.533627        0.715824
LJ           1.15654         1.03507       -0.122154
LJ              -nan            -nan            -nan
LJ           1.13271         2.54806        -1.42796
LJ         -0.531315        -1.93001         1.86638
LJ           1.13781        0.936684        0.443682
LJ         -0.233235       -0.778974        -1.47416
LJ          -1.13214         1.06029         1.19612
LJ         -0.993163         -1.0641         -1.0405
LJ          -2.25734         1.20043         2.14204
LJ         -0.700914         2.04204         2.18085
LJ           1.93385       -0.854127         1.29521
LJ          -1.19749       -0.499786        -1.88571
LJ          0.595073        -1.67611       -0.503098
LJ           1.01645        -1.68114        0.962091
LJ         -0.118991        -1.44506         1.69148
LJ           1.01476         1.51678        -2.51324
LJ              -nan            -nan            -nan
LJ          0.138078        0.677016         1.34523
LJ           1.67619        0.672521        0.138682
LJ          -1.14034         1.46285         1.64483
LJ          -1.03426       -0.758449         1.32305
LJ           1.45047       -0.123899        0.151955
LJ          0.831329         2.48644         2.25067
LJ         -0.773991       -0.482045         1.07938
LJ           2.17523         2.50766         1.60853
LJ           2.29482        0.842775       0.0901401
LJ          -2.06271       -0.099971         2.36337
LJ         -0.820747         2.55974        0.694282
LJ          0.329872         2.29468        -2.23708
LJ           2.44394        0.612727          -0.944
LJ          0.462344       -0.492348        -1.69906
LJ          -0.87896        -1.13896         0.49144
LJ           1.90715        -2.42032        -1.05387
LJ          0.384075        -1.16768        -2.05864
LJ          0.851303        -2.06148        -1.16448
LJ          -1.10125        -2.48371       -0.581938
LJ           1.09525       -0.905323        -1.23023
LJ           2.38964         -2.0461        0.599002
LJ          -2.45648        0.120707       -0.762591
LJ              -nan            -nan            -nan
LJ          -1.96642       0.0941674         1.11911
LJ        -0.0772496        -2.10068        -2.23695
LJ          -1.55779        -1.85455         1.41681
LJ         0.0551789        -1.05429         1.50715
LJ          -2.46858        -1.51429         1.75774
LJ          -0.11594          2.4689         1.48451
LJ          -1.74588        0.964831        -1.62861
LJ              -nan            -nan            -nan
LJ          -1.77386        -1.89048        0.487732
LJ          -2.19742         1.42764         2.31142
LJ          0.736845          1.7752        -2.45865
LJ          0.270934        -1.40474       -0.020777
LJ         0.0996839         1.65417         1.08873
LJ          -1.86633        -1.22701       -0.670107
LJ           -1.3764         1.18297         2.48213
LJ           1.68427       0.0299757        -1.75122
LJ              -nan            -nan            -nan
