108
#Comment!
LJ         -0.215783          1.7994        -2.50391
LJ           2.03489        -1.76295          -1.371
LJ         -0.864406         2.39163        -2.31917
LJ           2.49168        -1.96903         1.46864
LJ          0.769464          1.8382        -1.55513
LJ          -1.81146        -2.22407        -2.08477
LJ         -0.288763         1.84048        0.125184
LJ         -0.307979         2.51533       0.0356389
LJ           2.20666        -1.33886        0.497617
LJ          -2.02145       -0.108104        -1.95966
LJ              -nan            -nan            -nan
LJ         -0.208448         1.86169         2.04882
LJ          0.400644        -1.05104         2.35372
LJ          -1.12274         2.48239        0.400775
LJ          -2.40384          -1.294        0.107213
LJ          0.956176        0.160727         1.08789
LJ           1.35235         2.10913        -1.00116
LJ          0.675862        -1.79945           1.561
LJ          -2.25435        0.835335         1.37523
LJ           0.21645       -0.586909        -1.13971
LJ          -1.82682        0.647367          1.7638
LJ          0.629004         1.53273        -1.37986
LJ          -1.21592         2.02439       -0.806675
LJ           -1.7316        -2.27523        -2.56381
LJ          0.182521        -2.53949        -1.39661
LJ          -2.45256        -2.02434        -1.79482
LJ           2.15405         1.29381        -2.03167
LJ          0.423293       -0.848247         1.70045
LJ          0.843299         1.49389        -2.08518
LJ           1.82806       -0.802139        -2.33483
LJ           2.06728       0.0344595         1.82837
LJ          0.275398         2.13604        -0.69065
LJ              -nan            -nan            -nan
LJ          0.543835       -0.292621        -1.30198
LJ              -nan            -nan            -nan
LJ          -2.33532        -2.29783        -2.17561
LJ        -0.0928185        0.961675        -1.00955
LJ         -0.436823         1.05234        -1.84287
LJ          -1.73507        -1.93634         2.54424
LJ           1.86032       -0.398422      -0.0530062
LJ          -2.38738         2.08604       -0.594737
LJ          -2.42565          2.1511         2.49521
LJ         -0.236999       -0.873443         1.68989
LJ           1.34729        -1.30622         2.53671
LJ          0.339505        0.698067         -1.8858
LJ           1.44151        -1.81289         1.83344
LJ           1.27044       -0.246472         1.70654
LJ           1.45545         1.63418         1.78579
LJ          -1.37398       -0.578915         1.30962
LJ          -1.62793         1.41618       -0.824489
LJ           2.16167        0.716543         2.24179
LJ           1.70557         1.73391        -2.30741
LJ           1.69187      0.00507383         1.71605
LJ           1.14561       -0.796289         2.52444
LJ          0.512525        0.987135        -1.90406
LJ           0.82846        0.952259       0.0294244
LJ           1.55479         2.21372         1.95831
LJ          -2.18601        0.977255        0.486979
LJ           -1.2595        0.465322         1.12944
LJ           2.38091         2.03488       -0.490097
LJ        -0.0290741        0.981692         2.43553
LJ          0.785373         2.34168        0.401256
LJ          -1.92744         1.43915        -1.46311
LJ          -1.85327         2.14604          2.4239
LJ          -2.55381        -1.15204       -0.624216
LJ           2.22582         2.51298       -0.229339
LJ           -1.2454        0.804333         1.81508
LJ              -nan            -nan            -nan
LJ           1.56281         1.35932         2.18033
LJ          0.536851       -0.337471       -0.956338
LJ          0.657635         2.02777       -0.469629
LJ          -1.49563         1.48469         1.53748
LJ           1.01944        -1.16445         1.02718
LJ         -0.279796        -2.33855       -0.619739
LJ          -1.07684       -0.935827         1.05044
LJ          0.390447         1.69126         2.17992
LJ           2.08911        -2.01724       -0.645554
LJ          0.307534        -1.35179        -2.36937
LJ          0.134438         1.20046         1.85574
LJ           1.10326       -0.104073        -1.53101
LJ          -2.27921        -1.30431         1.22766
LJ          0.230285        -1.01199       -0.179686
LJ            1.4344       -0.811082        0.421141
LJ           -2.2574         1.53457         -1.2797
LJ          -1.85972        0.115531         -2.4226
LJ         -0.982367       -0.581873        -2.33237
LJ          -2.56475        -1.41468        -1.40653
LJ          0.140452        -1.23632         2.28587
LJ          -1.82705       0.0585076         2.41814
LJ           1.51622         1.74826         2.28184
LJ           2.04667        0.366962        0.331292
LJ          -1.61003         1.99476         1.52214
LJ          -1.62192        0.932433           1.856
LJ         -0.560691       -0.885907         1.48527
LJ          -2.36504        -2.20478        -2.39308
LJ         -0.955639         1.11627       -0.535287
LJ          0.401404        -1.80811        0.555568
LJ          -2.31268       -0.731044        0.901395
LJ          0.608199         1.24097         1.69597
LJ          0.683373         1.97064        -1.49551
LJ          0.957685       -0.496836         2.36161
LJ          -1.53942         2.29812          2.4838
LJ         0.0555934         1.36731        0.894619
LJ           1.25539       -0.710117        -2.47697
LJ         -0.739437        -0.24036        -1.91986
LJ          -1.75711        -0.24211         1.17227
LJ          -2.47562          1.0667        0.733213
LJ          0.161706        -1.45548        -2.17555
