108
#Comment!
LJ          -1.85181        -1.07974        -1.88943
LJ           1.06365        0.350745        -1.27974
LJ          -2.02623        0.729994          1.5082
LJ         -0.822876       -0.178345       -0.803014
LJ         -0.131551       0.0976442         1.47857
LJ          0.654159          2.5489        -1.63033
LJ          0.747836        -1.17304       -0.818864
LJ         -0.526951        -1.52042        -1.43255
LJ         -0.514883         1.99007        -1.72548
LJ          0.321204         2.25733       -0.165779
LJ              -nan            -nan            -nan
LJ           -1.1065        -1.83504        0.411241
LJ          0.637931       -0.942539         1.28575
LJ          0.733111       -0.474435       -0.514946
LJ          -1.16226        0.201283      -0.0919962
LJ          0.670958         1.64415         1.22672
LJ          -2.26278        0.625531        -1.10962
LJ          -1.15162        -0.94098       -0.320744
LJ            1.8878        0.774343        0.214142
LJ          -1.40723       -0.585529        -2.23751
LJ           1.22168        0.109202        -2.37968
LJ           0.31156       -0.226581        0.835788
LJ           0.99623       -0.467425        -1.09145
LJ           2.21122        -2.22529       -0.354568
LJ          0.315576         1.67671         0.79722
LJ           1.93535        -2.41436        0.577971
LJ          -0.83866         1.11064         2.03593
LJ           1.63118         2.30825        0.649416
LJ           1.81329       -0.373118        -1.31461
LJ          -1.47939         2.54907       -0.154265
LJ          0.422431         1.82601        -0.66247
LJ         -0.871756        -1.64529         -1.3945
LJ              -nan            -nan            -nan
LJ         -0.542555         1.85193        -1.68821
LJ          -1.76005          2.2112         1.09546
LJ        -0.0129912        -2.27287        -1.47466
LJ         -0.823361          1.5326         2.10716
LJ           1.62203         1.05982        0.380195
LJ          0.584357         1.93757        -1.34481
LJ         -0.590027        -2.30897        -1.52675
LJ          -1.53449       -0.586751        -1.94362
LJ          0.353843        -1.13212        -1.08279
LJ          0.729053        0.752591       -0.557617
LJ         -0.804131      -0.0140607       -0.454311
LJ           2.43874        -2.42354        -1.18678
LJ         -0.659851         2.39807        -1.50538
LJ          -2.31084        -1.74616         1.57832
LJ           2.51812      -0.0776402        0.379798
LJ          -2.24277         -2.3888         2.42924
LJ           2.16892        0.609393         1.20246
LJ        -0.0633939         -1.5337       -0.323362
LJ          0.918503        -1.74871         2.00106
LJ           1.39879          1.1499       0.0395688
LJ          -1.50955         1.68699       -0.558987
LJ           1.47353        -1.98619       -0.166697
LJ          -2.20016         -1.4846       -0.573862
LJ          -2.38569       -0.953074         1.70773
LJ           0.22558        0.125393       -0.622592
LJ          -1.25012        0.660728         1.39475
LJ         -0.261137        -1.02119       -0.357572
LJ           0.26935        0.234529        0.354822
LJ          0.282955         1.61233         1.01742
LJ          -1.83052       0.0980687        -1.54896
LJ           1.95746       -0.886916       -0.973536
LJ           2.49941         1.69402        -1.25118
LJ          0.354191       -0.793679         0.60401
LJ            0.9655        -1.65058         0.98025
LJ          0.645534         1.86122         -1.5182
LJ         -0.703846        -2.34246         2.16278
LJ           1.28566       -0.659614         1.74495
LJ         -0.408709       0.0349896         0.57247
LJ         -0.179133         1.66145        -2.47257
LJ          -2.52503        0.947998        -1.83503
LJ          -1.14906        -1.67944       -0.534276
LJ          -1.36799        -2.00853        -1.01229
LJ           1.04541       -0.693542          1.0347
LJ            2.2274         -2.0611         1.74801
LJ           0.43487       -0.749316       0.0465096
LJ            2.0217       -0.994947         2.15693
LJ           0.89523         1.62702         1.10006
LJ          -1.37856        -2.53454        -1.31272
LJ           1.77177         1.29713        -2.37756
LJ          -1.81092        0.478725        -1.58804
LJ           1.95046       -0.804595        -2.34746
LJ          -1.49806          1.8244        -2.01714
LJ          -1.01599        -1.07456       -0.301959
LJ          0.153623        0.370065       -0.742078
LJ          -2.41137         0.72052        -2.29852
LJ           1.83489       -0.287943       -0.395078
LJ         -0.794156         1.01848       -0.443073
LJ          -2.50703        -2.20827         2.06723
LJ           1.74514        -1.62261        0.383172
LJ          -1.38489         1.58285        0.325797
LJ          -2.36754        -1.75352         -1.5152
LJ         -0.540876        -0.73895          1.3624
LJ         -0.259827       -0.920509        0.302315
LJ         -0.885964         2.05001        0.440084
LJ          -2.35014        -1.07018      -0.0271648
LJ          -1.85168        -1.85968      -0.0121234
LJ           1.15521        0.339675         1.96206
LJ          -1.02539        -1.15552        -1.20963
LJ           1.63354      -0.0316667         1.57803
LJ         0.0781886        -2.11177         1.52143
LJ           2.40908        0.939827         1.16666
LJ         -0.210725         2.54311         2.47325
LJ          0.281955       -0.527683         1.50384
LJ          0.678191        -2.18186        0.814794
LJ           2.27997         0.34407        0.789535
