108
#Comment!
LJ           1.02759         0.85516         1.49284
LJ          0.140526         1.01676         2.14334
LJ        0.00691894          1.5301      -0.0588246
LJ          -2.51075       0.0848555         1.11328
LJ          0.249341         2.21993        -2.10332
LJ         -0.831309         1.52358       -0.289243
LJ          -0.55898         1.18224       -0.354394
LJ          -1.55449        -2.08136        0.369158
LJ          -1.97333       -0.456882        -0.74302
LJ          0.295441         1.87463       -0.519941
LJ              -nan            -nan            -nan
LJ           -2.3984        -1.34743      -0.0845741
LJ          0.821431       -0.996614        -1.53375
LJ              -nan            -nan            -nan
LJ          0.524054       -0.975743        -2.36298
LJ              -nan            -nan            -nan
LJ              -nan            -nan            -nan
LJ              -nan            -nan            -nan
LJ           1.94641         1.37699         1.89192
LJ              -nan            -nan            -nan
LJ          -0.14644         1.45539          2.4026
LJ           1.62938         1.33611         2.53269
LJ          -2.00093        -1.22349        -2.16325
LJ              -nan            -nan            -nan
LJ           1.24564         1.59683        -1.53421
LJ          -2.36749      -0.0422317         1.26854
LJ          -0.49505        0.433572         2.07661
LJ         -0.185959         1.48426        0.495177
LJ            1.7763         1.25386         -1.7808
LJ         -0.712186        -2.20616        0.347792
LJ              -nan            -nan            -nan
LJ           1.07648         1.45558        -2.05329
LJ              -nan            -nan            -nan
LJ          -2.20512        0.761113        -1.38416
LJ              -nan            -nan            -nan
LJ          0.238542        -1.87339         1.81927
LJ           1.62448        -1.74648       0.0658603
LJ          0.435746          1.2366        0.363347
LJ         -0.416367         1.20182       -0.339905
LJ          -0.93934        0.446056       -0.674672
LJ          -1.33936        -2.28951        -1.89772
LJ         -0.787347        -0.67007      -0.0829964
LJ          -1.06826       -0.122627       -0.803226
LJ          -0.02527         2.24844         2.35334
LJ          0.340652       -0.277679        -1.17846
LJ           2.13958        -1.66108        -1.11745
LJ         0.0671733       -0.145178        -1.66055
LJ           2.42516       -0.206802       -0.717588
LJ          0.651231         1.73441         0.22145
LJ           1.14304        -1.09168        -1.10439
LJ           -2.1032         1.68545         2.50168
LJ          -2.40729        0.622298          1.3352
LJ              -nan            -nan            -nan
LJ          -2.22493          2.0618        -1.69688
LJ         -0.466175        -1.86257         1.29229
LJ          0.808574         1.52714        0.326186
LJ           1.84518        0.448843         2.34108
LJ           1.66891         1.20727       -0.757995
LJ           1.71086      -0.0195523        0.670779
LJ            1.4104        0.738588         2.28195
LJ           1.09256       -0.133732        0.741031
LJ           2.56464         -1.3722         1.26288
LJ          -1.45728         1.15406       0.0854191
LJ              -nan            -nan            -nan
LJ              -nan            -nan            -nan
LJ            1.0682        -0.64967        0.910538
LJ         -0.483558         1.76094         1.46894
LJ              -nan            -nan            -nan
LJ           1.58991        -1.41043        -1.30734
LJ           1.31594         1.86923         1.62035
LJ          -1.91588         1.14408        0.844414
LJ        -0.0891889        -2.03301         2.54943
LJ           -2.0909       -0.611473        0.143595
LJ          0.784893         2.01228        -1.61085
LJ          -1.03864        -2.40374       -0.300162
LJ          -1.39496         1.42472        -2.32932
LJ           1.99137        0.627815       -0.763942
LJ          -1.88943        0.897354         2.56449
LJ         -0.634592        -1.22828        0.482066
LJ          -2.09408        0.974498         1.44992
LJ          0.284736        -1.56222        0.802047
LJ         -0.769676         2.50843        0.966964
LJ         -0.476391        0.613703       -0.355451
LJ           1.38553        -2.18776        0.817767
LJ           1.06166        -2.49163        -2.12956
LJ           1.68714       -0.545855         2.01403
LJ          -1.48849         2.48037        -1.81566
LJ          0.729941       -0.839145          1.1013
LJ           1.05681         1.46309        -1.58948
LJ          0.548615          1.3273        -2.20784
LJ              -nan            -nan            -nan
LJ         -0.862412        0.313085         2.27982
LJ           1.91684        -1.09798       -0.537992
LJ         -0.173211         1.02942         1.82066
LJ          0.681589         1.18842        -1.33797
LJ           1.08018         2.35105        0.874326
LJ           2.13625         2.04154         1.61893
LJ         0.0232178        0.388819       -0.877893
LJ              -nan            -nan            -nan
LJ          -1.10379         -1.1098        -1.69183
LJ          -1.27657         2.52333         2.18104
LJ         -0.612481         1.11943         0.17302
LJ          0.892097         2.05895        -1.93371
LJ         -0.284181         2.56307       -0.564913
LJ              -nan            -nan            -nan
LJ           1.48168          1.9609         1.70003
LJ           1.71303        -1.43541         2.16739
LJ              -nan            -nan            -nan
