108
#Comment!
LJ          -1.22806        -1.63337       -0.689745
LJ         -0.917231        -1.37718        0.511197
LJ          -2.35932         2.24859        0.764849
LJ          -1.59248        -2.26621        -2.25915
LJ          0.834023        -2.41126        -2.00341
LJ          0.946305       -0.334052        -1.29368
LJ           1.69066         1.86546         1.02997
LJ          0.837003        -1.51875       -0.278005
LJ          -1.02528        -1.29894         -2.3041
LJ          -2.40502        -0.83523        -1.08887
LJ              -nan            -nan            -nan
LJ          -1.26235        -2.03188        0.706997
LJ          -1.46601        -2.08645        0.697514
LJ           1.42191        0.844316         2.12801
LJ           2.39674         1.61318        -2.00892
LJ              -nan            -nan            -nan
LJ              -nan            -nan            -nan
LJ              -nan            -nan            -nan
LJ           1.79727       -0.618954       -0.810104
LJ              -nan            -nan            -nan
LJ           1.79832         2.52715       0.0968514
LJ          -2.34503        -2.37378         1.70682
LJ         -0.657931        -1.86999       -0.876269
LJ          0.501163         1.03761       -0.823689
LJ          -1.24739        -1.26571        0.167109
LJ         -0.175576        0.584312        0.685346
LJ           1.48034       -0.766223        0.918843
LJ          -1.38695        -0.38825       -0.730517
LJ           1.34982         1.06289        -1.32895
LJ        -0.0102872        0.528058       -0.321346
LJ        -0.0387117       -0.303816       -0.687112
LJ          0.690427       -0.901257        -2.15694
LJ              -nan            -nan            -nan
LJ           1.51006         1.45558        0.707215
LJ              -nan            -nan            -nan
LJ           2.16573         -1.4197         -1.0532
LJ           0.44848        -1.66556         2.30651
LJ           1.69627        -2.51202         1.42542
LJ          0.823288         1.19655        0.133073
LJ          -1.63673        -2.33971           1.432
LJ           1.98052        -2.04548         1.21767
LJ          -1.54129          1.5896        -0.20987
LJ           1.08037       -0.148574        0.937434
LJ          0.465146         1.52531       -0.589122
LJ          0.460011       -0.819241        -1.18526
LJ          0.599102        -1.86178        0.872133
LJ           1.37532        -1.57201        -2.23715
LJ         -0.680973          2.0726        -1.95727
LJ           1.61414       -0.567714        0.719306
LJ           2.42254        -1.03023         2.07036
LJ        -0.0536103        -2.29092       -0.778778
LJ           2.22009         1.94867         0.78082
LJ              -nan            -nan            -nan
LJ         -0.384769         0.73747         1.51504
LJ           -1.2546        -0.58963         2.26446
LJ           1.32682         0.27208        -1.85747
LJ           1.64589        -1.90265       -0.935642
LJ         -0.780213         2.29785          1.4716
LJ          -1.64953        0.714969         1.58592
LJ          -2.22635       -0.573227        0.319091
LJ        -0.0124078         1.33688       -0.927873
LJ          0.518273         2.29978         2.18392
LJ          -1.84109         -1.0179        0.123444
LJ           1.77814        -2.24591        -2.34873
LJ         -0.471639        -2.17202        -2.09124
LJ         -0.184897          2.3497         1.57038
LJ         -0.599918        0.642453        -2.14992
LJ              -nan            -nan            -nan
LJ          0.565671        0.670002     0.000195894
LJ          -1.11013       -0.746168        -1.33862
LJ          -2.02246        -0.25751         1.13227
LJ          0.451563         1.25376       -0.882583
LJ          0.465584        -1.57287         0.58135
LJ           1.30649        -1.69904         1.54271
LJ           2.04362         1.72691       -0.317947
LJ            1.4087        0.314951         1.44731
LJ           1.11726        -0.58579      -0.0349467
LJ           0.24176          2.4479        -2.45582
LJ          -1.52936        -2.35787        -1.63594
LJ           1.79739         2.11687        -1.71593
LJ          -2.32167        0.760436         2.38078
LJ          -2.17717        -2.55405       -0.767234
LJ          -1.57271         1.79074        0.879822
LJ          -2.30125        -2.02854        0.988068
LJ          -1.80501         1.97502         1.41975
LJ           1.55856        -2.08337        -0.23444
LJ          0.400556        0.333451         2.11045
LJ          0.843879          0.4429        0.792627
LJ           -1.4447        0.968594        0.690166
LJ          -1.92224        -2.38944        -1.28492
LJ              -nan            -nan            -nan
LJ           2.49825        -2.24865        -1.04903
LJ          -2.08353         1.72841        -1.73299
LJ           2.10857        -2.47772       -0.923149
LJ          -1.24174        -2.23342        0.167951
LJ          -2.38207          -1.856         1.25056
LJ          -1.08072       -0.904641        -1.54246
LJ           1.93991       -0.775288       -0.927367
LJ              -nan            -nan            -nan
LJ          -1.41488        -2.48484         1.64916
LJ           1.83665        -2.39781         1.31445
LJ         -0.282601        -2.52897        0.480594
LJ         -0.523543       -0.417508         1.58942
LJ          0.575003       -0.369908        0.930504
LJ          -2.53106       0.0256572        -1.02033
LJ           1.94325       0.0123623       0.0619994
LJ          -1.02701       -0.269134        -1.49041
LJ              -nan            -nan            -nan
