108
#Comment!
LJ            1.2832         2.17924         1.60636
LJ           1.64825         1.15811       -0.897782
LJ          -0.44638        -1.81544        0.587721
LJ          -1.00922        0.013261       -0.918509
LJ          -1.58888         1.11581        -1.21774
LJ           1.82804      0.00870464        0.103086
LJ           0.74568         0.52049           2.512
LJ        -0.0550128        -1.23674        -2.17497
LJ          -1.31313       -0.600061        -2.05414
LJ          0.250339        -0.23801       -0.285186
LJ              -nan            -nan            -nan
LJ          -1.88118         1.23405        -2.42003
LJ         -0.347385       -0.723811       -0.213942
LJ          -2.01951       -0.753851         1.23512
LJ          -2.41306       -0.413899       -0.034695
LJ         0.0320755       -0.790005         2.49485
LJ          -2.53588        -1.70208        -2.21663
LJ        -0.0265321        -2.01971        -0.29509
LJ          -1.80696        -1.29172        0.998951
LJ        -0.0934192       -0.468804        0.761603
LJ          -1.68011         2.55144      -0.0739891
LJ           1.82742         1.94465        0.299298
LJ          0.701482         2.09775         1.93393
LJ         -0.367497         2.23094         2.35094
LJ           1.87117       -0.425361        -2.24443
LJ          0.958786         2.40418        0.217568
LJ          0.378211        -1.75789         2.37359
LJ           1.81697        -1.44016      -0.0461372
LJ         -0.535309         1.58375        -0.13277
LJ         0.0619158          1.0101         2.18158
LJ           1.21298       -0.572718         1.59267
LJ          0.997018         2.18755         1.58595
LJ              -nan            -nan            -nan
LJ          -2.44469       -0.542508        -2.15585
LJ              -nan            -nan            -nan
LJ          -1.28416         1.38184       0.0442323
LJ          0.150112        -1.21253        0.185262
LJ         -0.398567        -1.88949         0.42837
LJ          0.854723         2.37604        0.780473
LJ           2.08214       -0.885526         2.03367
LJ           1.95294         1.72454          2.1895
LJ           2.04958         1.33566      -0.0999924
LJ          -1.80022        -1.35227       -0.665973
LJ          -1.35528        0.721626         1.90979
LJ           -2.2729        -2.40353         1.89956
LJ           1.67951         1.13331        0.769856
LJ         -0.698621       -0.716827         1.82252
LJ          0.708144         2.16112         2.34146
LJ          -1.66224         2.39243        -2.33622
LJ           1.77583        -1.65171        0.572952
LJ          -1.07137        -2.16541         2.02609
LJ         -0.775052         2.43227       -0.154558
LJ          -1.43649       -0.472062       -0.702723
LJ           2.36532        -1.52024       -0.948461
LJ         -0.351331        -1.06903        0.462729
LJ         -0.808284         0.44336        0.172045
LJ           2.14269         0.70005       -0.911889
LJ          0.643348       -0.357558         1.21001
LJ          -2.47374       -0.930413         0.71975
LJ           1.57127          2.2649         1.02058
LJ          -1.08817         1.57706        0.545327
LJ        -0.0967496        0.552253         1.80407
LJ          -1.04943       -0.972467         1.58534
LJ         -0.587393        -1.44904        0.616699
LJ           1.89425        0.303133         1.88731
LJ        -0.0147358         1.15519        -1.45862
LJ         -0.274789        -2.44222         1.08375
LJ              -nan            -nan            -nan
LJ           1.39268         2.15933       0.0287462
LJ           1.71763         1.44779       -0.906615
LJ          -1.87178        -1.25744        -2.48425
LJ          -2.14665       -0.132879        -1.36175
LJ           2.11662        -0.10153       0.0723954
LJ           1.90214         2.08001        0.727798
LJ          -1.08613          1.1494        -1.15511
LJ           2.18783       -0.129648        0.104322
LJ         -0.950877       -0.293194        0.763618
LJ            1.2857        0.769975        -1.65297
LJ            1.7133         1.78616       -0.677092
LJ           1.60783         -2.0539         2.34615
LJ          0.164902        0.194567       -0.844513
LJ          -1.58343        -1.80479        -1.71627
LJ         -0.559622        -1.32935        0.596877
LJ          0.738807       -0.916277           2.161
LJ          0.680069        -2.39056         2.03252
LJ        -0.0892194          2.3779         2.23852
LJ         -0.522142        0.707483        0.616773
LJ          -1.03398        -1.05156        -0.13324
LJ         -0.148118         2.48604       -0.948329
LJ           1.60586         1.44301        0.223602
LJ          -1.57445       -0.171859        -2.38449
LJ         -0.427977       -0.996899        -1.40901
LJ            -1.851        -1.28507        -1.44494
LJ          -1.66582        0.915954        -1.38866
LJ         -0.123788       -0.974813       -0.460174
LJ         -0.822544      -0.0709901         1.65132
LJ          -1.98703        0.427574        -2.50772
LJ          0.613069          1.6686         1.51928
LJ           1.72824       -0.464303       -0.125382
LJ           1.65549       -0.255754        0.786996
LJ           2.44052         1.11783        0.359516
LJ          -1.60052        0.882905        0.787332
LJ           1.19514       -0.305331         -2.1277
LJ          0.203997        0.885803         1.46095
LJ           1.96728        0.984278       -0.242396
LJ           1.71281        -1.52869         2.53872
LJ           1.79991        0.183558         1.85957
LJ          -2.49246       -0.457084        -2.12055
