108
#Comment!
LJ          -1.20248        -0.92858        -1.97168
LJ         -0.550456        -1.88179       -0.488919
LJ          -2.09997         -1.1414        0.696958
LJ          -1.93921        -1.29958        -1.02763
LJ           1.99419       -0.416046        -1.48752
LJ           2.09126         1.52881        -1.77563
LJ          -1.11966        -1.54684        -1.90143
LJ           1.09788        0.618884       -0.568433
LJ         -0.299722        -2.46965        -1.54271
LJ           2.06884        0.799782        -1.84915
LJ              -nan            -nan            -nan
LJ           1.09712         1.50628        -1.03003
LJ          0.795725          1.7938        -2.37147
LJ              -nan            -nan            -nan
LJ          -1.83378        -2.32498         2.17793
LJ              -nan            -nan            -nan
LJ              -nan            -nan            -nan
LJ              -nan            -nan            -nan
LJ            1.1625        0.612615        -1.96001
LJ              -nan            -nan            -nan
LJ          0.969917        0.955547        0.816958
LJ          -1.50103        -1.59109        -1.55525
LJ          -0.30369        -2.24107        -1.36916
LJ           2.18844        -2.23531        -2.45312
LJ          0.352204       -0.128555         1.24856
LJ         -0.882687        -1.25038         2.46189
LJ          -1.89788       -0.243106         1.06694
LJ           1.94636        -2.51323        -2.03261
LJ          -1.02704       -0.484359        -2.39424
LJ         -0.663912         1.93252        0.791375
LJ           2.50058       -0.147852        -1.38857
LJ          -1.72039        -1.53289       -0.112318
LJ              -nan            -nan            -nan
LJ          -1.65919          2.1318         2.13115
LJ              -nan            -nan            -nan
LJ          0.396449        0.231198        -1.57577
LJ           2.44793         2.09587        -2.37025
LJ          -1.56587       -0.420858        0.561923
LJ          0.503966        -2.07962        -1.08605
LJ          0.339942       -0.442243         1.73812
LJ           1.00454         1.07739       -0.331473
LJ         -0.542821       -0.743022        -1.81471
LJ          -1.16759         2.32161         2.07179
LJ          -2.44768       -0.920061       -0.607403
LJ          -1.20325           1.252        -1.40864
LJ           1.60889       -0.778205        -1.60447
LJ           2.27055          2.2047           2.325
LJ          0.231472        -1.91818         2.08022
LJ           1.09459        -2.21923        0.300951
LJ           1.30217        -2.28206        0.675796
LJ          -1.86846        -2.33538        -2.01296
LJ          -1.66303         2.21336         1.71138
LJ              -nan            -nan            -nan
LJ          0.438147       0.0830335       -0.162899
LJ          -1.80549        0.321792        -1.15311
LJ          -1.80499       -0.315075         2.12292
LJ           1.63261         -2.4983        -1.74877
LJ          -1.38695         2.22656         1.47929
LJ          0.744664        -1.97917         2.21414
LJ          -1.64977       -0.186346       -0.897577
LJ           1.09779        -2.55579        -2.14318
LJ           1.29549        -1.83925        0.451738
LJ          0.355799       -0.877435        -1.84738
LJ          -2.35282       -0.277331        -1.80607
LJ         -0.596304        -1.82204       -0.771971
LJ          -1.83569        0.214975         2.41041
LJ          0.549958         1.77489        -1.06419
LJ              -nan            -nan            -nan
LJ           1.65502         2.41778        0.713834
LJ          -2.35632         1.90571          1.4821
LJ         -0.711274         1.84481       -0.361064
LJ           1.61694      -0.0357732         2.22298
LJ         -0.233238        0.440197       -0.882713
LJ         -0.704004        -1.56238        -1.89731
LJ            1.7008         1.85828        0.504313
LJ           2.26015        0.269107       -0.655457
LJ          0.119799       -0.733044         1.15001
LJ            1.8626       -0.380412        -2.44218
LJ           0.90896         2.39381        0.760433
LJ          -1.34364       -0.824112        0.770645
LJ          0.659846        -1.31535         2.30947
LJ           0.79505         -2.4391       -0.203691
LJ          0.519693         2.43575        -1.10553
LJ         -0.231325        0.407105         1.54519
LJ           -2.5589       -0.607074       -0.799874
LJ           1.36006         -1.1706         2.01248
LJ           1.48886         1.99444        -1.36436
LJ           1.05941        -1.21372         -2.1541
LJ          0.992092        -1.42009       -0.170233
LJ          -2.48791         1.02267        0.500624
LJ              -nan            -nan            -nan
LJ           1.35606        0.997815        -1.88813
LJ          0.882272       -0.202558         1.94318
LJ          -0.83982       -0.751542        -2.01296
LJ         -0.527562         1.95068         1.73786
LJ          0.685467        0.238657        -2.25528
LJ          0.641004        0.800566        -1.62415
LJ           2.48861        0.604595         1.27523
LJ              -nan            -nan            -nan
LJ            1.1553        -1.81076         1.25888
LJ           2.43649        -1.34435         -1.7035
LJ          -2.43263        -0.26869           1.724
LJ          -2.14198        -2.16902        0.463794
LJ           1.90065       -0.280901        -2.15442
LJ              -nan            -nan            -nan
LJ          -2.10628          2.4847             1.7
LJ           1.62789        -2.20506         1.70839
LJ              -nan            -nan            -nan
