108
#Comment!
LJ          0.386808        -1.64133          1.5351
LJ          -1.77766       -0.341079        -2.34891
LJ         -0.133359       -0.874642        -2.36347
LJ           1.99905       -0.933343        0.815045
LJ           1.03124        -2.44851        -2.49918
LJ        -0.0695238       -0.711765        -2.46939
LJ          -1.94933         1.83192        -1.61462
LJ          -2.43675        -1.60345        0.925119
LJ           1.01377          2.2378          1.3495
LJ         -0.880163        -2.37199        -1.18777
LJ              -nan            -nan            -nan
LJ          -0.49191        -1.07703        -1.02396
LJ         -0.993919        0.115687         2.07254
LJ          -2.56165         1.28266        -2.43627
LJ         -0.732094         1.04229         1.06461
LJ           1.44383        -1.99974         0.39043
LJ              -nan            -nan            -nan
LJ              -nan            -nan            -nan
LJ           1.42503        0.612102         1.43788
LJ              -nan            -nan            -nan
LJ          -1.02004       -0.416249        -1.73524
LJ          0.865597       -0.999108       0.0361993
LJ           1.83402         2.02906       -0.969745
LJ         -0.624418         2.12605        -1.10892
LJ         -0.585917         1.66366          2.3816
LJ          -1.58014         1.58475         1.80875
LJ           1.94483         2.00184          1.9607
LJ           1.73714         2.06507         1.31775
LJ           1.90587         1.38205         1.81759
LJ           1.67849         2.16655        -1.64939
LJ           -1.8235        0.554186        -2.36891
LJ         -0.336896        0.289554        -1.26092
LJ              -nan            -nan            -nan
LJ          -2.05093         -2.0207         2.34048
LJ              -nan            -nan            -nan
LJ          0.827663         -1.2683        0.507107
LJ          0.229088         2.00728        0.939127
LJ          -1.96202        -2.36128         2.40431
LJ           2.29693        0.596664        -1.34671
LJ          -2.35649        -0.51668         1.76553
LJ           1.00159         -2.1993        -1.08706
LJ          0.773455         2.08327         -1.0534
LJ          -1.82731         -1.8956        -1.02596
LJ         -0.221072        -1.84171          1.1987
LJ           1.77159      -0.0648737           1.838
LJ           2.32181        0.152376       -0.492917
LJ           1.24265       -0.596058         2.47756
LJ           2.49534          1.8853         0.53923
LJ         -0.938492         2.34796         1.96001
LJ           1.72511        0.756461        -1.31013
LJ          -1.69989         1.64049        -1.32214
LJ          -2.38878        0.980441         0.81411
LJ              -nan            -nan            -nan
LJ          0.210734        0.300153         2.13126
LJ          -2.56448        0.438561        -2.55001
LJ          0.600505        -1.99549       -0.639205
LJ            2.4072         2.41545       -0.469126
LJ          -1.40243         1.16639         1.51827
LJ         -0.124627        0.995879        -1.69892
LJ          -1.81041       -0.298737       0.0135242
LJ           2.20421        -1.97246        0.125384
LJ            1.1153       -0.749528         1.89456
LJ          -1.48824        0.299661         2.55717
LJ           2.16415      -0.0577381         1.12312
LJ          -1.85147       -0.209821         2.29131
LJ          -2.21054        0.983107        -1.57027
LJ          -1.54365         2.53342         2.07834
LJ              -nan            -nan            -nan
LJ           1.41068        0.354196        -2.21123
LJ          0.391997       -0.519041         1.64532
LJ         -0.657288        -2.31795       -0.239675
LJ            1.3833         2.27223        -2.17746
LJ           -1.0945        -1.49198       -0.589089
LJ          -1.17808        0.811427       -0.339529
LJ          -0.45786         1.94205        -2.26709
LJ           1.63765         1.87671         -1.7586
LJ          0.382932       -0.526865         1.38187
LJ          0.620666        -2.27618        -2.38461
LJ          0.936723        -1.75273         0.36555
LJ          0.422553        0.927533         2.12394
LJ           1.14744        -2.02527        0.845243
LJ          -0.24777       -0.927275        -2.47062
LJ          -1.86681         -1.9679         1.98294
LJ           1.74374       -0.947567        -1.56867
LJ          -1.20879        -2.28849        -2.25684
LJ           2.21325        -2.19543        0.879577
LJ           1.12551        0.367179         1.40828
LJ          0.946712       -0.076538         2.08039
LJ           1.43768         1.93831       -0.996653
LJ         -0.626451        0.169404        0.541413
LJ              -nan            -nan            -nan
LJ          -0.75586          -2.011        0.353394
LJ          0.656655      -0.0632882         0.29821
LJ           -1.0505        0.574023         1.14146
LJ         -0.688497        -1.80892        0.232978
LJ           2.34556         1.28278        -1.53078
LJ          -2.05541       -0.113722        -1.55433
LJ           1.59474           1.955         1.69114
LJ         -0.213881        -2.36819        -2.02875
LJ          -1.16888        -1.03115         1.89005
LJ          -2.04698        0.109953          0.5601
LJ            1.2551       -0.425263         1.78297
LJ          0.986128        -1.43169        0.176822
LJ          0.682141         2.27702       -0.600485
LJ         -0.566016        -2.42338         -1.8051
LJ           1.05668        -2.26159         0.88426
LJ          0.384542         1.95392         1.38897
LJ              -nan            -nan            -nan
