108
#Comment!
LJ           1.89052         1.76567         -1.3084
LJ         -0.629673       -0.382967        -1.90436
LJ         -0.416049        -0.16025         1.81981
LJ          0.383955        -2.38463         -1.4932
LJ          0.284086        -1.04056          1.9703
LJ          -1.84218        -1.03432        0.805661
LJ           0.30957         1.30538        0.714521
LJ           1.28914         -1.0379         1.54193
LJ           2.08112         1.41855       -0.873209
LJ          -1.15723        -1.01471       0.0757042
LJ              -nan            -nan            -nan
LJ          0.748786       -0.392777        0.264999
LJ         -0.680549        -1.81566        0.741152
LJ          -1.06053         2.01199        -1.60489
LJ          0.524054         2.50094         2.35978
LJ              -nan            -nan            -nan
LJ              -nan            -nan            -nan
LJ              -nan            -nan            -nan
LJ         -0.969064         2.10136         1.05596
LJ              -nan            -nan            -nan
LJ         -0.348295       -0.318976        -1.07373
LJ           1.41631       -0.308553        -1.32985
LJ          -2.35019         2.18978        -1.24777
LJ         -0.829565       0.0739672        0.766009
LJ          -2.07401        -1.89023         2.21672
LJ          0.423937        -1.80551         1.99813
LJ          -1.65493        0.028085        -1.56121
LJ          -2.44809         1.40748         1.40557
LJ         -0.652922         1.28871       -0.937144
LJ           2.08635        -2.54297        -1.25571
LJ           2.30604        -1.59899       -0.348763
LJ          -2.19736        0.119891        -1.57394
LJ              -nan            -nan            -nan
LJ         -0.146911        -2.35878         2.01102
LJ              -nan            -nan            -nan
LJ         -0.831851        0.555674        -1.01036
LJ           -1.4631        -1.16379        -2.24517
LJ           2.23794        -1.11259        -0.97356
LJ          -1.31445       -0.155482          1.4208
LJ          -1.51743          1.4584       -0.237205
LJ           2.15754         2.14315        -1.65894
LJ           2.43403         2.18242       -0.324266
LJ          0.223857       -0.107521         0.84755
LJ          -2.09487        -1.64677       -0.585452
LJ          0.989512        0.953459        -2.45108
LJ         -0.193059        0.168499        -1.42216
LJ           2.42803       -0.373851        0.869398
LJ          0.977806       -0.553734        -2.40635
LJ          -2.08723         2.03124        -1.23147
LJ           1.25729        -2.26415       -0.011714
LJ          -1.96502        -1.79328        0.118596
LJ           1.85677       -0.746628       -0.938734
LJ              -nan            -nan            -nan
LJ         -0.303489        0.294371         2.25288
LJ          -1.54501          1.2177        -1.29673
LJ           1.56225      -0.0133974        -1.95513
LJ           1.63891          1.7083         1.14352
LJ          -2.25507       -0.439535       -0.360271
LJ         -0.102113        -1.51854         1.65176
LJ           2.36336        -2.33404         1.99711
LJ         -0.558478         1.38552        -0.81254
LJ          -1.46992         1.07586       -0.350612
LJ          0.277541         1.81582        -1.26191
LJ           1.51139        -2.33687         2.48114
LJ           -2.2937         1.99775        -2.33241
LJ            2.4734        0.930777        -1.93593
LJ         -0.906177        0.188055         1.30525
LJ              -nan            -nan            -nan
LJ         -0.783969         2.14928        -1.79948
LJ         0.0976119       -0.130248        0.889152
LJ           1.21757       -0.313312         2.35679
LJ          -1.58989         2.41161       -0.168345
LJ          -1.69649        -1.32964        -1.86775
LJ          -1.34873         1.72141        0.304386
LJ          0.386864       -0.220254        -1.79243
LJ          0.642138        -1.54193        -1.67967
LJ          0.496847        0.720848         1.74332
LJ           -1.1214     0.000232536         1.18463
LJ          0.692859         1.86905       -0.381632
LJ           1.68022         2.24179        0.283383
LJ          -1.21422        0.948166        -1.19519
LJ         -0.707733           2.489          2.0109
LJ           1.17901       -0.952329        -1.56017
LJ           0.21472         -1.0348        0.351023
LJ          -2.15974        -1.66507         -1.3063
LJ           2.24008        0.112854         1.20378
LJ          -2.36396        -1.22005        -1.10611
LJ           2.48653       -0.835739       -0.475571
LJ          -1.01872       0.0398056       -0.899364
LJ              1.86        -2.10444         2.50181
LJ              -nan            -nan            -nan
LJ           1.66512        -2.06734         2.11137
LJ           1.20644        -1.77736        -2.20359
LJ          -2.52227        -2.18533        0.390983
LJ          -2.39446          2.3362         -1.0251
LJ          -1.11016        -1.37584         1.70887
LJ           2.45044        0.784237       -0.994147
LJ           0.88986        0.723072       -0.640735
LJ              -nan            -nan            -nan
LJ         -0.264578         1.97365         2.19828
LJ         -0.533791        -1.22755      -0.0507517
LJ           -1.4815         1.80519         1.91277
LJ         -0.850381        0.896959        0.980902
LJ          -0.43815        -2.42164        0.410596
LJ          -1.03359       -0.197119       -0.205635
LJ         -0.532037         1.09639         1.07367
LJ           2.23419        -1.31958         -2.1444
LJ              -nan            -nan            -nan
