108
#Comment!
LJ         -0.994986         1.36227         1.86831
LJ           2.07257        0.744138        -1.59022
LJ           2.21168       -0.279316      -0.0513453
LJ          0.668703       -0.678003         2.55242
LJ         -0.363975       -0.409811         2.31194
LJ          -1.99276         1.46046         1.35703
LJ         -0.786208        -1.13348        -2.29936
LJ           1.60537       -0.408553        -2.49468
LJ           2.07358        0.634839         1.00709
LJ          -1.36996         1.55081           2.093
LJ              -nan            -nan            -nan
LJ          -1.00901         1.55537         1.21796
LJ          0.496679        -1.79082       -0.136702
LJ          -2.36763        0.525476        -1.28539
LJ         -0.561704       -0.860405         -2.1922
LJ          -2.53232        0.199252        0.023742
LJ          -1.49814        -1.19316        -2.11252
LJ         -0.408851       -0.521618        0.546957
LJ           2.34402         1.84071        -1.58825
LJ          -1.20216       -0.556376        0.870151
LJ         -0.440249       -0.216383         2.54256
LJ          -2.42165        0.342909         1.06764
LJ           0.80311        -2.01668         1.87801
LJ           2.48997        -2.53235        -2.29621
LJ         -0.453583        -2.49479         1.86821
LJ          0.882506       -0.176051        0.405084
LJ         -0.550019         2.38616        -1.56455
LJ           1.75179         1.87541         2.29138
LJ          -2.08323        0.334077          1.0426
LJ           -1.1455         2.50633        -1.19146
LJ           1.45705         1.38804        0.530766
LJ          -2.47574        -1.50534        -1.60485
LJ              -nan            -nan            -nan
LJ           1.44744         2.12088         2.40777
LJ          0.857802        -2.14862        -1.67758
LJ          -2.42923         1.29028         1.25886
LJ          0.211353         2.15998         1.80019
LJ           1.00224        -1.40456         1.47592
LJ          -1.12968        0.552591        0.530961
LJ          0.706604       -0.875522        -2.23568
LJ          -1.10223        -2.29851       -0.747701
LJ          -1.43393        -1.72482       0.0129838
LJ         -0.405846         2.25598         2.23284
LJ           -1.1606        -1.68699        -1.88725
LJ         -0.241974        -0.11825       -0.162774
LJ           2.20947        -1.66387        -1.11187
LJ           1.31413        -1.22893        -1.87014
LJ           2.39311         2.22779        -1.75036
LJ          0.492544       -0.247505         -1.8542
LJ          -2.02052      -0.0850711         1.96333
LJ          0.128939        0.804024         2.01101
LJ          0.683809        -1.87717       -0.811211
LJ          -1.43221         2.25519        -2.28564
LJ           2.00437         1.52631         2.51371
LJ           1.69906        -1.64781       -0.664012
LJ          -1.60664         0.16269         2.42252
LJ          0.417632        0.441949       -0.745689
LJ           1.00473         1.49736        -2.25859
LJ           0.96422        -2.48009         -1.1198
LJ           1.49914         2.38925        -1.02832
LJ           -2.4694        0.228943        -1.20986
LJ          -2.09282         1.31864        0.662958
LJ         -0.798817       -0.887359        -2.35964
LJ           1.20236         1.81952         1.84113
LJ          -2.46116         1.07285        -2.00272
LJ          -2.56128       -0.231426       -0.997325
LJ          -1.46039         1.63382       -0.551601
LJ           0.57354      -0.0470047        -1.75996
LJ          -0.95725         1.30668        0.240219
LJ          -1.57415        0.989447      -0.0538568
LJ           1.34612        -1.73586       -0.666903
LJ          0.764649         1.98482        0.209314
LJ           2.15223       -0.447137         1.25543
LJ          -1.83166        -1.04182         -1.8868
LJ         -0.429526         1.13546      0.00637225
LJ           2.49672         2.14041       -0.108408
LJ           1.30255        0.154824        0.341657
LJ          -2.44552         2.50077       -0.590776
LJ           1.99515         2.44773       -0.243457
LJ           1.94144        -2.56261        -1.56344
LJ          -1.33159         -1.8314         0.34872
LJ          -1.89252          1.7577         -2.5483
LJ           1.85401         1.53135        0.700452
LJ          -2.31783        -1.86017         1.94129
LJ           2.15805           2.362        -1.06574
LJ           -1.2727        -2.39201         2.29883
LJ          -1.59508        -1.77299         1.01497
LJ         -0.128141        0.293122        0.892468
LJ         0.0472157         1.25206        -1.83232
LJ         -0.608395        -2.38371        -2.08605
LJ          -1.29942        -1.64364         2.37668
LJ         -0.647376         2.00451        -2.31973
LJ           2.15048        -1.19011       -0.304643
LJ          0.988571        0.818521        -2.12323
LJ           1.65304        -1.47042        -1.95005
LJ           -1.1308         2.41221         2.15864
LJ          0.628064         1.92311       -0.310058
LJ           2.23882        -1.92501         1.30962
LJ          -2.21944        -2.12613         1.75945
LJ            1.2344          1.7761         -1.3296
LJ           0.05789       -0.607248         2.52511
LJ         0.0709435        -1.22323       -0.145298
LJ         -0.212974        0.889352        0.938659
LJ          -1.86325        -1.21741       -0.910827
LJ          0.238985        -1.08384        -2.09098
LJ          0.429775        -2.25113         1.74249
LJ          -1.36643        -1.33616          2.0865
LJ           1.29692         2.25406        -1.82565
