108
#Comment!
LJ          -1.56663        0.140538       -0.937912
LJ          0.569373        0.130458         1.53544
LJ         -0.207369        0.385823        0.732855
LJ           1.66556         2.41769        0.161836
LJ          -1.83629         2.04847        0.123059
LJ          0.136294         1.42559       -0.877593
LJ          -1.83062        0.625436        -1.76412
LJ          0.162275          2.3793       0.0807827
LJ          -1.58853        0.628971        -1.69056
LJ         -0.774659       -0.543463         2.23025
LJ              -nan            -nan            -nan
LJ         0.0303203        -1.77336         2.42819
LJ         -0.235452         1.32047        0.126199
LJ           0.91189        -1.33764         0.66497
LJ         -0.704366         1.48238        -2.00945
LJ         -0.182942        -2.25288        -1.17015
LJ              -nan            -nan            -nan
LJ              -nan            -nan            -nan
LJ           2.02199        0.305794        -0.62268
LJ              -nan            -nan            -nan
LJ           1.16652         2.24562       -0.404209
LJ         -0.814703        0.112837       -0.334126
LJ          0.433844          1.0886        -1.71784
LJ           2.24887       -0.305199        -2.05037
LJ          -1.85032        -2.40004         2.37624
LJ           1.27294        -1.31685       -0.350918
LJ           1.83833       -0.617078        0.404298
LJ           1.82073         0.91456       -0.437715
LJ          0.495752        -2.06437        0.861413
LJ          -1.16358        0.752213        0.840615
LJ         -0.620557        -1.34686        -2.47353
LJ           1.26556         -1.7746       -0.432899
LJ              -nan            -nan            -nan
LJ           1.34544       -0.287176        -1.22307
LJ              -nan            -nan            -nan
LJ           1.50337         1.48178        0.202741
LJ          -1.85581         1.88688      -0.0897455
LJ          -1.08198       -0.152894         1.57492
LJ          -1.04569       -0.348938         1.40975
LJ        -0.0412468        0.651254         1.69915
LJ          -1.08433      -0.0152258       -0.646352
LJ        -0.0233752       -0.977654         2.31937
LJ           1.07773        0.635642        -1.79848
LJ           1.06264       -0.360428       -0.411548
LJ          -1.45796       -0.441967        0.867217
LJ          0.959108         0.53208       -0.177203
LJ          0.228321         1.03143        0.211055
LJ         0.0571786        -1.99546       -0.211447
LJ         -0.515991        -1.20394        0.460465
LJ          -1.71132         1.66313       -0.474324
LJ          0.722104        -1.75628       -0.510554
LJ           2.08405       -0.487339        -2.01409
LJ              -nan            -nan            -nan
LJ          -2.34126            -1.2       -0.162319
LJ          -0.62076          1.3897         1.89925
LJ         -0.286015       -0.393097        -1.04998
LJ           1.03799        -2.26764         2.20486
LJ          0.470121         1.02052         2.53271
LJ           1.48847        -1.97149         2.31636
LJ         -0.389094      -0.0819316         1.78223
LJ           2.44999        -1.98401       -0.960164
LJ           1.95935          1.1971         1.12824
LJ           2.04479         2.23936         1.81845
LJ            0.6056        -1.52938         -1.8346
LJ          -1.30686         2.25427        0.230176
LJ          0.854773       0.0546867        -2.41626
LJ           1.60046        -2.38856        -1.89712
LJ              -nan            -nan            -nan
LJ          0.944826        -1.13869       -0.441822
LJ          -1.41291        -1.72226         2.42446
LJ          0.642199       -0.453447        -1.77894
LJ          -2.14513        -2.14007       -0.716644
LJ          -2.20765        0.474434         -1.8055
LJ           2.30425         1.87932        -2.02966
LJ         -0.944628       -0.642957        -2.38254
LJ          0.217949         1.28982       -0.215832
LJ          0.810014         2.37179       -0.143308
LJ          -2.21977        -1.03311        -2.12172
LJ          -2.02166        -1.80213         1.12606
LJ          0.869684       -0.598717        0.826464
LJ          -1.83926       -0.918767         2.01448
LJ           1.28331        0.779248         0.26664
LJ            2.1565       -0.809414       -0.416076
LJ          -1.27219        -2.41411         1.72893
LJ          -2.13791          1.3592         2.49932
LJ          -2.02778       -0.285175        -2.15318
LJ           1.56261       -0.775615     0.000102621
LJ          -1.42362         2.49094       -0.694059
LJ          -2.54211         2.05068        -1.61902
LJ            2.2278         -0.2545        -2.37146
LJ              -nan            -nan            -nan
LJ           1.20778         1.07807          2.3676
LJ          0.261808        -2.09988         0.55201
LJ           2.41496         1.51785        -1.56349
LJ         -0.980596        -1.11514        -1.32315
LJ         -0.519719         1.28382           1.268
LJ          -1.52246       -0.860194         2.35123
LJ          -1.09929       -0.891108        0.663331
LJ          -1.05021         1.75561       0.0962914
LJ           1.24002       -0.100727         0.16137
LJ        -0.0621807        0.939777       0.0730868
LJ          0.802715         2.30802         1.54398
LJ          -1.64508        -1.61744         2.37771
LJ          -2.25581        -1.82476        0.334185
LJ          0.195323        -1.11347        -1.35952
LJ           -1.2893         1.02655         2.00052
LJ          0.400114         -1.1658         1.23188
LJ              -nan            -nan            -nan
