108
#Comment!
LJ       -0.00227178         1.24918        -2.14801
LJ           1.26412       -0.545532        0.943867
LJ         0.0252767       -0.534847        0.291529
LJ          -2.42745         1.73215       0.0226282
LJ          -1.13339         1.37431        0.532385
LJ           2.49357       -0.957883        -1.15141
LJ           -1.9418       -0.398939        -1.69212
LJ         -0.185217       -0.547959        -1.45197
LJ          -1.51131        -2.04045        0.879143
LJ          -2.19106        -1.65435        -1.93977
LJ              -nan            -nan            -nan
LJ          0.122461         1.01889          0.5034
LJ           2.47677        -1.96262         1.17204
LJ          -1.08406          1.1628        -2.35225
LJ           -1.4104         1.16594      -0.0722591
LJ              -nan            -nan            -nan
LJ              -nan            -nan            -nan
LJ              -nan            -nan            -nan
LJ         -0.575295         0.13666        -1.88782
LJ              -nan            -nan            -nan
LJ          0.907927        -1.80761           1.665
LJ          -2.44595        -1.12486        0.103004
LJ           1.79467         0.81648        -1.27139
LJ            1.3019         1.17056         1.69616
LJ           1.52317        -2.30062         1.69366
LJ           1.23888        -2.34872         2.32264
LJ         -0.475621          1.7405         1.73097
LJ         -0.218272        -2.18955        -1.78296
LJ           1.14838        0.945063         2.07758
LJ         -0.130325        -2.07871        -2.55369
LJ          -1.33199       -0.769336        -1.91408
LJ         -0.194155        -2.30337       -0.582323
LJ              -nan            -nan            -nan
LJ         -0.454062        -1.15695        0.679968
LJ              -nan            -nan            -nan
LJ           1.81389        0.661898        0.443277
LJ          -2.36817        -1.39481         2.36669
LJ           2.35269         1.31063       -0.144164
LJ          0.645786        -1.78708          -1.077
LJ          0.713338         1.08344           1.399
LJ         -0.973689         2.52615      -0.0407035
LJ         -0.348931         1.13472       -0.567384
LJ          -1.31969       -0.382832         1.49268
LJ          -1.31093         -1.5561         2.38539
LJ         -0.952013         2.41317        0.678433
LJ          -1.69975        -1.67007       -0.181879
LJ          -2.14963        -1.58127        0.327387
LJ          -1.49163        0.206367       -0.678982
LJ         0.0943586         1.21206        -2.07252
LJ           1.97464      -0.0398021         2.50493
LJ          0.701783       -0.803311        0.976082
LJ           -1.3042        -1.85998       -0.360026
LJ              -nan            -nan            -nan
LJ         -0.668962        -2.47658       -0.258928
LJ          -2.03164          1.3186        0.981255
LJ           -2.4994         2.40209        -1.36302
LJ         -0.131367         2.49466        -1.41983
LJ           2.28684         2.21964        0.903732
LJ          0.861612        0.573687        0.921281
LJ         -0.418026       -0.894995         1.79825
LJ           1.76712         -1.1462        0.825861
LJ           -1.0642        -1.66143        0.733271
LJ         -0.369039        -1.66415         1.60292
LJ           1.38334        -2.03229        -2.12386
LJ          -2.30229         2.14705        0.131897
LJ          -2.02462         2.29748         -1.1298
LJ         -0.170354        -2.07563      -0.0882017
LJ              -nan            -nan            -nan
LJ           0.73179        -1.62015       -0.448492
LJ           2.37964         1.39392        -1.48208
LJ          -1.70045        -1.99109         2.00957
LJ           2.41837        -2.04147        0.434232
LJ            0.5689         -1.6863         1.53818
LJ          -1.92279        0.729018        0.468111
LJ          -2.12571          -1.749         -1.3676
LJ          0.957828       -0.376168        -1.26799
LJ             1.977        -2.17663       -0.505097
LJ           -1.3409          2.1124        -1.84051
LJ         -0.587686         2.33484        -1.79252
LJ          -2.53799         1.09969        -2.03586
LJ           2.07486        0.994569       -0.602084
LJ         -0.056058       -0.470005         2.00982
LJ         -0.798225         2.33544         -2.3113
LJ          -2.21613        0.951992         2.53781
LJ          -2.06783         1.17065       -0.218257
LJ           -0.3483        0.145462       -0.604076
LJ          -1.73254        0.688714         1.12296
LJ          0.771053      0.00967936        -1.96603
LJ           1.82782         1.02234        0.262499
LJ          -2.07535        -2.14486        -1.22777
LJ              -nan            -nan            -nan
LJ          -1.80696         1.55869         1.72725
LJ           1.59486         1.00254         -0.6367
LJ          -2.47049        0.914122        -1.19901
LJ          -1.90975         -2.1597        0.131463
LJ          0.044756        0.239691       -0.910711
LJ           1.27363         1.96667         2.27188
LJ         -0.652938         1.90063         -2.2575
LJ              -nan            -nan            -nan
LJ           1.46224        -1.82204        0.597912
LJ          0.289424       -0.860497         2.04741
LJ          -2.39139        0.154316        -2.49122
LJ         -0.998023         -1.3146       -0.260709
LJ          0.801682         2.30767        0.800136
LJ          0.952191        0.484301         2.44145
LJ          -1.74572         1.12451       0.0658147
LJ           -1.6718         1.85903         1.61994
LJ              -nan            -nan            -nan
