108
#Comment!
LJ          -1.30866        0.862724         1.53951
LJ           1.93785        0.989358         2.50182
LJ          0.679631       -0.369952       -0.155728
LJ          -2.22565         -2.1419        -1.09773
LJ           2.20372       -0.670753        0.723622
LJ          0.357637        0.299638         1.40976
LJ          -1.66532        -1.43078       -0.946012
LJ           2.55726       0.0993114         2.44019
LJ         -0.510284       -0.808374         2.27736
LJ          0.733075         1.64988        0.168037
LJ              -nan            -nan            -nan
LJ         -0.451008        -2.16771         2.45942
LJ            2.3195         1.38133        0.616089
LJ          -2.55005        -1.32798       -0.686901
LJ         -0.651754         2.13634       -0.684893
LJ           1.59734        0.670229        0.745109
LJ         -0.257345        -0.52506         0.91183
LJ           2.55306         2.33111        -1.02358
LJ          0.331492       -0.727937        -1.00115
LJ           1.04446         1.66971        0.913448
LJ           1.14463         2.11588       0.0632494
LJ          0.178311      -0.0610597        0.571114
LJ          0.957626        0.533329       -0.105316
LJ          0.515373       0.0202065         2.52079
LJ          -0.52609       -0.623188        0.779741
LJ          0.800869        -2.11685       -0.451845
LJ          0.918112         1.11816        -1.36264
LJ           2.47934        -2.06928         1.59377
LJ         -0.970748       -0.666686       -0.660304
LJ        0.00569263         2.41064        -1.24429
LJ            2.0016       0.0915471        0.308934
LJ          0.268556        0.707399        0.681481
LJ              -nan            -nan            -nan
LJ           1.56046        0.345838        -1.94437
LJ         -0.609556        -1.77101          1.3603
LJ         -0.458502       -0.224259       -0.778703
LJ          -1.40744         1.51434         1.19094
LJ         -0.749746         2.23153       -0.023323
LJ          0.518544        -2.05004         -1.3466
LJ           1.33603       -0.632902       -0.265788
LJ          0.850752        -2.09576       -0.903918
LJ          -1.41978         1.21948        -1.88841
LJ           2.55123        0.978475         1.72219
LJ         -0.681309        -2.17365         1.10049
LJ         0.0575019         1.08542        0.928124
LJ           -1.9134        -1.54646         1.47961
LJ           1.84821       0.0930175        -2.33648
LJ          -2.43107         1.12114        -1.67039
LJ         -0.132526         1.27447        -2.13515
LJ          -1.36564         1.41674       -0.366892
LJ           2.41012       -0.260746        -1.25929
LJ           -0.3907        -0.33964        0.699213
LJ           1.89662        -2.55914       -0.230143
LJ          -1.94646         1.11706        0.789048
LJ         -0.604361        -2.10015        -2.26949
LJ          -1.94995        0.410591         1.05841
LJ          -2.14563        -2.54541       -0.667953
LJ           2.23084        0.118442         1.49002
LJ          -2.49995        -1.35167         1.82031
LJ          -2.09804         0.70612         2.40406
LJ          -1.11837       0.0775579        0.306361
LJ          -1.29603        -1.70564         2.44398
LJ           1.32006         1.92707        -1.99544
LJ           1.00802         1.55477      -0.0808148
LJ             2.317       -0.142342        -2.45303
LJ         -0.397421         -1.9733        -2.50045
LJ          -2.02956        -2.27751        0.494748
LJ           1.99129        -1.28167        -1.04545
LJ          0.575161         -2.3681         2.05444
LJ           1.89448          -1.336        -1.67909
LJ          -1.61955       -0.817421         2.14467
LJ          -2.23563         2.35752         2.37525
LJ         -0.179315         -2.3195        -1.11198
LJ            1.1479        -1.93218       -0.909802
LJ           1.95186        0.666166         2.29017
LJ         -0.664457         1.57358        -1.65083
LJ          -2.25136         2.11673        -2.40059
LJ          -2.47192         1.72776        0.699628
LJ         -0.356656         1.50545        0.362875
LJ           1.96708        -2.22993         2.01415
LJ          -1.37758         1.66748       -0.683976
LJ          0.236424       -0.605856       -0.921773
LJ           1.73613         1.38662          2.0461
LJ           -2.0501         2.46908        -1.46424
LJ          0.348791       -0.821084         1.36734
LJ          0.495453        -1.91768         -1.8974
LJ          -2.37136          1.5872        -2.44147
LJ            1.1447         1.05097        -1.76466
LJ          -1.21596         2.05801        -2.03602
LJ           2.17523       -0.389149         1.28802
LJ         -0.777559         2.52737        -1.71255
LJ           1.91299       -0.586343       -0.104422
LJ         -0.890898          1.2805      -0.0791321
LJ          -2.50482        0.598812         1.02829
LJ         -0.938799        -2.06508        -1.70877
LJ           2.47687         1.72983         2.35924
LJ          -2.16906        0.514105         2.30657
LJ       -0.00870053        -2.09771       0.0285876
LJ          0.853217        -1.05072       -0.987593
LJ          0.958224        -1.53983       -0.235544
LJ          -1.70281         1.81583        -2.34771
LJ           2.12652        0.145782        0.364329
LJ           2.09204         1.91154       -0.319831
LJ          0.419412        -1.72269       -0.579174
LJ           1.93905        -1.01659        -2.27663
LJ          0.767277        0.424855         2.11737
LJ          0.493726        -1.43322         2.08005
LJ          -1.25618        -1.72273        0.468992
