108
#Comment!
LJ         -0.353221        0.728938        -1.23476
LJ           -0.5354        -1.41956          1.8294
LJ           2.04135       -0.863587         1.96693
LJ        -0.0543519        0.475569         2.22279
LJ            2.1246        -1.88418        -1.17017
LJ           1.29331       -0.673118       -0.512698
LJ          -2.00893       -0.665751        -0.40693
LJ          -1.23605       -0.280981        -1.81505
LJ           1.86412         1.28062        0.520061
LJ           1.35187        -1.98462        0.674249
LJ           2.01236         1.72925       -0.783909
LJ           1.97265        -2.53951       -0.826896
LJ          0.769759          1.1813        0.598102
LJ          -1.21998         1.24071         1.74105
LJ           -1.4543         1.24601         -1.2542
LJ         -0.893109        -1.20279         2.07981
LJ          0.435513        -1.49299       -0.243537
LJ         -0.235556       -0.361761        -1.98305
LJ          -2.22039        -1.39754        0.624346
LJ          -1.63928        0.563166         2.47557
LJ          -2.35561        -2.15089         2.01284
LJ          -2.10027         2.19726       -0.679362
LJ          -1.00033        -1.38051          2.2532
LJ          0.152068        -2.26665        0.791485
LJ          0.408139        -2.18566       -0.306911
LJ          -1.87075        0.953544        -1.67045
LJ          -1.28446         1.06382      -0.0519063
LJ         -0.746961         1.52822       -0.474547
LJ          -1.64957          2.4297         2.00658
LJ          -1.80232        0.901214        0.881264
LJ          -1.32113        -1.19961        -2.03269
LJ           1.57107        0.258596        0.790517
LJ        -0.0353333        -1.76285       -0.581363
LJ           2.09296        -2.31876         -1.5438
LJ           2.40908        -0.26358         1.92523
LJ           2.31225          1.9449         2.05173
LJ           1.05674        0.418447        -2.27345
LJ           1.25001       -0.638122         2.05535
LJ         -0.737312        0.971178         1.41508
LJ           1.51662       -0.202355         2.19304
LJ            1.1535        -1.57152        -2.42932
LJ         -0.998847        0.834611         2.32386
LJ           1.74162       -0.365271         1.93756
LJ         -0.679376         1.83806        0.639674
LJ          -0.99562        -1.32719        0.124571
LJ          0.182604       -0.378735         2.07218
LJ         -0.337684        -1.33711        0.312548
LJ           2.42628        -2.39723       -0.559784
LJ           1.69139         2.51692        -1.25508
LJ          -1.35015        -1.43099        0.188174
LJ          -1.19546         1.91986        -1.21412
LJ          -2.51683         1.64801        0.609506
LJ        -0.0480152        -2.04627      -0.0445237
LJ          -1.90051       -0.146067       -0.727193
LJ           2.54951         1.17223        0.530217
LJ            1.4598          1.3834       -0.169201
LJ          -1.16207        -1.11205        -1.40199
LJ          -1.93612        -2.44908         2.53002
LJ         -0.135805         1.73431        -1.10206
LJ           1.43184         2.52421         2.49261
LJ         -0.663118         2.19229        0.153134
LJ           2.15118       -0.531322         1.33298
LJ          -1.18496         1.09252        -2.29954
LJ           1.91444        -2.23409           -1.89
LJ         -0.037318         1.75248         1.17479
LJ          0.438623        -1.51652       0.0320577
LJ           1.74075       -0.857093         1.78265
LJ         0.0520161       -0.293923         0.63701
LJ            1.7717         -2.4477         1.39863
LJ          0.478863       -0.297773         1.32722
LJ           1.99697       -0.730241        -2.11344
LJ         -0.415348        -2.39105         0.23628
LJ           1.24941        -1.64871         2.15125
LJ           -1.6631       -0.842142       -0.423507
LJ           2.30008       -0.988188        0.067076
LJ           1.16433      -0.0654278        -2.22062
LJ          0.110451        -1.98707        0.859154
LJ          -1.38038        -1.14582        -2.25143
LJ          -1.44561       -0.765497      -0.0810502
LJ           1.20517       -0.466057       0.0765455
LJ          -1.49281        -1.45438       -0.237041
LJ         -0.440163        -2.43724        -2.20663
LJ           1.42711        0.238538       -0.955772
LJ          0.994504        -1.88292        0.386255
LJ          0.549421       -0.263617        -2.37901
LJ          -1.25163        -1.12203        -2.41317
LJ          0.411326        -1.31784         -1.3003
LJ          -2.18217         1.90569        -2.11202
LJ           1.98137         1.56818        0.310094
LJ          -2.36218       -0.484229          1.5008
LJ          -1.21832         2.03058        0.180721
LJ         -0.953705        -2.53249          2.0589
LJ          0.812676        -0.47123        -1.05162
LJ          0.222629       -0.165981        0.871664
LJ          -1.17295         2.00812         1.84665
LJ          0.600624        -1.51883         2.25678
LJ          -1.84474         1.45668        -1.67614
LJ           2.06979        -1.69515       -0.703149
LJ          0.933662         1.50665        -1.59743
LJ           1.83869        -2.38203        -2.08856
LJ          -2.25102       -0.720944       -0.947526
LJ        -0.0277055        -2.22579        0.865157
LJ          -1.06459       -0.818101         1.21707
LJ          -1.35047         -0.7123       -0.916855
LJ           2.13042        -2.12727        -1.57336
LJ          -1.31671        0.249368         2.36806
LJ          -1.35354         2.17663       -0.475558
LJ           2.39492         1.59644        0.954272
