108
#Comment!
LJ          -1.37823        0.810505         2.03632
LJ          -1.80106       -0.967244        -2.07638
LJ          0.844401         2.46082       -0.170124
LJ         -0.555983         2.43764        0.406147
LJ        -0.0737458         1.22991         2.46917
LJ          0.970923         1.14389        0.145963
LJ          -1.53718         1.66461         1.98338
LJ          -1.02359         2.12319       -0.388207
LJ         -0.813132        -2.42102        -2.01774
LJ          0.680588      -0.0587517         1.06986
LJ              -nan            -nan            -nan
LJ          -2.05714        -1.95142        -1.93538
LJ          -1.36142        0.246507       -0.689563
LJ           1.00323        -2.29733        -2.13028
LJ          0.598402        0.851176          1.1689
LJ           1.63801         1.66747         2.24333
LJ              -nan            -nan            -nan
LJ              -nan            -nan            -nan
LJ         -0.749852        0.841033        -2.29073
LJ              -nan            -nan            -nan
LJ          -2.06268        -2.50709         2.19497
LJ          -1.93657        0.739644         0.67679
LJ         -0.958867         2.24185         1.03759
LJ          0.688879         1.69937       -0.974368
LJ           2.39727         1.03118        -1.47888
LJ           2.40044       0.0648878         1.40467
LJ            1.9914       -0.819626         1.15118
LJ           2.55309       -0.314512         2.29856
LJ          -1.81518         1.62036         2.04368
LJ           2.17132         1.70065       -0.783748
LJ          -2.47397       0.0618933         2.28739
LJ           2.39736         1.24487        0.863144
LJ              -nan            -nan            -nan
LJ           1.85378        -1.60474         2.15863
LJ              -nan            -nan            -nan
LJ           2.48463       -0.363707        -1.22203
LJ          -2.50369        0.421848         1.25867
LJ           1.72549         1.01647         2.30475
LJ          0.971709       -0.382766         2.13107
LJ           2.24128          1.7253         2.49874
LJ          -1.65261       -0.232074         1.05932
LJ         -0.224245       -0.867713           0.045
LJ          -1.65876         2.48917         2.17458
LJ           1.04275        0.714526         0.94284
LJ            1.4131        0.175715         1.76736
LJ         -0.091791       -0.427064         1.14298
LJ           1.89479      -0.0614652         2.53674
LJ          -1.66751        0.931222         1.23165
LJ          0.770856        -2.43132         2.05801
LJ          -2.19127         1.32502        -1.08284
LJ          -2.35266        0.484751       0.0307249
LJ          0.981188       -0.374006       -0.501534
LJ              -nan            -nan            -nan
LJ          -2.21523         -1.5739         1.45598
LJ          -1.68509        -1.25536        0.432172
LJ          -1.72726        -2.16277        0.775363
LJ            0.2071        -1.99243        -2.36024
LJ           1.29561         1.93228        -1.96071
LJ          0.633705         2.47753        0.845141
LJ          -1.17703        -1.27163         1.23719
LJ          -1.88571       -0.557741       -0.406035
LJ          -1.94413       -0.978323         1.55286
LJ         -0.267619        0.287875        0.890728
LJ          -1.15844      -0.0682334        -1.32226
LJ         -0.396371        0.356449         2.53592
LJ           1.56111         1.84397       -0.299021
LJ           2.56014        0.952807         2.25163
LJ              -nan            -nan            -nan
LJ          -1.17367        0.456721         1.96644
LJ          0.363317        -1.08106           1.354
LJ         -0.915088        0.256838        0.800424
LJ           2.38153        -1.19505       -0.891997
LJ          -1.28472         2.09557      -0.0186777
LJ          -2.32412         2.12577        0.745557
LJ          -2.41352         2.36218        -2.35855
LJ          0.646859       -0.642519        -1.79162
LJ           1.95162          2.2249        -1.74446
LJ         -0.610441         1.76596        0.240564
LJ         -0.171034        0.130402         1.50011
LJ           1.14712         1.41918        0.802755
LJ           2.27103        -2.07182        -1.23882
LJ          0.176541        -1.84958        -1.07891
LJ          -2.48577        -2.28483      -0.0591763
LJ           -1.0488       -0.450619       -0.766048
LJ           1.37895        0.534603         1.26697
LJ           1.62199         1.33361        -1.15358
LJ          -1.58607        -1.19319         1.79294
LJ          0.752028        0.631544       0.0858095
LJ          -1.39295         2.49451        0.889001
LJ          0.813149         1.39172         1.21146
LJ              -nan            -nan            -nan
LJ          -2.23736        -1.44081         2.30375
LJ           1.10475         1.92433        -2.20327
LJ           1.73739        -0.34779        -1.48089
LJ          0.993009         1.92276        -1.92877
LJ          -1.17694        0.495166        -0.43455
LJ          -1.91326       -0.178211        0.586545
LJ          0.850198       -0.850264       -0.212776
LJ          -2.53472        -2.10318         0.33444
LJ          -1.22615         -1.2272         2.35546
LJ          -2.15366         1.55934         1.85393
LJ         -0.528306       -0.274821        0.554403
LJ          -2.41902       -0.394542        -1.40632
LJ           -1.7683       0.0661309        -1.30434
LJ          -0.53711         2.07948         1.68322
LJ          0.641588        -1.94059        0.170397
LJ           0.96725       -0.826256       0.0700334
LJ              -nan            -nan            -nan
