108
#Comment!
LJ           2.05607         1.34621        -1.81714
LJ          -1.72087        0.238404         1.57625
LJ          0.711191        0.479568          2.5429
LJ           1.57463         1.53998       -0.490534
LJ          -1.80264         1.32461         1.62346
LJ          -1.47123         1.07932        -1.70564
LJ           0.90456        -1.40934         1.61352
LJ          -2.36726       -0.221698          1.9671
LJ         -0.271685        0.469259        -1.94976
LJ          -1.55367         1.57692         2.55675
LJ              -nan            -nan            -nan
LJ         -0.650238        -1.16561        -2.24983
LJ           2.55521        -1.13485        -2.14928
LJ           1.59861        0.895978        -1.14417
LJ          -0.62896       -0.891914      -0.0176176
LJ           1.82314        -1.77879        -1.21108
LJ              -nan            -nan            -nan
LJ              -nan            -nan            -nan
LJ           1.37269       0.0155252        -1.12852
LJ              -nan            -nan            -nan
LJ         -0.547839       -0.245865        -1.80365
LJ          0.289602        -1.16857        -2.05906
LJ           2.23026       -0.693589       -0.923952
LJ         -0.486692        -1.18971         2.21902
LJ           0.98142         0.57457         2.38758
LJ          -1.30127         1.91416        0.222447
LJ         -0.521033        -2.31869         2.25002
LJ          0.936504         1.87111         -1.8882
LJ           1.32195        -2.32748         0.91898
LJ          0.667874        -1.44493         1.53809
LJ           2.18102         2.47644         1.06937
LJ           1.41744        -1.75363         1.89043
LJ              -nan            -nan            -nan
LJ           1.76097       -0.376267        -1.01839
LJ              -nan            -nan            -nan
LJ          0.819625        -2.26712         2.29011
LJ           1.67208        -1.78658         1.74477
LJ          -2.13467        -1.23251       -0.708182
LJ           -1.3689        -1.01456         1.55426
LJ          -1.80876        0.305119         1.03931
LJ           1.03435        -1.26008        0.563818
LJ           1.69874         1.56245        0.185436
LJ         -0.419973      -0.0673014         1.81356
LJ          -1.52581        -2.00197        -2.50854
LJ            1.7776        -1.66585        0.278936
LJ          -2.13884         -2.2746        0.246121
LJ           1.55936         -2.1799        -1.09452
LJ           1.41415        0.221015        -1.89862
LJ          -1.61645         1.28371        -1.82807
LJ          0.251852        -0.08314         -2.0814
LJ           1.68998        -1.80934       -0.370842
LJ          0.885418        -2.00589       -0.326623
LJ              -nan            -nan            -nan
LJ          -1.96581        -1.62447         2.32774
LJ          0.440172        -1.85725         1.58691
LJ            1.3842        -1.07221         1.65175
LJ           1.96038         1.97679        -1.01853
LJ         -0.969069         1.22083        0.830326
LJ          0.612961       -0.882899        0.492722
LJ         -0.658558         2.09793         1.09192
LJ           0.59607         1.85243         1.93786
LJ           -1.3797        -1.97146        0.435261
LJ         -0.450979        -1.79619         1.61053
LJ          -0.32466       -0.577094        -1.05917
LJ           1.51931         1.18251        -2.16148
LJ         -0.460609         1.53572        0.226586
LJ            2.3328         1.65088        -1.46394
LJ              -nan            -nan            -nan
LJ         -0.850521         1.78425         2.24006
LJ          -1.17358         2.07777        -2.22036
LJ         -0.260287        0.635174        -1.62019
LJ         -0.970337       -0.967475        0.460056
LJ          0.847797        0.463577       -0.122534
LJ          -2.35994        -1.44824         1.08006
LJ           2.46456        -1.03476         1.79469
LJ         -0.481918       -0.399227         1.63291
LJ           2.08645        0.298538         1.85587
LJ           1.27886         1.85994        -1.37248
LJ         -0.063339       -0.908203         2.03822
LJ         -0.690156        0.456363         2.00361
LJ         -0.878158         2.45667         -1.0459
LJ            1.2911        -1.09014       -0.922426
LJ          0.858423       -0.272541         1.79811
LJ          -2.14104         1.05216        -1.89513
LJ          -2.16821        -1.16883        -1.65312
LJ          0.635119       -0.710886        0.333421
LJ          -1.53287        0.131304        -2.16557
LJ          -1.06161        0.659512        -1.23501
LJ            0.1818        -1.89799        -1.91097
LJ          -2.42563        0.924842        -1.51283
LJ              -nan            -nan            -nan
LJ          -2.12193         0.82256        -1.57637
LJ          0.368801        0.998118         1.01026
LJ           1.30914        -1.87292       -0.727385
LJ           1.69955        0.437683       -0.273697
LJ           1.89334         1.88575        0.521814
LJ          -1.52772         1.99124       -0.949464
LJ           2.16776       -0.458398          1.6247
LJ          0.105824         2.46455        -1.52181
LJ           2.52913      -0.0746023       -0.518103
LJ         -0.713488       -0.926934       -0.590591
LJ          0.271691       -0.135304        0.577298
LJ          -2.06381         2.52632        -1.53853
LJ          0.684438        -1.86802         1.59349
LJ           2.04144         1.11411         2.55522
LJ           2.44444         2.46441        -0.31669
LJ           2.31389       -0.301534         2.26492
LJ              -nan            -nan            -nan
