108
#Comment!
LJ           2.28825         0.63487         1.88591
LJ          -2.39282         2.38643        -1.17975
LJ            1.9563       -0.887569         -1.6615
LJ           1.82783         1.14061        0.913669
LJ            2.3057         1.11125        0.865963
LJ           2.02416        0.113109         2.53067
LJ           1.17822        -2.48476        0.491925
LJ          -2.23108        0.707768        -1.94263
LJ         -0.625656         1.30964         1.85002
LJ           1.23433         1.14015        -2.42643
LJ              -nan            -nan            -nan
LJ           1.12485       -0.952144        -1.49983
LJ          -2.44605         0.47774         1.92054
LJ          -1.16834         -1.5172       -0.672132
LJ          -1.59536        0.952341         2.53876
LJ          0.981433        -1.96827        -2.26826
LJ              -nan            -nan            -nan
LJ              -nan            -nan            -nan
LJ          -2.20287        -2.30429        0.104491
LJ              -nan            -nan            -nan
LJ           1.57479       -0.420905         -2.5027
LJ           1.11402        -1.57834       -0.722914
LJ          -1.23791         1.92648        -1.88698
LJ          -1.86129         2.15109        0.197137
LJ           1.25632         2.17332       -0.515857
LJ           1.49368         1.62665         2.49841
LJ            2.3304         2.40177        -2.15631
LJ          -1.02837         2.28332         2.17085
LJ            1.1153         2.13239        -1.71913
LJ           0.65988        0.586541          1.3997
LJ          -2.40276        -1.12087         2.28802
LJ          -1.47473         1.28501         1.63289
LJ              -nan            -nan            -nan
LJ          -1.90836        -1.71562         1.65703
LJ              -nan            -nan            -nan
LJ          0.800785         0.45157        -1.66647
LJ         -0.566594        -1.30266         1.74097
LJ           2.09621        -1.64343         2.30742
LJ          -1.90933         -2.0893         1.22951
LJ          0.394986        0.305967       -0.465415
LJ          0.124322         1.62897        0.602056
LJ        0.00314033       -0.786974         0.39454
LJ         -0.203782        -2.55451        -1.82566
LJ            1.4423        -1.29038        -1.16735
LJ          -1.93518        0.958759        -1.22135
LJ         -0.305525        -1.05446        -2.01332
LJ           1.09997         1.49356        0.550759
LJ         -0.850512        0.179581       -0.922436
LJ           2.36133         1.31273         1.48504
LJ           1.95629       -0.331399        -1.57488
LJ         -0.265904         1.41206        -2.46087
LJ         -0.477547        0.882219        -1.13699
LJ              -nan            -nan            -nan
LJ          -2.22712        0.585909        0.354424
LJ          -1.91658         -1.2413        -0.81205
LJ           -1.7733        0.324158        -1.21709
LJ           2.04856       -0.576478         1.53321
LJ            1.8627        -1.48044      0.00688155
LJ         -0.535466       -0.378571       -0.934502
LJ          -2.22493         2.32666       -0.573396
LJ          -2.41981        -1.62946         2.49875
LJ         -0.122473         1.36204         2.46172
LJ         -0.186595        0.969469        0.323297
LJ          -1.05552         2.03623       -0.738676
LJ           1.12771          1.1701        -1.54193
LJ          -1.67111         1.66612          1.0641
LJ         -0.368786       -0.838815        0.923383
LJ              -nan            -nan            -nan
LJ           2.41292        -1.67284      -0.0648138
LJ          -2.40946         2.20453        -1.63274
LJ          -2.38943         1.52133         2.02513
LJ          -1.29822      -0.0991518       -0.767735
LJ           1.51493        0.225025        0.539643
LJ         -0.621987        -1.76932       -0.708587
LJ           2.32575        -2.22017        -1.75006
LJ         -0.800079         1.87504        0.168771
LJ          -2.26072         0.28678        0.146275
LJ           1.83675        -1.75695       -0.735575
LJ          0.549163        -2.38879         1.52275
LJ          0.265373         1.29985        -1.37103
LJ          -1.47801       -0.485798      -0.0833184
LJ        -0.0377745         2.18207         1.04633
LJ          0.484424        -1.05866       -0.892624
LJ           2.27401        -1.58887         1.27953
LJ        -0.0281609        0.961888        -2.11087
LJ          -1.90151         1.02243         2.45401
LJ           2.04071        -2.32446        0.429435
LJ          0.535906       0.0412098         1.64654
LJ           2.49339          1.7808        -1.96931
LJ           2.22072        -1.50143        -2.28285
LJ              -nan            -nan            -nan
LJ          -1.31421        -2.27242         2.11575
LJ          0.618051        -2.42184        -1.28416
LJ          -1.61387        -2.10009         1.96629
LJ           1.95684         2.52774          2.1301
LJ           1.23347         1.54811         1.08243
LJ          -1.39181        0.848434       0.0489884
LJ          -1.18281         2.49745        0.749681
LJ           -2.4625       -0.522684         1.76858
LJ          -2.51377       -0.645828       -0.888367
LJ           -1.5592          -2.471         1.49212
LJ            1.0214        0.436162        -1.55099
LJ          0.575289        0.344097       -0.602065
LJ           1.65154          2.1472        -1.20665
LJ          -1.47126        -2.48147         1.66657
LJ          0.239263         -2.4869        -1.74107
LJ          -1.96802         2.36271        -1.89561
LJ              -nan            -nan            -nan
