108
#Comment!
LJ          -1.31191         1.36686        -1.79587
LJ          0.767802      -0.0714309       -0.224797
LJ           1.03237         1.44635        -1.34899
LJ          0.713437        -2.33117        -2.33952
LJ           1.04332          2.3038         1.57534
LJ           2.53789          1.6625        -2.29987
LJ          -2.12864        -2.09771        -1.66305
LJ          -1.54013        -1.51894         1.93269
LJ         -0.368859     -0.00872137        -2.20555
LJ          0.640059        0.390798        -1.96355
LJ              -nan            -nan            -nan
LJ           1.45135        -2.52217        -1.12523
LJ          -1.59061          2.3339         2.00464
LJ         -0.612069         1.89344         2.08164
LJ          0.301996         2.33713       -0.486216
LJ           2.21599         1.53487        -1.12064
LJ           -1.5908       -0.499014       -0.880982
LJ            1.6456       -0.770071         1.62632
LJ          -2.26157        -1.39172        -1.55873
LJ          0.597979         0.64057        -1.45137
LJ          -2.49311         0.42065     -0.00926755
LJ         -0.423193         2.01413       -0.462054
LJ         -0.331549       -0.125218         2.24851
LJ           1.09317        -1.66161       -0.571489
LJ         -0.235146        -1.08222         -1.8044
LJ          -1.28278        -2.35046        0.222016
LJ          0.896516         2.40896        -2.52616
LJ         -0.763966         0.20343        -1.12563
LJ           2.22278         1.60484         1.05072
LJ           2.31591        -2.39142        -1.31792
LJ          -2.37535          1.7872        0.963144
LJ           1.81493        0.800403       -0.056298
LJ              -nan            -nan            -nan
LJ          0.942817        0.102194        -1.76203
LJ          -1.93455       -0.115585        -2.26013
LJ          0.780213         -0.9799         2.17976
LJ           1.88115        -1.97472         -2.4571
LJ          -1.61356         1.27424        -1.58202
LJ           2.10929         1.27174        0.541808
LJ           0.30368       -0.726476         1.94454
LJ          0.464125       -0.254374        -2.21261
LJ          -1.83444         1.20759        0.296791
LJ         -0.969553        0.995142        -0.50283
LJ           1.89663         2.31497        -1.42615
LJ          0.323816        0.189599       -0.934855
LJ         -0.997848         2.00416         1.53635
LJ          0.717849        0.537933        -1.21439
LJ           2.21393        0.329494        -2.09983
LJ          0.779684       -0.768998         1.66775
LJ            2.3606        0.949015        -0.18482
LJ          0.785818         2.48567         2.31158
LJ           1.59792        -1.40055        -2.40325
LJ          0.857366        -1.39679        0.167074
LJ          -1.67366        0.283799         2.01939
LJ           1.10402        -1.28847       0.0138356
LJ          -1.64796        0.408929        -1.87634
LJ          -1.54475        -0.91621        -0.92746
LJ          -2.35825        0.434986         -1.3566
LJ          -0.36687        0.906207         2.41947
LJ         -0.202686         1.52878        0.693454
LJ            2.3734        -1.61237       -0.921314
LJ           2.49655        0.144849       -0.267483
LJ          0.156324        -0.36122        -1.66137
LJ          0.073907        -2.36277         2.51902
LJ        0.00200453       -0.511191        -2.16062
LJ        -0.0712445       -0.769567       0.0498863
LJ          -1.37192         2.47252         1.01866
LJ          -2.00276       -0.593142        -1.79999
LJ          0.398559         1.06684         1.11682
LJ           2.37681        -1.00676         1.67052
LJ         -0.399202        -1.74168         1.76588
LJ           1.32188         -1.9901         2.43932
LJ          0.396816         1.93559        0.236806
LJ          -1.15195        0.798207        -0.58013
LJ           1.54083       -0.399621        0.868424
LJ         -0.332737        0.933435         1.78249
LJ          -2.56341        -2.17524         0.84155
LJ             1.757        0.553675        0.760858
LJ        -0.0401617       -0.708051        -1.88412
LJ        -0.0700523         1.86477       -0.194689
LJ          -2.05873        -1.82508         1.10494
LJ          -2.32815         1.79883         2.28003
LJ           2.18922        -1.32175        -2.02084
LJ          -1.87128         2.24471         2.49446
LJ            1.9113        -1.68462        0.994308
LJ          -2.03907       -0.817539         0.24332
LJ          -1.98527         2.24081       -0.114456
LJ           1.11011        -2.28227         1.11094
LJ           2.31446         1.62746       -0.682754
LJ         -0.556182       -0.766203        0.546428
LJ          0.536065       -0.658217        0.854243
LJ         -0.940096       -0.570703        -1.87143
LJ          -2.22263         2.55453       -0.862582
LJ          -1.81027       -0.345621         1.58217
LJ          0.682919         1.23304         2.17506
LJ           2.53897        0.973529       -0.507301
LJ          -1.87615        0.421306        -2.47879
LJ          -1.08149      -0.0611305         0.92325
LJ         -0.826318         2.36897        -1.50926
LJ          -1.64206       -0.628144       -0.626519
LJ           1.41477        -1.79773         2.13625
LJ         -0.482818       0.0500912       -0.192479
LJ          0.146768       -0.288259        -1.73648
LJ          -2.12582         1.42165        -1.15691
LJ          -1.55738       -0.323141        -1.62863
LJ          0.597118        -1.95886        -1.77779
LJ          0.632459        -2.23901        0.663213
LJ          -1.00477        0.767285          1.7105
