108
#Comment!
LJ           1.54553        0.655019        -1.63987
LJ        0.00459854        0.770011         2.40985
LJ            1.4271        -1.17379        0.911151
LJ          -2.42142        0.806552        -1.62573
LJ           1.37455         1.75385       -0.120345
LJ          -1.46451        0.970167         1.09059
LJ           1.65689         1.27857         -2.5225
LJ          0.882559         2.48114         1.67876
LJ           2.17946       -0.716704        0.593204
LJ         0.0216604        0.336676         1.34787
LJ              -nan            -nan            -nan
LJ         -0.878559       -0.819232         2.26103
LJ          -2.13185       -0.424915        0.319824
LJ              -nan            -nan            -nan
LJ          -2.17019       -0.283084         2.31063
LJ              -nan            -nan            -nan
LJ              -nan            -nan            -nan
LJ              -nan            -nan            -nan
LJ         -0.916585         -2.3798         1.59226
LJ              -nan            -nan            -nan
LJ          0.358346        -2.19415       -0.504764
LJ            2.4617         1.70204        0.644372
LJ          -1.30189       -0.111527        0.252549
LJ              -nan            -nan            -nan
LJ          -1.18062         1.31636        -1.35883
LJ          0.801042        0.556982        -1.33983
LJ           -1.4852        -1.91691        0.984596
LJ           2.33307         1.97649      -0.0936925
LJ          -1.33259        -2.11723        -2.02168
LJ         -0.907976        -2.12198        0.271575
LJ              -nan            -nan            -nan
LJ         -0.695908        0.936424        -1.39777
LJ              -nan            -nan            -nan
LJ           1.07561        0.198947        0.144969
LJ              -nan            -nan            -nan
LJ           1.79631         2.16732          -1.325
LJ          -1.65863          -1.324        -2.20226
LJ         -0.691224         2.10273        0.690431
LJ           2.10462        -0.96501         1.54387
LJ         -0.921299         2.15737        -2.09546
LJ           -2.1754         1.31405        -1.45915
LJ         -0.989473       -0.755061        0.875607
LJ          -1.02586        -1.33384        -1.47279
LJ           0.46831         2.39234         2.37058
LJ           1.91545       -0.660341         1.36299
LJ          0.537316         1.81482        0.519645
LJ           2.21803        -1.86261         1.13775
LJ           -1.0378        -1.76585       -0.156938
LJ         -0.765859         0.87191         1.21756
LJ          -2.48414       -0.493239       -0.680065
LJ         -0.884472        0.205914        -1.83598
LJ         0.0987148      -0.0086087        -1.74606
LJ              -nan            -nan            -nan
LJ           0.46207        0.155679        -1.35163
LJ          0.349493         1.03094        -1.30608
LJ           1.41997         1.87357         1.93704
LJ          -1.12721         2.26994        0.311848
LJ         -0.409195         2.05423        -1.01065
LJ         -0.913267        -1.34026       -0.848251
LJ         -0.950634        -2.28371        -1.56117
LJ         -0.564104      -0.0349863      -0.0105833
LJ          -2.36567         2.49338        -2.13594
LJ           2.33376         1.06836       -0.988269
LJ              -nan            -nan            -nan
LJ              -nan            -nan            -nan
LJ           -2.0528        -2.47965        -2.09701
LJ           0.51814      -0.0890184         0.80692
LJ              -nan            -nan            -nan
LJ         -0.604318        -2.53068         1.28408
LJ            1.7902         -1.5188        -1.06827
LJ           2.47448        -2.52164        -1.82898
LJ          -1.31067        -2.42451       -0.686152
LJ          -2.47056        -1.49085       -0.958832
LJ          -2.01408        0.484951        -1.60442
LJ         -0.738922        -2.26196        -2.45637
LJ         -0.578033        0.275255        0.459494
LJ           1.15959       0.0489595         -0.9641
LJ           1.74145       -0.922338        0.253772
LJ           2.36304       -0.247723         2.41064
LJ         -0.913549        0.318668        0.878117
LJ           2.32525        0.469005        -1.76726
LJ          -1.56392        0.968508        -2.52717
LJ          -2.09255      -0.0685087        0.526079
LJ         -0.360618        -2.14035         2.09101
LJ           2.41079       -0.218562          1.5619
LJ           2.40214        0.152321         2.19386
LJ         -0.778432        -0.40234         1.22176
LJ           1.56501         1.91707        0.310675
LJ          -1.01479        -1.55755        -1.04374
LJ          -2.01439        0.705608         1.03845
LJ              -nan            -nan            -nan
LJ          -1.31122        -2.54481        -1.23755
LJ          -2.37803        -1.77521        -1.29139
LJ          0.203298        -1.29762        -1.54994
LJ          0.814626        0.461788         1.97785
LJ           1.56816        0.136248        -2.17864
LJ          -1.27225        -2.08453        0.237315
LJ           2.23174        -2.41808         1.38314
LJ              -nan            -nan            -nan
LJ         -0.364754        -1.53838        -2.23733
LJ          0.564905        0.603975       -0.337104
LJ           -1.2143        -2.48518       -0.960089
LJ           1.08844         1.55824        -2.42695
LJ           2.52055        -1.13628        -1.25913
LJ              -nan            -nan            -nan
LJ          -1.16764         -1.6867         1.25528
LJ         -0.343407        -1.41274         2.05747
LJ              -nan            -nan            -nan
