108
#Comment!
LJ          -1.42792       0.0321507         1.05468
LJ          0.295724     -0.00238517        0.487403
LJ          -1.89613         1.18678          2.3742
LJ           2.18046        -2.56098         1.89318
LJ         -0.827182         1.77469         1.38219
LJ         -0.158881        0.844205         1.42023
LJ           1.11215       -0.491408        -1.83468
LJ          -2.34071         0.11454        0.344015
LJ           2.40764       -0.611972         2.46525
LJ           -1.6043        -2.54812        -2.04541
LJ              -nan            -nan            -nan
LJ         -0.525983        0.616581         1.36641
LJ          0.384605         1.58139          1.5517
LJ         -0.854551        -1.81486       0.0406275
LJ           2.22029        -1.74619         1.88312
LJ          0.141509         1.53392        -1.82699
LJ           1.17862        -1.48005        -1.67319
LJ           -1.6797        -1.90572         1.55419
LJ          0.143224        -1.78033        0.547682
LJ         -0.457714         1.00237       -0.917286
LJ           1.43807        -1.16861        0.840125
LJ          0.648319          1.4337         1.76604
LJ           2.01958       -0.644138       -0.259549
LJ          0.731119        -2.05597         -1.0378
LJ          -2.12536         1.99144        -1.98663
LJ          -2.21105       -0.485321          2.2924
LJ          -1.96682         2.46631        0.454506
LJ         -0.523322       -0.644216        0.350709
LJ          0.158437         1.73801        -2.56376
LJ          -2.15462       -0.231778       -0.030922
LJ           2.42809         2.05564        0.482165
LJ           1.58352        -1.54269        -1.63799
LJ              -nan            -nan            -nan
LJ          0.764131         -2.4474         2.14072
LJ        -0.0970971        0.862289         2.47857
LJ           0.76333        0.182223       -0.373429
LJ          0.967104         2.29468       -0.388309
LJ            1.2692       -0.309878        0.927513
LJ         0.0699564       -0.363423        -2.38188
LJ          0.525667         1.92522        0.973162
LJ           2.35242        -1.81012          1.7891
LJ           1.22471       0.0421736         1.29756
LJ          -2.47934        0.184523         -2.0393
LJ          -1.22915         1.56757       -0.230731
LJ          -2.30862       -0.432189         2.33537
LJ          -1.29738        -1.76783        0.171878
LJ           2.37914       -0.381273       -0.558515
LJ         -0.751458       0.0332604        -2.48143
LJ          -1.39292       -0.106146         -1.1071
LJ        -0.0313172         2.05236        0.679717
LJ           1.29969         1.82139        0.145748
LJ           1.24342        -1.08839       -0.888205
LJ          -1.19256        0.991806        -2.20381
LJ          0.688526         2.39868       -0.206477
LJ          -1.75962         2.16817          1.4991
LJ          0.250063       -0.226859         1.25161
LJ         -0.561288        0.797726         2.53129
LJ          0.822884        0.403704        0.133922
LJ         -0.211298       -0.962765         2.00699
LJ           1.54613       -0.720913         2.41579
LJ           1.88132         -1.2725         2.25516
LJ             -2.09        0.935899        0.986591
LJ           1.85158        -2.43822        -1.06814
LJ          0.643671         2.05073       0.0737054
LJ         -0.190969         1.02574       -0.421234
LJ          -2.11189        -2.32721         0.79471
LJ          0.262603          2.1088          1.9971
LJ          -1.14994        -1.79249        -1.10467
LJ          0.561827        -2.44186        -1.26345
LJ          0.802359        -1.59125       -0.449418
LJ           2.47574         2.01424        0.941417
LJ           2.13954        0.304447        -2.37231
LJ          -2.25723        0.669897      -0.0743764
LJ           -1.8924        0.927307       -0.861377
LJ         -0.762164        -2.40508         1.53718
LJ          -1.03049        -1.96084         2.05689
LJ          -1.65068        -1.07197           1.812
LJ          0.929208          1.8495         -1.3396
LJ          0.904171        0.762321        -1.79023
LJ          -2.19852        0.858762        -2.17182
LJ           1.34197        -1.78584         1.66481
LJ         -0.772818       -0.812987        0.321399
LJ          -1.80696        -1.73558       -0.083127
LJ           1.77025        0.966435        0.962376
LJ           0.63819        -1.57006         1.66709
LJ          -1.57924       -0.250311        -1.55402
LJ          -1.55272         1.47226       -0.139766
LJ            1.3063        0.464523        0.573318
LJ          -1.25275         2.46353        -1.58501
LJ          0.753081       -0.257367        -1.96396
LJ           1.85798       -0.516055        -2.18679
LJ        -0.0919283         1.43961         2.12299
LJ           1.61591       -0.329134       -0.917574
LJ         -0.504044        -1.46514        -2.04109
LJ           2.43669         2.23543         1.44204
LJ           0.37003       0.0346853        0.193614
LJ          -2.09302        -2.18916        0.450474
LJ          -0.78416        -1.97135        -1.39132
LJ         -0.811365       -0.656418         0.42731
LJ         -0.735355        -0.27126         1.56942
LJ           2.35773         1.57612        -1.86643
LJ           2.22801       -0.609162          -2.246
LJ          -1.33988         1.29958         1.14476
LJ         -0.308781        -2.34853       -0.632652
LJ          -2.29907        -1.55447         1.78691
LJ           2.07475        -2.50751         2.26932
LJ          0.548918        0.721552        0.770789
LJ           2.13569       -0.680567         1.67751
