108
#Comment!
LJ          -1.54724        -1.36847        -1.67964
LJ          0.272054         2.11214       -0.193626
LJ           1.81989         1.10197        -1.36155
LJ           1.48145       -0.911975        0.412366
LJ          -1.00274        -1.04551        0.635251
LJ          -1.75288      0.00615076       -0.411317
LJ           1.49279         1.98636       -0.431687
LJ           1.82647         2.24497        0.109198
LJ           2.54246          1.0728         2.25475
LJ           2.51157        -1.12522        0.277176
LJ              -nan            -nan            -nan
LJ          0.906021         1.90382        -2.17824
LJ          -1.17248         2.48512        0.228556
LJ         -0.490446          1.0964         0.13689
LJ          -1.43159         -1.8903        -1.42704
LJ         -0.778724        -1.10295          1.4131
LJ          -1.23458         1.43505        -2.40129
LJ           2.14212       -0.299987        0.970247
LJ          -0.21055       -0.575605       -0.602318
LJ         -0.808221         1.96384         0.75233
LJ           1.40159        0.934269       -0.390517
LJ          -2.38634       -0.897608         1.50576
LJ          -2.49361         1.65307        0.529701
LJ           1.64785       0.0608736         1.51329
LJ          0.767542        -1.87461         2.02123
LJ          0.904274         2.14504         1.22485
LJ           0.18079        -1.68683         1.73908
LJ            2.4309        -1.99089        -2.38065
LJ           -1.7372        -2.56371        0.482347
LJ          -1.96015         0.78303        0.746467
LJ           1.13695        0.551279         1.62972
LJ           1.13505        -1.88539        0.631249
LJ              -nan            -nan            -nan
LJ          0.288308         1.94223         1.62941
LJ              -nan            -nan            -nan
LJ          -1.69126        0.538646      -0.0459711
LJ          -2.33675        -1.81454         1.33758
LJ         -0.672416        0.948269       0.0900951
LJ         -0.779102         2.35041        0.180233
LJ          -1.64829        -2.31214        -1.07371
LJ          0.536741         1.42836        -2.29977
LJ          -1.61759        -1.71409         2.34714
LJ          -1.77862        0.360545         2.55407
LJ          -2.38005        0.814283        0.516341
LJ          -1.96069        0.592927        -1.06637
LJ           2.18875       -0.277429        -2.05716
LJ         -0.831442       -0.129214          -1.779
LJ           1.71727        -1.70573        -1.44332
LJ          -2.52998         1.69874         2.29764
LJ         -0.285147        0.632114        0.694146
LJ          0.871957        -1.75233       -0.170185
LJ           1.79107          1.3515         2.42677
LJ         0.0136311        0.515103        -1.12064
LJ          -2.09635         2.02575        -2.11089
LJ           1.70399        -1.49666         2.16269
LJ         -0.403676        0.782425         2.49073
LJ          0.117604         1.62214         2.43087
LJ           2.02634        0.671148         2.35515
LJ          0.870036        -2.08517         1.18931
LJ         -0.170297        -1.46393       0.0817673
LJ          0.746233         1.68022        0.984131
LJ          0.597752         1.16884        0.541865
LJ         -0.742656        0.373248        0.205886
LJ         -0.177477         1.75131        -2.49923
LJ          0.565417         2.05703         1.48957
LJ           2.13823         1.60041        -1.79568
LJ          0.389136       0.0470059        0.926706
LJ              -nan            -nan            -nan
LJ           1.89236        -1.83428          1.6442
LJ         -0.369363        -1.75238        -1.99685
LJ          0.678439        0.645499           1.627
LJ          0.996294        0.453361        -1.84807
LJ        -0.0678607       -0.958379       -0.718997
LJ          0.684106         -1.4752        -1.10078
LJ         -0.161159       0.0679675        -2.54962
LJ          -1.30803        0.577017       -0.723351
LJ           1.04647        -1.17269         1.78857
LJ          -2.34222        -1.53365        0.490242
LJ          0.841005         1.23235        -2.51427
LJ         0.0626837         -1.6298        -1.03531
LJ          0.440657       0.0271633         1.00855
LJ         -0.143759        -1.96178         -1.8152
LJ           1.67724        -1.45767        -1.26611
LJ          0.792705         1.99707        0.715619
LJ           2.42341         1.51796        -1.94692
LJ           1.00415       -0.316174       -0.441595
LJ          -1.86185        -1.95929        -1.74962
LJ          -1.74798        0.332847         2.27872
LJ           1.51289         1.81621         1.90154
LJ           2.46222        -2.07667        -1.66021
LJ          0.215587          1.7283        -1.47261
LJ           2.18092         1.92001       -0.417473
LJ         -0.406709        0.281359      -0.0863365
LJ          -1.51132         1.80019        0.336879
LJ          -1.18827        0.615158        0.664912
LJ          -1.98937          1.3584      -0.0351855
LJ          -2.27191         1.55021       -0.654412
LJ           1.39795        0.363743         1.15253
LJ          -2.28539       -0.105071        -1.57127
LJ          0.346762       -0.897532        -1.30547
LJ         -0.370746       -0.333043         0.88696
LJ         -0.728707        0.405452         1.52522
LJ           1.36249        0.138215         1.91032
LJ          -2.56139       -0.970571         1.59181
LJ          0.630788        -1.78894        0.285371
LJ           2.12862         2.34389       -0.456246
LJ         -0.782796        -0.33449        0.106873
LJ         -0.394226        0.903277       -0.332098
