108
#Comment!
LJ          0.480563       -0.874194        -2.23827
LJ          -2.38426         1.31538        -1.77276
LJ          -2.45671        -2.09403         -2.2844
LJ          -1.22235        0.960896         1.24523
LJ         -0.875551         2.52629         2.51785
LJ           1.69282          2.2021         1.67738
LJ           1.32328         2.32087        0.209384
LJ           1.87357         2.23519        -2.05846
LJ          -1.57232          2.4767        -1.37497
LJ          -2.22176       -0.608563         0.89404
LJ              -nan            -nan            -nan
LJ         -0.816823       -0.769964        0.572421
LJ            1.4691        -2.09157         -2.5121
LJ              -nan            -nan            -nan
LJ           1.36023        -1.82529        -2.11533
LJ              -nan            -nan            -nan
LJ              -nan            -nan            -nan
LJ              -nan            -nan            -nan
LJ           2.33861       0.0526245        -1.30137
LJ              -nan            -nan            -nan
LJ           2.53107        -2.23646       0.0996422
LJ           2.11085       -0.131693         1.83079
LJ        -0.0892768        -1.44853       -0.849684
LJ          0.946269        0.348854         2.23026
LJ          -2.10014         -1.7586         2.05018
LJ           1.31731        -1.90677         1.25638
LJ          -1.22857         1.05205        -1.50567
LJ           1.50954        0.941554        0.473491
LJ           0.36016       -0.775677        -2.02578
LJ         -0.978528         1.26963        -1.63335
LJ              -nan            -nan            -nan
LJ         -0.545359         1.56828        -1.09011
LJ              -nan            -nan            -nan
LJ           1.33967        -1.69502       -0.352982
LJ              -nan            -nan            -nan
LJ           1.19871        0.771617         1.73476
LJ          -1.73138         1.78435        -1.54737
LJ           1.83261        -1.53096         -1.5112
LJ          0.258304         1.83808        0.694066
LJ          0.400827        -1.00565       -0.467603
LJ           1.23801        -2.39746        0.708266
LJ           1.26367       -0.980437          1.1194
LJ           2.04685         2.00056         1.12636
LJ          -1.50756       -0.184757        0.414874
LJ          -0.99611        0.266842       0.0443573
LJ         -0.555891        -1.90291       -0.516537
LJ           1.97955        -0.83358       -0.980413
LJ         -0.932028        0.239157         1.98298
LJ          -1.05093       -0.695568         1.01137
LJ           1.69066        -2.11466       -0.528539
LJ          0.158123         1.00711        0.533772
LJ          -1.63697        0.380037        -1.10247
LJ              -nan            -nan            -nan
LJ         -0.313915       -0.739863         1.46718
LJ          -1.39009         2.47468        -1.68343
LJ           1.95449         1.96043       -0.630351
LJ          -1.51466         1.31484        -2.18463
LJ          -2.12734        -1.16661         -2.2384
LJ          -1.31888        -1.15178        -2.38331
LJ         -0.797172        0.626618        -2.33039
LJ          -1.17789        -2.26326        -2.01767
LJ           2.41857         -2.1588        0.718898
LJ         0.0513011       -0.506614        -1.18468
LJ         -0.526605        -1.44386         1.48835
LJ              -nan            -nan            -nan
LJ         -0.713035        -1.01513        0.250698
LJ          -2.51433         1.95012       -0.552434
LJ              -nan            -nan            -nan
LJ        -0.0088156         2.32101        0.186078
LJ          -1.00848       -0.113722        -1.32413
LJ          -0.62798          1.0544       -0.435024
LJ         -0.588058        0.772538          2.4136
LJ          -1.70408        -1.52943        -1.95606
LJ           2.02223       -0.719214       -0.518219
LJ           2.25875        -2.21467        0.431274
LJ           1.06667         1.68236        0.916015
LJ          0.400896       -0.539279         1.85294
LJ          0.798772        0.257448         1.63697
LJ           1.71516        0.873811         1.75148
LJ          -1.80659         1.62058       -0.399862
LJ         -0.914169        -1.93072        -2.28709
LJ           -1.1257       -0.530116       -0.576387
LJ           1.06791        -1.40309         -2.5286
LJ          -1.51826       -0.540651         1.62511
LJ           2.41909        -2.45472         0.48851
LJ          0.579262        -1.13746        0.940039
LJ          -1.32048         1.00912         2.24096
LJ         -0.692651       -0.742933        -1.80864
LJ           1.79022        0.220353         1.20811
LJ           -2.3334         0.85638        -2.44829
LJ              -nan            -nan            -nan
LJ           1.21098          2.0341       -0.437862
LJ            1.9883        0.950888       -0.834312
LJ         0.0754749         2.43242        0.697611
LJ          -2.52687        -2.52947        -2.16875
LJ         -0.321093        -1.75628        -1.34184
LJ          0.209894        -1.12035         2.19852
LJ           1.56867        -1.23525         1.09623
LJ              -nan            -nan            -nan
LJ          0.585037        0.941886         1.90963
LJ          -1.37899         1.84114         2.50693
LJ          0.541588        0.164685      -0.0772239
LJ           0.56289         1.91119        0.406893
LJ           1.79812        -1.04789        0.501979
LJ              -nan            -nan            -nan
LJ           1.31486        -1.14636        -2.31444
LJ          -1.82834         1.22775         1.19173
LJ              -nan            -nan            -nan
