108
#Comment!
LJ         -0.841044        -1.76203        0.670174
LJ         -0.604467         1.69783        -2.42333
LJ          -2.34995        -0.13267        -2.40504
LJ           -1.5075         1.02793        -1.50965
LJ            1.3567      0.00342535         -1.9133
LJ          -1.29053         2.29373       -0.926994
LJ           2.27087       -0.777466         2.52499
LJ          -2.44486        -1.36346        0.623624
LJ         -0.631983        -1.14709       -0.203207
LJ          0.822897        -1.50887       -0.403643
LJ              -nan            -nan            -nan
LJ          -1.24819         1.73542         1.60443
LJ          -2.32399         1.02834         2.07031
LJ           2.28878       -0.203717         -2.4034
LJ           1.51967        -0.14892       -0.415254
LJ           1.37714        -2.41511        -2.23576
LJ          0.892905          1.0844         1.45992
LJ          0.405873         1.33236        -2.16437
LJ          -2.20663        -1.09209        -1.86728
LJ             2.087         0.78373        -1.90884
LJ           1.95508        -2.13235        -1.50439
LJ          0.212865         1.02584         1.60054
LJ           1.44618         1.71279         2.01935
LJ          0.381967        -1.96367        -0.16701
LJ          -1.78304        0.509521        0.470563
LJ          0.389136        0.443048         1.14443
LJ           2.09438        0.699449        -1.34097
LJ           1.02489        -1.37375        -2.55459
LJ          0.519203        -1.89293         2.02703
LJ        -0.0801344         1.29374         1.51641
LJ            2.0744         2.07544       -0.154316
LJ          -1.23741         1.62662       -0.263223
LJ              -nan            -nan            -nan
LJ            2.5206        -0.74057        0.887196
LJ          -1.18559         1.45274       -0.879789
LJ         -0.956723         2.43595       -0.909921
LJ          -1.75142         2.26774        0.103841
LJ          0.736624        0.316858         1.72924
LJ          -1.01352        -1.03701       -0.844186
LJ          0.113479        -2.28353        -1.30484
LJ           1.56354         1.86479        -1.07946
LJ           1.24158        0.446971         1.71999
LJ           0.44948       -0.339157         1.32762
LJ          0.627165       -0.449952         1.52675
LJ         -0.383392       0.0726066       0.0115815
LJ          0.969291       -0.342995         1.93711
LJ            2.2924         1.72033          -1.709
LJ          0.595683        0.448249         0.25774
LJ           2.32021         -1.2827         1.37176
LJ         -0.229599       -0.621844         2.33806
LJ         -0.344668         1.32163       -0.938454
LJ          -2.06928        0.871741        -2.50296
LJ         -0.687637       0.0987085       -0.272478
LJ          0.629542        0.312811         1.19032
LJ          0.465111        -2.56087      0.00795802
LJ         -0.853184         1.96243        -2.04499
LJ          -2.33236        -2.08778        -1.73729
LJ           1.44073        -2.00934       -0.368557
LJ          -1.80809         0.41871        -1.29365
LJ           1.40514       -0.824906       -0.466266
LJ           1.68476       -0.256963        -1.48994
LJ         -0.348627        0.045578         1.67794
LJ         -0.128131       -0.261962         1.30445
LJ         -0.802561          1.5785       -0.366143
LJ          -1.13405       -0.771804        -1.85139
LJ           2.48102         2.54622         1.44945
LJ        -0.0110614        0.873622      -0.0919031
LJ          -2.01964       0.0310348         1.96614
LJ          -2.41847        -2.11628       -0.498667
LJ         -0.969274       -0.829931        0.274054
LJ          0.713938        -2.42987         1.27084
LJ          0.683573        -1.08927        0.644015
LJ          -1.23068         1.37133       -0.473276
LJ         -0.765572         1.72603        0.570933
LJ           2.24359        -1.90257         2.25444
LJ           2.00093         1.21859        0.635005
LJ         -0.982097        -0.36608        -1.52647
LJ         -0.296479         -2.2611        -2.34344
LJ         -0.195255         2.07019        0.295488
LJ           2.25093        0.603756       -0.992969
LJ           1.67535        0.838385       -0.889346
LJ           -0.7128       -0.771536         2.15898
LJ          0.423495       -0.343194        -1.47049
LJ          0.215478        0.815989         2.52228
LJ          -2.43298       -0.566468        0.401728
LJ          0.120039          2.0759       -0.134847
LJ           2.46964        -2.29324       -0.242848
LJ           2.40834        -0.81763        -2.05996
LJ           2.40709        -1.53565        -2.39224
LJ           2.42678       -0.384977        -1.41819
LJ           1.18811        -1.73271         1.52081
LJ           1.37646         2.04382          1.6905
LJ         -0.294562        -1.35598        -1.01101
LJ         -0.174056         0.41785        -1.90273
LJ           1.23835        -2.33046         1.38276
LJ           1.27354       -0.922196         2.07957
LJ          -1.92122        -2.29257        0.737915
LJ          0.355634        -2.41103         2.32491
LJ           1.29029       -0.995457         1.22514
LJ          -1.34358        -2.53086         2.29068
LJ           1.93538         1.72637        0.658199
LJ          -1.88517        0.589369        -1.64242
LJ           1.43695       -0.894117       0.0704646
LJ          -2.05112        -0.80868          1.1386
LJ          -1.72145         1.78083        -1.91597
LJ            1.5342        -2.06974        -0.87497
LJ           -2.4926          1.2116        0.413384
LJ         0.0783265         1.11125         -0.6013
