108
#Comment!
LJ          -2.18519        0.255663         1.31902
LJ          -2.39428        -0.42739         1.47833
LJ         0.0737295          0.9053       -0.909631
LJ         -0.150984         1.26369        -1.25627
LJ         -0.683388        0.169971        0.555949
LJ           1.06733        -1.38951      -0.0485063
LJ          -2.37547         1.47538        -2.11653
LJ           2.34649         1.14137        -1.53052
LJ            1.9735         2.32419        -1.67727
LJ          0.101585       -0.692398          1.4866
LJ              -nan            -nan            -nan
LJ           2.09787         1.61442       -0.921133
LJ           1.22392        0.729653        -2.53976
LJ           2.45592         1.61791        -2.36304
LJ          -1.55459       -0.350455        -1.39796
LJ         -0.797396       -0.881242          -2.187
LJ           0.45496         1.75637       -0.579766
LJ         -0.836636        -1.06543          2.0227
LJ         -0.856459         2.36164        -0.18869
LJ          -1.02604        -1.32981       -0.243201
LJ         -0.112614         2.27414     -0.00794595
LJ          -0.75932      -0.0811652        -1.32272
LJ         -0.553599       -0.663593        -1.68207
LJ         -0.704081         1.32603       -0.624045
LJ         -0.231884         1.31548        -1.81213
LJ          -1.87889         1.72399         1.05471
LJ           1.33754         1.30361        0.459693
LJ          0.640033        0.320147        -2.02257
LJ           0.98254         1.54778         1.24159
LJ          0.838428         1.02657          2.3409
LJ          0.754511        -0.67276       -0.925908
LJ           2.07926        -2.29718        -1.75653
LJ              -nan            -nan            -nan
LJ           1.62292        -1.45986         2.12764
LJ          -1.57744        -1.29952       -0.300141
LJ          0.228973         1.59435        -0.81793
LJ          -1.39621      -0.0664073         2.19795
LJ         -0.444156       -0.895132         2.48083
LJ          -1.42787       -0.719656        -2.45615
LJ          -1.52592       -0.123322        -1.91416
LJ          -1.43518       -0.123347         1.30764
LJ           2.35067      0.00618103       -0.896992
LJ          0.917974         2.44398       -0.565445
LJ           1.76522         -1.3897         2.44689
LJ         0.0388661        0.715851         2.38651
LJ           2.53915       -0.798229         -1.5289
LJ           1.37106        0.553799         2.12926
LJ         -0.407234         1.87652        0.379958
LJ          -1.55287        -1.42564       0.0625278
LJ          0.805765         1.16344        -1.38874
LJ          -1.61765        0.517951          1.9481
LJ           1.43635         1.76601        -1.54988
LJ          -1.53006         1.61959          2.3178
LJ         -0.580758        -1.39205        -2.28211
LJ          0.386698        0.113295       -0.649494
LJ          -1.05036         1.53914         0.94398
LJ          0.100538        -1.37034         1.51226
LJ         -0.326261       -0.563898          1.6779
LJ          0.460351       -0.688156         1.16838
LJ           2.16382        -2.08141       -0.329445
LJ          0.526367         2.46269         2.55802
LJ         -0.442468       -0.702604         1.82058
LJ           -1.7772        0.879917        -1.04259
LJ           2.02652       -0.586657        -2.39985
LJ          -1.32187       -0.613841         2.48135
LJ         -0.429932        -2.53456        -1.65222
LJ          -2.18572         2.24523       0.0783856
LJ          -1.24008        -1.29166       -0.240464
LJ          -2.54962         2.16668        -1.87546
LJ          -2.19671         1.53866         -1.2424
LJ         -0.516222          -2.441         2.44252
LJ           -1.7415        0.511743        -1.05087
LJ            1.6632        0.547066        0.971468
LJ          -1.87251         -2.4482        0.344482
LJ          -2.35317        -1.06216        -1.06267
LJ         -0.207544         2.13435           -2.26
LJ           1.17924        -1.73248        0.863166
LJ           1.70793        -2.13107        0.240702
LJ          -1.87326        0.803866        -1.30833
LJ         -0.851781        -2.26381       -0.835961
LJ          -1.67354         1.09293        -2.15846
LJ           1.49975         -1.3537         1.14648
LJ           1.99862         1.32662         1.67164
LJ           1.66619      -0.0188924       -0.971174
LJ         -0.629271       -0.687022        -1.81119
LJ        -0.0906561         1.69292        -2.20218
LJ          -1.50049        0.708523        0.687931
LJ           1.30289       -0.114268         1.61286
LJ          0.915594      -0.0429314       -0.336615
LJ           1.98214        -2.48705         1.48759
LJ           2.45247         2.19483       -0.790229
LJ           2.45523       -0.273771        -1.18289
LJ          -2.18685       -0.304467         1.73137
LJ          -0.93348          1.5568         1.76511
LJ           2.14762         2.38118       -0.108588
LJ          -2.48379         0.27084         2.18109
LJ          0.168889        -1.85915        0.268784
LJ          -1.53405        -2.18391       -0.441453
LJ         -0.931247         2.51253         1.94105
LJ           1.03408        0.758343          2.5037
LJ          -2.44922         1.47554        -2.21218
LJ           -0.4483        0.853523         2.32786
LJ          0.772829       -0.718322        -2.10557
LJ           -1.3819       -0.553149       0.0504858
LJ          -1.19007        -1.77389         1.48796
LJ           1.73312       -0.462144         1.91255
LJ           1.91109         1.74684        -1.89965
LJ         -0.429479        -1.41197         -1.7369
