108
#Comment!
LJ           2.14811         1.03292       -0.934714
LJ          0.614872        -2.24178         1.28738
LJ          0.120753         1.53743       -0.126676
LJ          0.673191        0.858238        -1.12492
LJ          -2.29493          1.8034       -0.910914
LJ          0.613585         2.01914        -2.40434
LJ         -0.204907        -1.66222        0.632157
LJ           0.94999        0.162454         2.07707
LJ         -0.312689       -0.418027        0.231073
LJ          0.995579         2.08506       -0.355589
LJ              -nan            -nan            -nan
LJ           2.14406        0.665428         -1.4619
LJ         -0.430599       -0.263471        0.337141
LJ              -nan            -nan            -nan
LJ           1.04576         -2.3446       -0.542775
LJ              -nan            -nan            -nan
LJ              -nan            -nan            -nan
LJ              -nan            -nan            -nan
LJ          0.632839        0.368281         1.59727
LJ              -nan            -nan            -nan
LJ           1.23022         1.00421       -0.548105
LJ          0.349788         1.97777        0.416324
LJ           1.52231         -2.4537       0.0484476
LJ              -nan            -nan            -nan
LJ          -2.34997         -2.1234        -1.04078
LJ          -2.04799        -1.10793         1.57103
LJ          0.845119        0.770001        -1.93869
LJ          0.623739        -2.17226        -1.19853
LJ           1.11477       -0.640628         2.04527
LJ          -2.19019        0.831176         2.36376
LJ              -nan            -nan            -nan
LJ           2.09079        0.966918        0.841877
LJ              -nan            -nan            -nan
LJ           2.31499         -1.8267         2.38532
LJ              -nan            -nan            -nan
LJ         -0.122271        -1.34409        -2.05066
LJ          0.695693         1.01381        -1.63842
LJ          0.979115         0.94437        -2.24844
LJ           1.30423         1.49967       -0.995593
LJ           1.88239        -0.87213       -0.272313
LJ           1.81359        0.551233         1.88117
LJ          -1.12451        0.117381        0.328481
LJ         -0.225011          2.4819         1.17819
LJ           1.99393        -2.48378         1.90397
LJ         -0.547238         1.26904         1.39747
LJ          -1.88575       -0.685452         1.97227
LJ           1.64625         2.04109       -0.208472
LJ          -2.20534         1.84122         2.53867
LJ          -2.43114         2.45676         -2.1027
LJ           2.04071        0.813865        -2.19742
LJ          0.427406        0.148932         -0.5835
LJ            1.8878        -1.49568        0.787182
LJ              -nan            -nan            -nan
LJ           1.35146        -1.54599        0.844871
LJ         -0.863112       -0.279926         1.44091
LJ          0.377989         1.42724          1.8262
LJ           1.21593       -0.164086       -0.609416
LJ          -0.33625        -2.07319         1.32076
LJ           -1.7538        -1.77341       -0.824995
LJ          -1.47056        0.421996        -2.17206
LJ           1.00065        -2.08387         1.91451
LJ           1.88611        0.894975        0.772324
LJ           2.39254        -1.88576        -2.36206
LJ              -nan            -nan            -nan
LJ              -nan            -nan            -nan
LJ           1.62508        -1.81632         1.66608
LJ         -0.162833         1.45717         1.69929
LJ              -nan            -nan            -nan
LJ          0.872776        -2.15112       -0.403982
LJ        -0.0569845        -2.20307         2.48808
LJ           1.13078      -0.0512522         1.72537
LJ           2.06316        0.377418       -0.289335
LJ           -1.1004        -2.05461       -0.244606
LJ          -0.55777         2.37813         2.45111
LJ          0.827823        0.848097       -0.940354
LJ         -0.396891        -1.05226         1.61499
LJ           1.34836       -0.966878        0.259926
LJ         -0.301275       -0.203276        -1.30667
LJ          0.248817       -0.990656       -0.439201
LJ           1.51455        0.688797        -2.14851
LJ          -2.05762       -0.928231        0.362427
LJ          -1.10321        -2.20658        0.073297
LJ         -0.488469       0.0364828        -1.39326
LJ           2.27327      -0.0900877        -1.59919
LJ           1.52254        -1.85824      -0.0192956
LJ          -2.07747         1.49806         1.86429
LJ          -1.12005       -0.390457       -0.285097
LJ          -2.21072        0.379876        -1.14449
LJ          -1.59337        0.559254       -0.457693
LJ         0.0560339         1.65099         2.33366
LJ              -nan            -nan            -nan
LJ         -0.164894       -0.555625       -0.440503
LJ          -1.28409         1.52815         2.36069
LJ          -1.68362         2.02539       -0.152168
LJ         -0.284922         1.47093         2.06974
LJ           1.08704       -0.787786         2.16841
LJ         0.0665898        -2.50342         1.29942
LJ          -1.51281       -0.528484        -1.98455
LJ              -nan            -nan            -nan
LJ          -2.51031         -0.7951         1.30736
LJ          0.230983         2.06678          2.4874
LJ         -0.106704       -0.435605         2.42061
LJ          0.650051        -1.42858        0.392657
LJ          0.823513         2.49218        -1.84042
LJ              -nan            -nan            -nan
LJ            -1.746         1.96137        -1.38908
LJ          -1.39558        -1.64014        -1.01723
LJ              -nan            -nan            -nan
