108
#Comment!
LJ           1.92062        -1.60807      -0.0259252
LJ           1.86889         1.18649       0.0832054
LJ        -0.0805684        -2.50898       -0.069398
LJ          -1.98779         1.85265         1.86003
LJ           1.54186         2.40632       -0.241091
LJ         -0.770721        0.829791         2.11972
LJ          -2.39405         2.01702        -1.73305
LJ          0.668497        -1.34658        -1.78016
LJ          -1.59205         1.53709         -2.1848
LJ           2.37317        -1.76808          2.1002
LJ              -nan            -nan            -nan
LJ         0.0413075        0.316508        -2.15263
LJ           1.00042         1.59107        -1.43626
LJ         -0.400992        -2.00275        -2.38662
LJ          0.938497        0.691101       -0.293471
LJ        -0.0703289        -1.18295         1.62871
LJ              -nan            -nan            -nan
LJ              -nan            -nan            -nan
LJ        -0.0238059          -1.158        0.295284
LJ              -nan            -nan            -nan
LJ         -0.771127        -1.75194        -1.75153
LJ          -1.06464        0.911914         1.86044
LJ             -2.12         1.61172        -1.52376
LJ          -2.29483       -0.342487        0.418938
LJ          -2.27503         2.55633        -2.07755
LJ         -0.756515         1.69973        0.138897
LJ           1.46042        -1.01223         1.47263
LJ          0.306544        -2.06502        0.374464
LJ         -0.973412        -0.23739         1.62418
LJ         -0.207388        -2.38701       0.0515714
LJ          -1.68648         1.35741         2.43313
LJ           2.04715        0.810823         1.22419
LJ              -nan            -nan            -nan
LJ          -1.63775         1.84643        -1.37489
LJ              -nan            -nan            -nan
LJ           1.63437        0.199864         -1.6661
LJ          -0.33221        -1.62388        -0.19391
LJ         -0.931662         -1.6447        -0.61397
LJ           1.84096        0.816668          1.9501
LJ          0.243657        -1.93603       -0.672245
LJ         -0.580516        -1.53603         -2.1348
LJ          -1.18739         2.37659        0.650472
LJ           2.22287        -1.15126          1.6955
LJ          -2.53038         1.53002       -0.793704
LJ           1.73819        -1.71402        -1.08247
LJ         -0.781989        -1.89719      -0.0664236
LJ          0.773703         1.70658        -1.22385
LJ           1.75281        0.519646         0.17955
LJ          0.092688        -1.02996        0.162247
LJ          -2.48041         2.12815         2.47427
LJ          -1.23471        0.930119        -1.37702
LJ           1.10283       -0.840382       -0.124639
LJ              -nan            -nan            -nan
LJ          -2.23331        -2.41462         0.42554
LJ           2.02209        0.237597        -1.00982
LJ         -0.945646        0.639798         2.19111
LJ           1.12875      -0.0535601         1.91445
LJ          -1.38173         2.08741         2.32038
LJ          0.800889         1.71268        0.064874
LJ         -0.399378        0.450868        0.815209
LJ          -2.41165         1.13966         1.15896
LJ           2.50401        0.870306         1.48179
LJ          -1.82299        0.491784        0.706736
LJ          -1.07143        -2.22777        -1.23983
LJ           1.71266        -2.44505        -1.59779
LJ          -1.76682         2.40236        -1.40851
LJ           1.45123       -0.149363        0.585313
LJ              -nan            -nan            -nan
LJ          -1.24392        0.435905        0.314581
LJ         -0.290014         1.55638         2.26947
LJ          -1.73133         2.56469          1.8837
LJ          -2.12415       -0.731488        -1.31523
LJ           1.69231        0.152621         1.90852
LJ           1.52261         -1.2102        0.964826
LJ           1.89199        0.395925        -1.35273
LJ           1.68326        -2.04482        -1.75498
LJ          0.561508         1.46125        0.791988
LJ           -0.9412        -2.35997       -0.234253
LJ         -0.208455        -1.94103         1.45688
LJ         0.0178198         2.37742         2.43464
LJ           2.28133         1.28622       -0.844926
LJ           -2.0478       -0.932929         1.60544
LJ           1.40441         0.55308        -2.29791
LJ          -2.43817       -0.124328         1.23183
LJ           1.45134        0.525801         1.81668
LJ          0.957167       -0.171031         2.09475
LJ           2.22605        -1.01345        0.667606
LJ           1.85229        -1.41058         -1.7126
LJ          -1.54954         1.49868          1.4296
LJ          0.187148       -0.925348        -1.64327
LJ              -nan            -nan            -nan
LJ          0.110915        -1.75254       -0.716283
LJ           2.36112        -1.42167         2.06179
LJ          0.235067         1.68073         2.34895
LJ           1.67229        0.170408          1.2054
LJ           1.04693        -1.09299        -1.19036
LJ          -1.50093        0.833981         1.58113
LJ           1.45875       -0.729834        -2.09751
LJ         -0.347094       -0.575627         1.90763
LJ          0.824965        -2.48922     -0.00413712
LJ            2.1938         2.20028         1.76836
LJ         -0.398826        0.214958        -1.69425
LJ          -2.47813        -1.74864         1.92092
LJ          -1.38743        0.837431         1.72001
LJ         -0.669432        0.287001         1.46382
LJ           1.56724         1.31793        -2.53522
LJ           1.60651     -0.00633508       -0.805718
LJ              -nan            -nan            -nan
