108
#Comment!
LJ          -2.29502        0.267332        0.709394
LJ           2.39704        0.412691        -1.48361
LJ          0.485467        0.514273       -0.542967
LJ         -0.530704       -0.885308        -1.90015
LJ          -1.62486        0.813344         2.34763
LJ         -0.864879         1.80138        -2.35151
LJ         -0.453767        -1.63868         1.95866
LJ       -0.00682007          1.0902        -1.09015
LJ          0.589022         2.46813         1.06747
LJ          0.311271        -1.25822        -2.33836
LJ              -nan            -nan            -nan
LJ           1.37266       0.0694415       -0.579782
LJ           2.46282       -0.268981         -2.3391
LJ              -nan            -nan            -nan
LJ           2.04889         2.55606         1.78984
LJ              -nan            -nan            -nan
LJ              -nan            -nan            -nan
LJ              -nan            -nan            -nan
LJ          0.716589         0.48515         1.41421
LJ              -nan            -nan            -nan
LJ          -1.34665       0.0696513        0.107026
LJ           2.20058       -0.244519        0.839916
LJ           -1.9857       -0.029596       -0.478689
LJ              -nan            -nan            -nan
LJ         -0.840164         1.42988       -0.189529
LJ          -1.62092         1.95611        -2.13094
LJ           1.64698         2.31016         2.37551
LJ          0.132223         2.18288      -0.0237158
LJ          -1.70885         2.30423         2.00167
LJ         -0.811725       -0.453053         1.18022
LJ              -nan            -nan            -nan
LJ          -1.46261       -0.434199       0.0375012
LJ              -nan            -nan            -nan
LJ         -0.533296       -0.809868        -1.28579
LJ              -nan            -nan            -nan
LJ           2.21504         1.70379         1.71305
LJ          -0.44833        -1.09089        -0.52112
LJ           1.89169         1.00191        -2.44538
LJ          -1.21082        0.212789        0.344117
LJ            1.2283       0.0930562        -2.16327
LJ            1.8915       -0.587219         2.08049
LJ          0.690859         2.10949       -0.520805
LJ          0.490943        -1.62069        -1.94304
LJ            2.3643        -0.83684          1.6033
LJ           1.36458        0.297479        0.917876
LJ           1.72043       -0.391565       -0.567626
LJ           0.51701         2.03989          -2.526
LJ          -2.37463        0.901851        0.553515
LJ         -0.141661         1.26806       -0.672589
LJ         -0.858971         2.16627        0.656782
LJ          -2.30957         1.82965         2.13566
LJ           2.53794        0.193273        -1.07679
LJ              -nan            -nan            -nan
LJ          -2.40751        0.127253         2.54665
LJ          0.290372       -0.283894         1.06662
LJ         -0.906443         1.78905       -0.780744
LJ          0.412092        0.560641      -0.0749206
LJ          0.433759          1.0486        0.832116
LJ         -0.170758         1.39208        -0.84139
LJ         0.0706811        -1.00245        0.697329
LJ           1.27498        -1.91538        0.347759
LJ          -1.92621         1.40956        -1.58585
LJ        -0.0502361        0.381895         1.94815
LJ              -nan            -nan            -nan
LJ              -nan            -nan            -nan
LJ          -2.51801        -1.47254        -0.79744
LJ          -1.85426          1.9574        -1.79103
LJ              -nan            -nan            -nan
LJ          -1.38224        0.291373        -1.31746
LJ           1.01405       -0.269676        0.821723
LJ          0.558935         1.11759        -0.78065
LJ          -1.57998        -1.88283        -1.06196
LJ          -2.14663        0.276887        -2.19516
LJ         -0.914544         1.63966         -1.3615
LJ          -2.19395        0.988321        0.211694
LJ           1.38561         1.04518        -2.28477
LJ          -1.02943         1.45017        -1.12664
LJ          -2.02013        -1.34561         0.88838
LJ          0.597061        -1.67805        -1.04517
LJ           1.74188        -2.09046         1.83417
LJ          -2.21729        0.194135        -1.49095
LJ           -2.5318          1.8694         1.81389
LJ           2.39103        -1.13698          2.0839
LJ           1.47712        -1.20028         2.55742
LJ          -1.51149        -1.72037        0.895606
LJ          0.616628         -1.8821        -1.20017
LJ          -1.55795        -2.44768         -1.3771
LJ          -2.28033       -0.963651         1.02946
LJ         -0.805766         -1.5424        0.831791
LJ         -0.530194         2.29134        0.664306
LJ              -nan            -nan            -nan
LJ           -1.4104        -1.94112        0.889593
LJ          0.715188        -1.16671         1.80635
LJ           1.46635       -0.459499        0.816722
LJ           1.88794        -1.90452        -1.61928
LJ          -2.02215         1.55423        -1.01451
LJ           1.05862       -0.495443       -0.778457
LJ           2.12356       -0.941592         1.52097
LJ              -nan            -nan            -nan
LJ          -1.43968        -1.35778        0.571614
LJ          -2.11691        -1.39068        0.846263
LJ          -1.58671         1.81083        0.824492
LJ         -0.707412         1.67266         1.06282
LJ           1.35889        -1.71976         1.34047
LJ              -nan            -nan            -nan
LJ          0.114668         1.78828        -1.67191
LJ          -1.57213         1.53822         0.21536
LJ              -nan            -nan            -nan
