108
#Comment!
LJ            2.5615         1.84983        0.652014
LJ           2.52191        0.363712        0.301804
LJ         -0.512109       -0.127106        0.560649
LJ           2.30426         1.33938        0.983577
LJ          0.100269         2.12531        0.115707
LJ           2.04776         2.20735        0.514747
LJ           1.75884        -1.29041       -0.881133
LJ          -2.24515        -2.20378        0.916614
LJ           1.82547        -1.64015        -1.84927
LJ          0.636016        0.781629        -2.54092
LJ              -nan            -nan            -nan
LJ           1.44002        -1.56713         2.42995
LJ          -2.18896       -0.423234       -0.357623
LJ           2.05479         1.86204        -2.27467
LJ          0.399873        -2.10353         1.46414
LJ          -2.17135        0.143137         0.13994
LJ           1.94933         1.48454        -2.14077
LJ          -2.37967       -0.519062        -1.90396
LJ        -0.0284093         0.57845        0.140645
LJ           2.44266         1.72396         1.87058
LJ         0.0822299      -0.0544806        0.351913
LJ          -1.18613        -1.47592        -1.77239
LJ        -0.0288819       -0.794895        0.077656
LJ          0.875156       0.0663889        -1.16803
LJ         -0.998574        -2.52953        0.561557
LJ          -1.94539         1.22275       -0.107537
LJ           1.12152        -1.90296        -2.03423
LJ          -1.31211        -1.46679        -1.10709
LJ           2.39432       -0.560184        0.561715
LJ         -0.821984        -1.27303         -2.3432
LJ         -0.904867        -2.48607      -0.0994334
LJ         -0.456433       -0.291931        -2.33361
LJ              -nan            -nan            -nan
LJ           -1.0677        -1.38711         2.44645
LJ         -0.163711         1.66651       -0.566901
LJ         -0.894622         2.29669        -1.59815
LJ        -0.0276601       -0.791013        0.675872
LJ          -2.45697        -0.77009       -0.567269
LJ          0.705997        0.771723        -0.41722
LJ         -0.635872        -2.02204        0.568908
LJ          0.806644        0.868448        -1.08219
LJ          0.600332         2.43556       -0.135924
LJ           1.86091        0.639059          1.1912
LJ          -1.67681        -2.39273        -1.77392
LJ           2.42969       -0.232712         -0.9419
LJ         -0.465517        -2.24286      -0.0628762
LJ           1.27545        -1.34512         2.26452
LJ           1.63194       0.0198446         1.64783
LJ         -0.502257        -0.29055        0.162858
LJ           2.36661        0.207371        0.776271
LJ         -0.957817       -0.659867         2.08061
LJ         -0.741178         2.33126       -0.539431
LJ          0.666799         1.64811        -1.58655
LJ         -0.282908        -1.93521        -1.35221
LJ          -2.30593        -2.32673         1.00401
LJ            1.7524        -1.33194        -2.18764
LJ         -0.929297        -1.00065        0.116898
LJ         -0.306609        -1.80323      -0.0614657
LJ          -2.31437         -2.1158        -2.36765
LJ           2.35732        0.571154         2.10789
LJ           0.26148         1.02048       -0.996484
LJ         -0.715429         -2.4545         1.86054
LJ          0.311512        -0.23152       -0.093511
LJ          -2.33984        -2.05705         2.55008
LJ           1.63947       -0.177315         2.55565
LJ           1.73683        -2.13798       -0.750916
LJ         -0.851909          1.4347         1.20431
LJ          -1.28827       -0.767416        -1.46224
LJ           1.10288        -1.33713        -2.07937
LJ          -1.22214      -0.0300059         1.68083
LJ          0.836991        0.713941        -2.31322
LJ          0.364372        -1.47486         1.49892
LJ           2.06321        0.196651         -1.6176
LJ          -2.24109         0.31156       -0.730315
LJ           1.25036         2.34925         2.53702
LJ          -1.40218        -2.42197        -1.87875
LJ         -0.850114        -1.48742        -2.21654
LJ          -1.53371        0.120788        -1.10369
LJ           2.05971        -1.71543         1.23332
LJ          -1.58265       -0.478219         1.42955
LJ           -1.0908        0.124063        -1.90502
LJ          0.632321        -2.47531       0.0795222
LJ           1.68424         1.17343        0.320699
LJ         -0.663265        -1.89206        -2.21221
LJ         -0.499091        0.970409         2.24349
LJ          -1.13525        0.773977        0.704911
LJ           1.37396       0.0846009         2.32758
LJ          -1.24632         2.11268       -0.806244
LJ           1.17257        0.840542         2.18739
LJ          0.504338        0.499741        -1.27379
LJ         -0.890024        0.631277         1.93266
LJ          -1.71614         1.14847       -0.916148
LJ         -0.791642        -2.35138       -0.891064
LJ           1.04328         1.36151         2.03716
LJ           1.36878        -2.29527        0.244758
LJ         -0.748275         1.66155         1.99478
LJ           2.25186         2.28475        -2.54546
LJ          -2.03004         1.48496         1.27821
LJ         -0.370775        0.577635       -0.972159
LJ         -0.718827         1.75861       -0.317647
LJ           1.17183        -0.65366       -0.294523
LJ           -2.5189        0.508259       -0.133303
LJ          0.703673        -1.58846        0.744955
LJ          -1.97357         1.40612        0.355807
LJ           0.26899         2.03945         1.33863
LJ           2.22151        -1.46661       -0.891711
LJ          -1.34299         -1.7169        -2.24656
LJ          -1.40961         1.31423      -0.0407836
