108
#Comment!
LJ           1.38378        -2.06207        -1.16199
LJ          -1.42757         2.23462        -1.73491
LJ           2.47614        0.772817         1.88402
LJ           2.22276        0.812459         1.93256
LJ         -0.334561        0.176321         -2.3111
LJ           1.48727        0.726722        0.120669
LJ         -0.566145       -0.267409        -2.55942
LJ           2.33073        0.385076       -0.438857
LJ          -1.25862       0.0977943       -0.449766
LJ           1.84026        -2.33559        -1.22595
LJ              -nan            -nan            -nan
LJ          -2.18973         2.38757        -1.14741
LJ         -0.441112        -2.17909        0.130532
LJ              -nan            -nan            -nan
LJ          -2.15866        -2.37755         2.44553
LJ              -nan            -nan            -nan
LJ              -nan            -nan            -nan
LJ              -nan            -nan            -nan
LJ         -0.304067        -2.07814       -0.916129
LJ              -nan            -nan            -nan
LJ          -2.34723       -0.445603         1.65623
LJ         -0.391813        0.750307        -1.37507
LJ         -0.560086        -2.00658         1.00161
LJ          -1.70899       0.0337708       -0.222142
LJ           1.12529         1.98343        0.709975
LJ            1.6502         1.78074         1.99736
LJ         -0.772254        -0.60422       -0.948401
LJ           1.04321        -1.50407        0.336605
LJ          -2.02049         2.03625         2.27633
LJ         -0.154766        0.377414        -2.23972
LJ           1.59224        0.559777       -0.256038
LJ         -0.202885        -0.92304         2.17701
LJ              -nan            -nan            -nan
LJ           2.05379        -2.19578        -1.48754
LJ              -nan            -nan            -nan
LJ         -0.591533       -0.230761       -0.415299
LJ           2.19439          1.6346         1.24386
LJ          -1.50966        0.892508        0.649087
LJ           2.27292           1.517         2.04191
LJ           -1.1627      -0.0197804        -2.35216
LJ          -1.45905         2.45736         2.33258
LJ          -1.31051       -0.589917        0.955119
LJ          -1.99223        0.839288       -0.979837
LJ          -1.98569        0.785473          1.5655
LJ          -2.12154        0.786866        -1.12045
LJ          -1.72636       -0.161714        -2.26913
LJ           1.10447        -1.46632         1.66462
LJ          -2.40077          1.0677         2.05552
LJ         -0.898555        -1.05935       -0.867446
LJ         -0.478111        -1.33889         1.06619
LJ          0.329917       -0.859162         1.15238
LJ           1.57438         2.52233         1.08344
LJ              -nan            -nan            -nan
LJ          -2.02848         1.74842         2.05605
LJ           2.14951        0.159983        -1.44121
LJ          -1.05793         1.20901        -2.47441
LJ           -1.4595        -0.74312         1.67322
LJ          -1.01365        0.204566       0.0281047
LJ           1.75882       -0.544854        -1.64818
LJ          -1.43908        0.954853       -0.448064
LJ          -2.05426        -0.46845          1.5888
LJ           1.92191         2.19045         1.32942
LJ          -1.67707         1.12294        -2.14693
LJ           2.42007        -2.30817       -0.378439
LJ          0.204648         -2.0306         1.43695
LJ           1.16987       -0.248935        -1.62762
LJ             2.512       -0.147749         2.07039
LJ              -nan            -nan            -nan
LJ          0.725972       -0.406493        0.364854
LJ           1.14446        0.871475         1.37754
LJ           2.46637        0.999627        -1.80937
LJ           2.49303        -1.03456        -1.27972
LJ         -0.603018        -2.45599       -0.375593
LJ           2.15286        -2.04752         2.28034
LJ           1.56018       -0.867929         1.78962
LJ        -0.0472924         1.74585       -0.270897
LJ          -1.47058        0.105508        0.611421
LJ         -0.626073        -2.51942        -1.25197
LJ           -1.2724      -0.0624235        -1.31173
LJ          -2.54775       -0.463092         1.30153
LJ          -1.51793        0.688792       -0.683175
LJ           1.70767          1.5316        -1.83368
LJ          -1.57248         -2.1393      -0.0389699
LJ           1.49041         0.55781        0.970081
LJ          -1.32085         1.95677         1.19579
LJ         -0.890102        -0.88269        -0.81799
LJ            1.6096        0.914829          -0.328
LJ          -2.06404       -0.862131         1.64666
LJ          0.763821      -0.0403431        -1.77945
LJ          0.692862          2.2734       -0.543141
LJ              -nan            -nan            -nan
LJ           1.57772       0.0881277        0.971978
LJ         -0.800997         0.49412        -1.63341
LJ         -0.814224        0.163858       0.0277379
LJ          -1.05854        -1.60603         1.12203
LJ          -1.48375         -0.8771        -2.05967
LJ          -2.03687         1.99168        -2.38038
LJ             1.495       -0.994476        -1.59018
LJ              -nan            -nan            -nan
LJ          -1.76145         1.23771        -1.37942
LJ          -2.47655       -0.635465          0.7146
LJ          -2.21361         1.53724        0.505825
LJ           1.37014       -0.649177        -1.23079
LJ           1.54562         1.51625        -1.27719
LJ              -nan            -nan            -nan
LJ           1.34639          -1.789        -2.11639
LJ           0.97257        -1.13528        0.566362
LJ              -nan            -nan            -nan
