108
#Comment!
LJ          -2.47914         1.20529         2.09012
LJ         -0.921388        0.704551          2.3846
LJ           1.76556        -2.10455         1.18017
LJ          -1.93192        -1.67068         2.10002
LJ          -2.51159         2.37263        -2.45923
LJ          0.591464       -0.841336       -0.818521
LJ           1.06355        -1.19153          1.3812
LJ          -1.12839        -1.07003        -2.25533
LJ          -2.03175       -0.562698         0.78436
LJ          -1.38407       -0.512045        -1.90821
LJ              -nan            -nan            -nan
LJ          0.863459       -0.446514         2.32096
LJ         -0.781433       -0.821892        0.280441
LJ          -1.48947        0.890062         1.57415
LJ            1.6579         1.45487         -2.0291
LJ           1.21138         -2.2899         1.71416
LJ          -1.32503         1.29073          2.4693
LJ          0.482518        0.454311       0.0965471
LJ         -0.438969         1.87799         1.47736
LJ           2.04959         1.49583         2.24876
LJ           1.19979        0.214119       -0.813537
LJ         -0.128293        -1.44651        -1.85208
LJ         -0.152651         1.25558       -0.550469
LJ          0.519504        0.262478        0.288887
LJ          0.938784        -2.41979         2.37956
LJ           1.52003        0.315337        -1.16112
LJ          -2.06926        -1.20349        -2.04174
LJ         -0.949433       -0.620729        0.405038
LJ           2.20631       -0.336449         2.07551
LJ          0.598287       -0.511201        -1.69153
LJ           2.17556         1.29945         2.44526
LJ           2.07786        0.478995        -1.05192
LJ              -nan            -nan            -nan
LJ          -2.51272        0.777381        0.280833
LJ          0.982351        -1.10859        -1.52783
LJ          -1.26953        -2.09038        0.850889
LJ          -1.96909       -0.878415         1.82621
LJ           2.42851        -1.07113        -1.15949
LJ           1.60604        -2.11567         2.54427
LJ          -2.53969         1.44782         -2.3255
LJ         -0.980688        -1.14972         1.32735
LJ          0.126079        -0.57309        -1.53633
LJ           0.23423        -2.25209       -0.661897
LJ           1.33443        -1.84351        -1.22913
LJ           1.05562         1.91112         1.16498
LJ           -2.5565         2.33844       -0.303705
LJ          0.771039         1.74906          1.2084
LJ           1.70098        0.531765         2.32185
LJ            0.5854        0.705129         1.76123
LJ           2.20477        -1.65595         1.15539
LJ           1.55912        0.164745        -1.33192
LJ          0.163285         1.48791        -1.83526
LJ          0.674559         2.14894         -1.8099
LJ          -1.78871        -1.90527       -0.932318
LJ          -1.87855         1.73488       -0.254386
LJ          -2.44965         1.64486        -1.87707
LJ          -1.42277        0.134904        0.133602
LJ          0.784265        -1.11116         1.11805
LJ          -1.24176        0.773721       -0.113267
LJ          0.848803        0.908287         1.10639
LJ          -1.23623       -0.546402        0.275743
LJ          -2.22274          1.2737       -0.732783
LJ           1.53813       -0.941262         2.13568
LJ          -1.59703         1.83265        -2.41851
LJ          0.395109          0.5784       -0.427999
LJ          0.830574        -2.09823        -1.44273
LJ         0.0763099        -2.20658        -2.17475
LJ          0.740201         2.00602      -0.0365064
LJ           1.71228         1.75791        0.107205
LJ          0.417207        -2.34611       -0.356499
LJ          -2.30531         1.48172         -1.1002
LJ          -2.26131         1.75706         1.99287
LJ             2.346       0.0131489        -1.75866
LJ           1.90158       -0.397896         0.68184
LJ          0.166141        0.197045        -1.42659
LJ           1.49166         2.30987        -1.82226
LJ           2.10561         1.89068         -2.2559
LJ         -0.417914        0.818885         2.15297
LJ         -0.604238        0.375488         1.47396
LJ        -0.0752616        -1.77393        -1.39681
LJ          -1.62161         2.07272         1.08878
LJ          -1.54381       -0.382923        -2.09496
LJ          -2.13165        -2.53839        -1.46131
LJ            1.3706      -0.0290958         0.40005
LJ            1.4322         1.76385       -0.945369
LJ          -1.64133        -1.32128         -1.2785
LJ          0.554566        -1.74568          1.6608
LJ          -1.82047        -1.14377      -0.0683122
LJ           1.50866       -0.338429         -1.2642
LJ           1.05045       -0.263541       -0.264867
LJ          -1.96915         1.62631         2.04135
LJ          0.335193        -1.27377        0.411764
LJ          -1.84346        -1.69525        0.586189
LJ           2.32057        -1.42228        0.542312
LJ           2.46605         1.02856        -1.09526
LJ           -2.0502        -2.06306       0.0496736
LJ         -0.244841         1.77158         1.75118
LJ          0.543302        -1.37531         0.97702
LJ          0.604923        -1.10868        -2.00083
LJ         -0.403767         1.66206        -2.18773
LJ           1.70614       -0.963075        -1.20611
LJ         -0.343259         1.16032        -1.70076
LJ           1.37359       -0.710819        0.391678
LJ          0.868219        -1.53761       -0.896436
LJ          0.438963          1.7674         2.07024
LJ          -1.47676        0.338683        -1.86095
LJ          -1.32572       -0.737525        -2.31149
LJ          0.543928         2.08028        -1.74179
