108
#Comment!
LJ           1.50059       -0.154904        -2.18821
LJ          -2.38136        0.165894        -1.73136
LJ          -2.48906        0.705355       0.0407604
LJ          0.397826        -1.91844        -2.24652
LJ          -0.15885        -1.19984        -2.45545
LJ          -2.08349        -2.50814        0.814139
LJ         -0.420406         1.63353         1.57649
LJ         -0.632832         1.81326        0.775982
LJ           1.78111       0.0416827          1.5663
LJ          -1.38485        -2.08632         1.34707
LJ              -nan            -nan            -nan
LJ           1.31567         1.65845         2.09624
LJ            2.3727        -1.29491        0.769084
LJ              -nan            -nan            -nan
LJ         -0.593062        -1.60841       -0.154458
LJ              -nan            -nan            -nan
LJ              -nan            -nan            -nan
LJ              -nan            -nan            -nan
LJ          -2.29432       -0.325424        -1.67385
LJ              -nan            -nan            -nan
LJ          -1.28622        -0.22143       -0.342162
LJ           1.16042         2.19868       -0.770414
LJ           2.06381       -0.417975      0.00447813
LJ              -nan            -nan            -nan
LJ          -1.15655         1.98397        -2.02607
LJ          0.591987       -0.467712        -1.81247
LJ          -1.67392        -0.17631        -1.79811
LJ          0.901178        -1.06472        0.636239
LJ         -0.361218        0.302007        -1.37822
LJ         -0.804143        -1.77509       -0.387726
LJ              -nan            -nan            -nan
LJ          0.871281       -0.859391        -1.72201
LJ              -nan            -nan            -nan
LJ         -0.215493         1.82294         -1.3655
LJ              -nan            -nan            -nan
LJ         -0.413896       -0.437785        -1.09997
LJ         -0.360672         1.37229         1.51085
LJ           1.46254        -1.85546         2.54578
LJ          -1.38353        -0.77361        -2.36645
LJ          -1.73013        0.887462        0.882864
LJ             2.035         1.58314        0.288126
LJ           2.29212       -0.256254         1.66675
LJ          -1.10449       -0.756964         0.55234
LJ           1.30492         1.51837        0.736383
LJ           1.79881        -2.55151        -1.59435
LJ           2.13469        -1.29899         1.49818
LJ          0.838172         2.22546        0.160378
LJ           1.04139         1.02037       -0.449199
LJ         -0.595689        -2.04198        -1.92772
LJ           1.97379        -1.78016        0.174245
LJ          -1.67104         1.11326        -2.51344
LJ         -0.500104         1.14198        0.428074
LJ              -nan            -nan            -nan
LJ           2.30428         1.42956        0.529287
LJ          -1.48154        -1.52587        -1.92738
LJ           1.98667        -1.67399          -1.583
LJ          0.565369       -0.829488       -0.975325
LJ          -2.29148          1.8541         2.35453
LJ          -1.33686        -1.67647         1.03037
LJ          -2.37894      0.00360841       -0.369477
LJ          0.547212        -1.93428        0.391308
LJ           -1.6097        -0.81505        -2.16772
LJ         -0.631078       -0.285342         2.08843
LJ              -nan            -nan            -nan
LJ              -nan            -nan            -nan
LJ           1.14344        -1.50248         1.03552
LJ           2.31363         1.30099         2.54975
LJ              -nan            -nan            -nan
LJ          -2.26952        -1.25806       -0.865225
LJ          -2.24766        0.201808       -0.659703
LJ          -1.09648        -2.28162         1.23903
LJ          -1.56593         1.14618         1.16961
LJ          -1.62181         1.78932        0.206372
LJ         -0.894958       -0.364335        -2.07075
LJ          -1.94918       -0.736102       -0.741185
LJ          -0.57485        0.808315        -1.70014
LJ          0.119992          1.4764       -0.555754
LJ         0.0989954         2.37599         -1.4034
LJ           2.39289       -0.535905         1.84115
LJ          0.188601         2.32908       -0.199022
LJ         -0.193665       -0.625924       0.0239176
LJ          -1.05918         1.27474         1.50606
LJ          -2.21447        -2.56459       -0.827294
LJ           -2.1858         0.57479          1.8633
LJ            1.0004        -2.31823         2.25009
LJ           1.10079         1.18452         1.20567
LJ           2.10383       0.0024649        0.115345
LJ          -1.69447         1.68894         -2.2266
LJ           1.22995         1.86838      -0.0281963
LJ          0.493902        -1.18635       0.0274424
LJ              -nan            -nan            -nan
LJ           1.02197        -2.55102        -2.52564
LJ           2.46966       -0.154981        -1.32492
LJ           2.23276        0.172394       -0.490134
LJ           1.63302         -1.2164        -1.11528
LJ           2.06077       -0.895248        0.857331
LJ          -1.12832        -1.10038         0.49173
LJ          -2.54842        -1.79044        -1.55967
LJ              -nan            -nan            -nan
LJ          0.936335         1.27349        0.613868
LJ          0.598424       -0.564226        -1.98207
LJ         -0.736049       -0.546179         1.24805
LJ            1.6098          0.9011        -1.65106
LJ         -0.501564        -1.78878         2.31393
LJ              -nan            -nan            -nan
LJ          0.414094        -1.48958        -1.09288
LJ           1.63984       -0.406778        -1.02574
LJ              -nan            -nan            -nan
