108
#Comment!
LJ          -1.25105        0.773146        -2.42662
LJ           2.37763        0.917893        -1.93897
LJ           1.58533       -0.403938         1.95872
LJ         -0.455975         -2.3099        -0.33568
LJ           2.13532        0.874721        0.802482
LJ           1.62453       -0.577248        -1.66474
LJ          -1.64365        -2.03665         2.31277
LJ          0.670353         2.35717        -1.20982
LJ         -0.769214        0.785288        0.601093
LJ           2.30731       -0.454823        -1.21674
LJ              -nan            -nan            -nan
LJ          -1.88834        -1.52786       -0.228468
LJ           -1.4863        -2.00541        -1.56114
LJ              -nan            -nan            -nan
LJ         -0.240495         1.04556        -1.43248
LJ              -nan            -nan            -nan
LJ              -nan            -nan            -nan
LJ              -nan            -nan            -nan
LJ           1.94468         1.35959          1.5295
LJ              -nan            -nan            -nan
LJ          -0.60851        0.358043        -1.71009
LJ           2.44723        -1.16144       -0.461724
LJ          -2.11305        -1.01412        -1.87713
LJ              -nan            -nan            -nan
LJ          0.418399         2.01691         1.18139
LJ           1.87661         1.96225       -0.728437
LJ          0.801112        0.499622         2.10203
LJ           0.66796        0.192681        -1.26067
LJ         0.0544014        0.897134         1.09482
LJ           2.56119       -0.600049         2.30149
LJ              -nan            -nan            -nan
LJ         -0.875082        -1.86914         -1.4956
LJ              -nan            -nan            -nan
LJ        -0.0701091        -2.55421         1.79286
LJ              -nan            -nan            -nan
LJ          0.951138        0.568953         2.40201
LJ            2.3059       -0.487387         1.64855
LJ         -0.431667        -1.40156        -2.41723
LJ          -1.13557        -2.00328        -2.55762
LJ          -2.44493         2.52432        0.366466
LJ          -2.34415         1.24609       -0.596802
LJ           2.14276       -0.957321         -2.0885
LJ          -1.69778        -1.70355        -1.24842
LJ          -1.30078        -1.18959         1.14963
LJ         -0.532438        -2.44473         1.83625
LJ          -1.95952       -0.982884       -0.824667
LJ           1.62779        0.282638         2.37508
LJ          -1.57112         1.51985        0.246024
LJ        -0.0103757        -1.28461      -0.0212139
LJ         -0.376989       -0.250932        -1.16261
LJ          0.175914         1.93694        -1.47087
LJ          0.339645        -1.10483       -0.941329
LJ              -nan            -nan            -nan
LJ         -0.489425         1.70443         1.05119
LJ           -0.0613         1.06094         2.32419
LJ          -1.07742       -0.582397        0.190729
LJ         -0.187864        0.524675       -0.732855
LJ         -0.116498        -1.29148        -1.85893
LJ          0.211031       -0.795647        -1.75931
LJ           1.04745        0.210719        -1.06889
LJ         -0.839653        -1.75277        -1.87108
LJ           -1.4062       -0.579696         1.79297
LJ         -0.421308          1.1653       -0.678231
LJ              -nan            -nan            -nan
LJ              -nan            -nan            -nan
LJ         0.0991735       -0.476599        -2.39839
LJ         -0.917927         1.37078         1.61576
LJ              -nan            -nan            -nan
LJ           -1.8704        -1.17223         2.46746
LJ         -0.422367        0.254488         1.74014
LJ           1.19052        0.812542        0.391534
LJ          -2.08369          2.0102         1.86653
LJ           1.91608         2.38288         1.76571
LJ         -0.607092        -2.07273         2.10096
LJ          -2.08243       -0.286988         1.13066
LJ           1.56303         1.54779         1.11508
LJ          -2.34139          1.7838       -0.793014
LJ           1.73501        -1.94593         2.24532
LJ         0.0960012        -1.25636        -2.39906
LJ           2.17316        -1.39839        0.500157
LJ          -1.80523       -0.600548        -2.41105
LJ          0.877968        -1.50903        -1.89646
LJ          -2.36939     -0.00908245          1.5981
LJ           1.65444         1.55014        0.414073
LJ          -2.23663        0.529436         1.69803
LJ           1.79384       0.0690022        0.998247
LJ         -0.843779      -0.0745885         2.10953
LJ          -1.27499       0.0147146        -0.59335
LJ          -1.98543       -0.596156        -2.40829
LJ          0.246875       -0.330882         2.25778
LJ              -nan            -nan            -nan
LJ           1.99958       -0.552048        0.552631
LJ           1.90381        0.877171        -1.74733
LJ          -1.51451        0.851756        0.143113
LJ           -1.7926        0.787366        -1.76214
LJ           1.40289         -1.8476        0.900595
LJ         -0.134661         1.24848       -0.941577
LJ           0.85651         1.12202          1.3153
LJ              -nan            -nan            -nan
LJ           1.55177         2.18711        -2.38518
LJ          -2.26241        -2.55449        0.165691
LJ          -2.25871         -1.0947         1.29781
LJ          -1.97518        -0.77313       -0.767661
LJ          -2.51843        -1.97712         1.83459
LJ              -nan            -nan            -nan
LJ          -2.23578        -2.41708         2.34464
LJ          -1.51261         1.56116        -1.96264
LJ              -nan            -nan            -nan
