108
#Comment!
LJ           -1.3789        -1.05544         0.91816
LJ          -1.16247        -2.08674        -1.05204
LJ        -0.0677098       -0.323256         1.57505
LJ          0.375659          -2.345        0.128067
LJ          -2.20669         2.36406       -0.508912
LJ           1.79584         2.21507          2.1694
LJ           2.05806        -1.19588         2.18085
LJ          -1.00309         1.48815        0.807057
LJ         -0.260748        0.984759        -1.98817
LJ          0.188698        -1.20386         1.03436
LJ              -nan            -nan            -nan
LJ        -0.0631213        0.287612         1.13933
LJ          -1.85063         2.10061        -1.75216
LJ          0.418223         2.09236         1.05931
LJ          -1.48828       -0.828793         1.96155
LJ          -1.99479        -1.08733         1.24685
LJ              -nan            -nan            -nan
LJ              -nan            -nan            -nan
LJ           1.94059        0.492629         2.06322
LJ              -nan            -nan            -nan
LJ           1.59679       -0.906615         2.18749
LJ          0.539608        0.237378        0.860412
LJ           2.51459         2.32756        -1.94028
LJ           2.01911         1.02001       -0.796574
LJ           2.28358         -2.4208        -1.01164
LJ          0.184366        -2.54165         1.21083
LJ           2.25278         1.54415       -0.100531
LJ           1.80429         1.20918          1.9472
LJ           2.31256         1.61266         2.17265
LJ          -2.34157         1.94422        -2.41684
LJ          0.796341        -2.48926         1.52757
LJ          -1.23134         1.34394         1.23868
LJ              -nan            -nan            -nan
LJ          -1.56429         1.87457         2.42617
LJ              -nan            -nan            -nan
LJ          -2.19571        0.146077        -1.09844
LJ           1.69496         2.51487        -1.53973
LJ           2.54212        0.393207       -0.309986
LJ          -2.15827        -1.63102         1.91454
LJ           2.13956        0.553576         1.10096
LJ          0.262791         1.70142        -1.22923
LJ           1.02397         -2.1897         1.06047
LJ           1.68727        -1.94432         1.57044
LJ          -1.53259         2.23369        -1.20818
LJ         -0.190126         0.60495         1.05925
LJ          0.328308       -0.746375       -0.455556
LJ          -2.12146         2.32757        -1.98432
LJ          -2.25442         1.84361         1.21133
LJ          -1.56539         2.37267        -1.92841
LJ           2.36439        0.199569         1.22334
LJ          -1.51567        -1.90922       -0.127942
LJ          -2.30997        -2.41514       0.0616827
LJ              -nan            -nan            -nan
LJ          -1.78838         1.11391         2.08719
LJ          -2.36292        0.664108         2.24531
LJ           1.07921        -2.09078        -1.82284
LJ          -1.84536       -0.641128         2.12167
LJ           1.38672        -2.36708         2.26595
LJ        -0.0754949       -0.542335        -1.40586
LJ           2.21554        0.940262         2.01665
LJ        -0.0359953        -2.51351       -0.713859
LJ         -0.925271        -1.37016         2.26632
LJ          0.132807       -0.263716        0.841463
LJ         -0.803849       -0.621002       -0.283741
LJ          -1.40945         1.79227         1.45129
LJ          -1.75204         1.96703         1.77794
LJ         -0.326098        -1.34898         2.19813
LJ              -nan            -nan            -nan
LJ          -1.62359        0.817637       -0.633461
LJ         -0.979946        0.882121        0.379723
LJ          -1.04307       -0.856237        0.224655
LJ           1.70745         -2.5628         -1.5066
LJ          -2.29057       -0.428539         2.49612
LJ          -2.20344        -1.24021         2.41956
LJ           1.87207         2.53009        0.969054
LJ           1.51093        -2.31642        -1.55359
LJ          -2.36937         2.42967       0.0922465
LJ           1.48924        0.439307       -0.637064
LJ          -1.16646        0.009425        -2.43876
LJ           0.15359         1.02551        0.267314
LJ         -0.134284         2.15324        -1.27325
LJ           2.44429         1.67519        0.313466
LJ           -1.4479         -1.7072        -2.31744
LJ         -0.887706       -0.789597         2.10634
LJ           2.11597     0.000522635       -0.643819
LJ          -1.62539       -0.639914        0.308538
LJ           1.77267        -1.21342       -0.393578
LJ          0.754825        0.425298        0.229561
LJ          -1.13147       -0.256161       -0.729665
LJ         0.0613051        -1.39678         1.31865
LJ              -nan            -nan            -nan
LJ           1.23316        -2.24143        -1.12443
LJ           2.44671       -0.430229        -2.28836
LJ           -1.7836         -0.1716        -2.54516
LJ           1.50437       -0.488018          1.1178
LJ           1.46345        -1.84731        0.880837
LJ          0.439098        -1.59933        -1.91812
LJ          -2.15258        -1.66076        -2.31464
LJ           1.77744       -0.565943        -1.16453
LJ          0.557897         2.35203        -1.11966
LJ           0.80935        0.895992        0.713068
LJ             1.427         1.14488         0.37764
LJ           2.11503         2.49349        0.200116
LJ           -1.5966        -1.37712         1.98745
LJ         -0.115169        0.839624       -0.958823
LJ           1.85052        -2.00704        0.549188
LJ          0.278015         2.36134       -0.948567
LJ              -nan            -nan            -nan
