108
#Comment!
LJ           1.52678          1.8506         2.11124
LJ           1.28088        -1.61667        -1.12779
LJ          0.562955        0.275063        -2.44071
LJ         -0.188144        0.747246       -0.627813
LJ          -1.27769        0.710256        -1.25201
LJ           2.38472       -0.893072        0.571748
LJ          -1.17927        -2.40404         1.35711
LJ           2.11231         0.83082        -2.40126
LJ          0.856344        0.907203        -1.28604
LJ          -2.33603         1.66046        -1.14881
LJ              -nan            -nan            -nan
LJ          -1.34861         1.58984        -2.06252
LJ          -2.33909         1.93277         1.40318
LJ              -nan            -nan            -nan
LJ         -0.959557        0.997369        -1.12306
LJ              -nan            -nan            -nan
LJ              -nan            -nan            -nan
LJ              -nan            -nan            -nan
LJ         -0.151993        -1.24832        -1.10855
LJ              -nan            -nan            -nan
LJ           1.50758        -2.04339        -1.95247
LJ         -0.728116        -1.32463        -1.05441
LJ          -2.39523        0.696465       -0.283231
LJ           1.29295        0.383275        -1.36674
LJ          -2.34628       -0.327111        0.823593
LJ          0.380773        -1.76623         1.67333
LJ         0.0978088         2.28388        -1.52215
LJ           0.84104       0.0433125         1.48885
LJ          0.685405         -2.3314        0.510289
LJ          0.940229        -1.55588       -0.743162
LJ              -nan            -nan            -nan
LJ          -1.81424        0.200429       -0.878447
LJ              -nan            -nan            -nan
LJ          0.071833        0.418304         2.39293
LJ              -nan            -nan            -nan
LJ          0.678493        -2.02788      -0.0611407
LJ           2.03118        -1.00902      0.00883208
LJ          0.695338        0.946973         1.85299
LJ         -0.659836         1.28795         1.56144
LJ          0.594829         -1.9921         1.86343
LJ           2.08409       -0.104747        -1.93164
LJ         -0.266152         1.15616        -2.04507
LJ         -0.831647         1.45117       -0.673942
LJ           1.48128        -2.44886        -2.33379
LJ          0.959873       -0.580605         2.25281
LJ          -2.54074        -1.67179       -0.805251
LJ          0.761189         2.52926       -0.913923
LJ         -0.310886        -2.00417        -0.50433
LJ          -1.27663        -2.16908      -0.0427464
LJ           1.37076       0.0105413        -1.46632
LJ           1.70928        -1.24558          1.0751
LJ          -1.16227        -1.29645        -1.65678
LJ              -nan            -nan            -nan
LJ        -0.0562858       -0.697258        0.850637
LJ          0.857124         2.18311        0.524208
LJ           2.37375        0.370571        0.349467
LJ          0.708009      -0.0737363        0.830709
LJ          0.901264        0.218268       0.0319047
LJ          -1.36518        -1.62788           1.713
LJ           0.78975       -0.229352        -2.42244
LJ           2.31761        0.639118        -2.42573
LJ          -2.25625         2.36922         2.15582
LJ         -0.436154         2.55103          2.1124
LJ           1.82629        -2.33211         1.24621
LJ              -nan            -nan            -nan
LJ            1.8063        -1.76831        -1.85603
LJ          -0.26298         1.46862        0.706214
LJ              -nan            -nan            -nan
LJ            0.6213        -1.39244          1.0513
LJ          -1.78961        -1.27829       -0.618198
LJ          -1.19791          1.9815         1.95823
LJ           2.00956       -0.788754        0.978666
LJ           1.78874       -0.530136       -0.419939
LJ          -1.98413         1.62501         2.56496
LJ         -0.463288       -0.708912       -0.285288
LJ          0.436101        0.262121         2.01037
LJ         -0.385704       -0.666374       -0.822875
LJ          0.683071      -0.0389766        -1.83845
LJ         -0.343068       -0.407025         1.37278
LJ           1.23444         1.90213        -1.15949
LJ          -1.09508         2.46795         2.13346
LJ          -1.86002       -0.588831       -0.420506
LJ          -2.50047       -0.835751        -2.29692
LJ          -0.49723         2.01693        -2.20051
LJ           2.25148        0.615525        -1.32572
LJ           1.35295        -2.20633        -2.25675
LJ           2.46985        0.192718        -2.54885
LJ          -1.24061         1.32397        -2.38554
LJ         -0.600356        0.807793        -1.19579
LJ            2.3986        -0.74763       -0.236162
LJ              -nan            -nan            -nan
LJ          0.312513        0.697656        -1.67134
LJ           1.89302        0.352434         1.83094
LJ           2.46949         1.36673       -0.355203
LJ          0.710667        -1.76234        -1.24466
LJ         -0.703162         1.84281         2.10368
LJ           2.51817         2.00257        -1.05072
LJ            2.5138       -0.689439       -0.669185
LJ              -nan            -nan            -nan
LJ           2.51821         1.14407        0.857113
LJ           1.65292         -1.2063         2.13736
LJ         -0.639684       -0.442242        0.821333
LJ          -0.38198         2.30377         1.87436
LJ          -1.40487         2.55442        -1.35495
LJ              -nan            -nan            -nan
LJ          -2.44991      -0.0830919        -1.12177
LJ           1.60462        0.678208       -0.894833
LJ              -nan            -nan            -nan
