108
#Comment!
LJ           2.28897       -0.456776         1.48375
LJ          -1.49165          2.2754         1.37769
LJ          -1.97398       -0.436254          1.0283
LJ          -2.12393        -1.80156         1.32045
LJ          0.643191       0.0702272         2.47858
LJ         -0.358069        -2.41834        -2.47808
LJ         -0.687284        -1.67072         2.13456
LJ           1.93204        0.718854          2.2987
LJ          0.695054        -1.41542       -0.555056
LJ          -2.01861      -0.0390036         1.47596
LJ              -nan            -nan            -nan
LJ          -1.05736        -0.34844         1.98577
LJ          0.802764        0.511849       -0.523638
LJ           1.24677        -1.87568        0.810876
LJ            1.3365         1.56315        0.508528
LJ          0.892186         1.05829       -0.167353
LJ              -nan            -nan            -nan
LJ              -nan            -nan            -nan
LJ         -0.549374        -1.32929        0.309177
LJ              -nan            -nan            -nan
LJ          -1.87927        -2.07249        0.591943
LJ           2.54979         1.44799        -1.60676
LJ         -0.126693        -1.92651        0.954187
LJ          0.357905        0.396253        -1.93989
LJ          -0.22446         1.04442         1.23287
LJ           2.19273        0.302687        0.992864
LJ          -1.84501         2.52173        -2.15057
LJ           1.91206       -0.514476        0.106647
LJ           1.81174        -1.32561        0.960347
LJ          0.953063        -1.64879       -0.615534
LJ         -0.305584     0.000135624        -1.01233
LJ          -1.60682      -0.0349071        -1.72794
LJ              -nan            -nan            -nan
LJ          0.262142        -1.15535       -0.927852
LJ              -nan            -nan            -nan
LJ          0.854836        -2.38413        -2.24747
LJ          -2.42011       -0.482182         1.41287
LJ         -0.943175       0.0917095       -0.967114
LJ          0.438824        -1.89961        -1.72276
LJ          -1.08235       0.0343591         1.63214
LJ         -0.788078        -1.12269        0.153846
LJ         -0.704089         1.64438        0.690315
LJ          -2.34177        -2.17131       -0.412569
LJ          -0.22759         2.12378         1.27007
LJ           2.48293       -0.543558        -1.27674
LJ          0.708414        0.238608         1.43105
LJ          -1.24114         0.68852         1.47047
LJ           1.85607        -1.19976        0.601539
LJ          0.140948       -0.282242        -2.07913
LJ           2.33005         -0.9011         2.34675
LJ           1.11852      -0.0881291        -0.36374
LJ         -0.611577        -2.31274         1.24891
LJ              -nan            -nan            -nan
LJ          -2.55777        -1.41653        -1.93887
LJ            1.1447         1.41836        -0.91563
LJ         -0.694003        0.180373         1.87504
LJ          -2.46294         2.23049         1.26893
LJ           2.01399         1.80368         1.27405
LJ           1.18071       -0.965575         1.63464
LJ          0.697877        -2.55803         1.53579
LJ          -2.11058         0.17727        -2.32008
LJ         -0.573097         1.63599       -0.841572
LJ          -2.50425        -2.55507       -0.172051
LJ         -0.325302        -1.95521         2.54145
LJ          -1.47591        -2.52022        0.048727
LJ           -1.5046       -0.549491         1.77192
LJ           2.47648       -0.161956        -1.45626
LJ              -nan            -nan            -nan
LJ         -0.842172         1.64959       -0.822487
LJ           1.58835        0.856279        -1.67749
LJ         -0.752697        -2.46725         1.83251
LJ           2.04272        -1.47349        0.293857
LJ          0.952546        0.696269        -2.23349
LJ          -2.01053         1.36517       -0.175304
LJ          -1.92674         0.76444        0.914069
LJ          0.648045        0.975146         1.01192
LJ           1.02332        -1.70433         1.86678
LJ          0.294345         -1.3931        0.484766
LJ          -1.22735         2.03819        0.652295
LJ          0.556904        -1.01473        -1.85633
LJ          0.934536        0.434127        -1.12125
LJ          -2.16145        -1.31262        -1.77763
LJ          -1.53143        -1.32903         1.58169
LJ          -1.26068         2.17572       -0.241914
LJ         -0.378202        -0.69366        0.956804
LJ          -2.42268         1.85209        -2.20039
LJ         -0.822485        -1.38221         1.53932
LJ          0.803085         1.21527        0.566752
LJ         -0.595925        -2.39065         1.03926
LJ          -2.24591        0.119379         1.76796
LJ              -nan            -nan            -nan
LJ        -0.0421102        0.255943         1.90133
LJ          0.746889        0.787307        -2.47767
LJ           1.16815         -1.7548       -0.546311
LJ        -0.0199724        -2.47218         1.72733
LJ           1.69928        -0.76189         1.59227
LJ          -1.35086         1.81752        -1.68928
LJ          0.972124        0.532454         -1.2652
LJ           2.19412        -0.19624         1.65693
LJ        -0.0130657        -2.49777       -0.200341
LJ            2.5236         1.57712         -2.0464
LJ         -0.731418        -2.46848        -2.15918
LJ          -1.21975        -2.28937         2.25796
LJ           1.72805        0.455099        -1.65286
LJ          0.876072        -1.68976        -1.98779
LJ          -2.01118       -0.512603       0.0919281
LJ         -0.103896        -1.67882        0.811677
LJ              -nan            -nan            -nan
