108
#Comment!
LJ          0.866811        -1.76395       -0.511903
LJ        0.00358109        0.455811        -1.93675
LJ          -0.67828         2.33262        -2.33774
LJ          -1.77006         2.07882       -0.989591
LJ         -0.182276       -0.928148        -2.02702
LJ           1.58266         2.23958         1.79133
LJ           1.99834         2.22473       -0.812612
LJ           1.14032          2.5258        -1.88503
LJ          -1.50086          2.5578        0.499496
LJ          -0.25069        -1.32045          1.4681
LJ              -nan            -nan            -nan
LJ          0.679718       -0.160971       -0.389346
LJ          -2.15278         2.22235        -1.88685
LJ              -nan            -nan            -nan
LJ          -1.55579        0.523282        -2.09532
LJ              -nan            -nan            -nan
LJ              -nan            -nan            -nan
LJ              -nan            -nan            -nan
LJ          -2.25956        0.112073        -1.91195
LJ              -nan            -nan            -nan
LJ          -1.63125       -0.372241        -2.43042
LJ           1.53647        0.548566       -0.731663
LJ           1.73641         1.60927        -2.53865
LJ          0.543403        0.911886        -2.18721
LJ           1.93802        -1.52356          1.3226
LJ         -0.894031         1.96982         2.47063
LJ            1.4205       -0.132102         2.35247
LJ         -0.951755        -2.10907         1.16475
LJ            1.6259        0.500034         -1.8126
LJ           1.63542          2.2707        0.208616
LJ              -nan            -nan            -nan
LJ          -1.04142          1.6209        -0.46076
LJ              -nan            -nan            -nan
LJ            1.6694         1.47969        -1.81397
LJ              -nan            -nan            -nan
LJ          -1.94949        -1.83127         1.61501
LJ           2.24326         2.45151        0.018441
LJ          -1.90676       -0.680824        -1.92126
LJ         -0.816538         1.48713        -1.09635
LJ          -1.93212         1.95555         1.20103
LJ           1.98516         2.21867         2.38203
LJ         -0.709468        -1.62064         1.92593
LJ        -0.0490556        0.639663        -2.40984
LJ           1.31404        -1.24449         2.41202
LJ          0.898135       -0.544618        -1.78868
LJ         -0.224656        0.624216        -2.24458
LJ         -0.853097       -0.543199       -0.374687
LJ            -2.448        -1.78742       -0.822048
LJ           1.28939        -2.25442         1.28409
LJ           1.83354         2.54745        -1.74753
LJ          -1.75486       -0.201757         2.22936
LJ          -2.14438        -2.31734         1.97955
LJ              -nan            -nan            -nan
LJ           2.11895         1.95878          1.8986
LJ           2.04574        -1.20929       -0.139801
LJ           -2.4689        0.147403         2.16818
LJ          0.733629        0.654973        0.116541
LJ          0.154164         1.30556        0.732216
LJ           2.22015          -1.711        -1.36258
LJ           0.89762         2.10192       -0.651756
LJ           1.73218        -1.87374         2.01701
LJ          -1.76812        -2.22549        0.634908
LJ         -0.131514         2.17357         1.68716
LJ           2.43824         2.46942         2.02985
LJ              -nan            -nan            -nan
LJ           1.13624        -1.76246        -1.54772
LJ            1.8986         2.50869         1.12406
LJ              -nan            -nan            -nan
LJ           1.33807        0.382599        -1.36012
LJ          -1.63684        0.470836       -0.779511
LJ         -0.127651       -0.457275        0.389938
LJ           1.77997         1.03777        0.793667
LJ        -0.0360593         2.19959        0.824108
LJ          0.302971         -2.2447       -0.713197
LJ           2.08738        -0.58577        -2.44912
LJ         -0.807195        -1.39542        -2.32384
LJ           2.38409        0.383886        -2.35538
LJ          0.448174        0.348945       -0.978755
LJ          -2.04916        0.266858        -2.20398
LJ        -0.0593435        0.495659        -2.11414
LJ          -2.12862        0.277949        0.889542
LJ          -1.89672       -0.888459        -0.67399
LJ           1.46963        0.947133         1.59007
LJ          -1.85234        0.400527        0.712998
LJ         -0.534369         2.13749         0.56642
LJ          -2.37903        0.996986         1.19046
LJ          -2.08355         1.28015         2.50213
LJ           1.74994         -1.6331        0.560992
LJ         -0.961624        -2.03303        -1.22933
LJ          -1.86674        0.458645         2.00534
LJ              -nan            -nan            -nan
LJ           1.75424       -0.210966        -1.78507
LJ         -0.707921        0.669822        0.378727
LJ          -1.47553       -0.102966         -1.6053
LJ          0.848245        -0.21301        -1.47314
LJ        -0.0189209       -0.243448        -2.27598
LJ         -0.489967         1.94634         2.39564
LJ         0.0106891         2.49248        0.896208
LJ              -nan            -nan            -nan
LJ            0.1138       -0.888543        -2.46359
LJ         -0.186285         2.07463        0.261984
LJ           2.03044        -1.83603        -1.77092
LJ           1.31636        -2.22408       -0.505503
LJ          0.748442        0.825491        0.481393
LJ              -nan            -nan            -nan
LJ           -1.2717        -1.12062         2.22842
LJ          -2.17606       -0.552298       -0.803771
LJ              -nan            -nan            -nan
