108
#Comment!
LJ           1.16281         1.60532       -0.554389
LJ          -2.00904        -1.50455       -0.541257
LJ           1.89668       -0.816432        -1.75653
LJ         0.0419015       -0.457719         1.63811
LJ          0.205291       -0.558183        0.869297
LJ           -1.9407         -1.8522        -1.24555
LJ          -1.84855       -0.286571         1.68159
LJ          -1.77505        -1.87452        0.130693
LJ           -1.5867         0.67149          2.5472
LJ         0.0218248       -0.559636        -1.61904
LJ              -nan            -nan            -nan
LJ          -2.08727        0.892304        0.909109
LJ            2.3018         -2.0545         -1.0076
LJ           1.60348      -0.0252783         1.39764
LJ          -2.13815        0.519194        -1.79555
LJ          0.173118        -1.88045        0.363662
LJ           1.29344        -1.79969        -1.78334
LJ          0.269101      -0.0970672        0.462979
LJ           1.34891       0.0320278         1.39778
LJ          -1.13223        0.791996        -1.34486
LJ           1.65634         1.60303        0.458214
LJ         -0.667736        0.516795         1.11086
LJ           1.42721       -0.369488        0.920804
LJ          -1.50167        -2.33228        0.139746
LJ           1.44509        0.761651        -2.45106
LJ           2.20673         1.97514         1.60914
LJ         -0.583275         -1.4378        -1.63854
LJ         -0.984914       -0.451518        -1.92376
LJ         -0.830202       -0.457891       -0.955721
LJ          -2.27966       -0.545827        0.119615
LJ          -2.52373         1.77656        0.360938
LJ          0.787491        0.960658         1.75898
LJ              -nan            -nan            -nan
LJ           0.73961        0.128368         1.77899
LJ           2.30434         2.15188        -2.41403
LJ            2.1591       -0.582327        -1.89956
LJ          -1.25631        0.600494         1.07862
LJ          0.659122         1.91397        0.437284
LJ         -0.991964       -0.511124       -0.947711
LJ          0.122073        -2.07942        0.651625
LJ           0.92824        0.488314         -1.7756
LJ           2.22559        0.457048        -1.45035
LJ          0.276158         2.43867        0.327623
LJ           1.67259        -2.06191        0.895989
LJ          -2.17207         0.72256      0.00267636
LJ          -1.58184         1.43185       -0.828902
LJ           1.14646         1.18536        -1.96895
LJ          -2.30909         2.05459       -0.557603
LJ          -1.56904         0.66824       -0.685281
LJ           -1.1454       -0.459639       -0.610245
LJ          -1.82839        0.184195        0.974886
LJ           1.89809        -1.44294        -2.40414
LJ          -1.81229        0.171888        0.868601
LJ           -2.0738        0.509315        -2.49723
LJ          -1.46422        -2.52103         2.18489
LJ          -2.14791       -0.850513        0.372344
LJ          0.204143         1.92285          -1.444
LJ           2.51271        -2.54293         0.36264
LJ           2.49055         2.48039       -0.911187
LJ           -2.0559        -1.07606         -2.1761
LJ          -1.53672        -1.77827         2.09981
LJ           1.41007        -1.18696        -2.23887
LJ         -0.746915        -1.41254        -2.36579
LJ           1.26058         1.83815        -2.40634
LJ           1.71909         2.54667       -0.865096
LJ          0.367007        0.909598         1.66551
LJ          -0.18897        -2.10195         1.05398
LJ          -2.03369        -2.33759       -0.414863
LJ           1.78643          -1.252        -1.13451
LJ          -2.33951       -0.388182       0.0991968
LJ           -1.3751        0.320875          2.3527
LJ          -1.45929        -1.09678        -1.55811
LJ          -1.47257        0.223802        -1.44387
LJ           2.16856       -0.110685         2.51875
LJ         -0.787936       -0.632449        -2.24636
LJ           1.24875       -0.389255       -0.864748
LJ          -1.68516        -2.40317          1.6336
LJ           1.55194         1.53533         1.27571
LJ           2.07602         -0.8095          1.5493
LJ         -0.647828        0.859958        -2.20887
LJ        -0.0580319         2.12023         1.81186
LJ          -2.35727         1.01022        -2.38633
LJ           1.47092        -1.03769        -1.20771
LJ           1.72517       -0.645203        -1.62625
LJ          0.837301          -1.235        -1.34503
LJ         -0.598282          -1.075        -1.15308
LJ           -2.1391         2.08632         1.10222
LJ           1.37853       -0.866409       0.0347733
LJ            2.1177         1.45549       -0.811029
LJ         -0.114412        0.232356         1.66696
LJ          0.559111         1.09939        0.595096
LJ          0.604881        0.648114        -1.54795
LJ          0.505529       0.0807757       -0.807465
LJ           2.22063         2.52292       0.0423205
LJ          0.481957       -0.312544        0.984804
LJ           1.73989       0.0497477         1.37999
LJ          0.630398       -0.026298        -2.12097
LJ           2.56141         1.97623        -2.02068
LJ           0.18838       -0.883003        -1.16079
LJ         -0.209175         1.97959       -0.919367
LJ           1.74403         2.31208        -2.54291
LJ         0.0469542       -0.962037         2.52183
LJ           1.02716         1.97191        -2.11597
LJ           2.13674        -0.48415         1.67296
LJ           2.48587     -0.00156111         1.56071
LJ          -1.70047         1.31344         1.75889
LJ           -2.2326        -1.18608        -1.79473
LJ         -0.722146        0.324339        0.227596
