108
#Comment!
LJ         -0.656784         1.14719       0.0129185
LJ          0.475144        0.651898         2.55878
LJ          -1.93089        -1.71611         -1.8324
LJ         -0.956589         -1.4741        -1.89245
LJ         -0.447178         2.27676       -0.772213
LJ          0.297136        -1.28305       -0.368938
LJ           1.21154        -0.28622         1.37397
LJ         -0.431509         2.40665        -1.97794
LJ          -2.11272       -0.712406       -0.485175
LJ        -0.0431027        -2.22453       -0.656107
LJ              -nan            -nan            -nan
LJ           1.59096       -0.752214         1.13964
LJ          -1.91591        0.169015        0.669709
LJ          -2.42958        0.793533       -0.742347
LJ          0.937729          2.5383        0.733533
LJ           -1.3551         1.02246       -0.631954
LJ              -nan            -nan            -nan
LJ              -nan            -nan            -nan
LJ          -2.06454         2.41994         2.33455
LJ              -nan            -nan            -nan
LJ          -2.43985         1.02367        -1.11702
LJ         -0.326376        0.218452        -1.28301
LJ          -1.64979        -1.90053         1.81428
LJ         -0.409757        0.809136         1.61604
LJ          -1.44283        -2.26687        0.977245
LJ       -0.00258779        -1.45402         1.26662
LJ          0.695324         1.75749        -1.29342
LJ          -1.82864       -0.991054        -1.33004
LJ           2.36602        0.240733       -0.421351
LJ           1.32595        0.145774       -0.644926
LJ          -0.26089         2.23041        -2.43516
LJ          -1.71631        0.664889        0.355471
LJ              -nan            -nan            -nan
LJ          -2.40718         -2.1764        -1.83677
LJ              -nan            -nan            -nan
LJ           2.04731         1.28613        0.607362
LJ           2.31758        -2.33413       -0.352171
LJ           2.25789       -0.598041         -2.2108
LJ          -2.16425       -0.887184         -0.2493
LJ          -1.24904       -0.457492       -0.581536
LJ          -1.87067        -1.44371        -1.60929
LJ          0.997652         1.02543        -1.90853
LJ            1.8393        0.770746       -0.516804
LJ         -0.599968       -0.382022         1.49829
LJ          -2.08732       -0.740961         1.89231
LJ          -2.53667       -0.220244         1.09842
LJ          -2.47556        0.410481        0.368928
LJ          -2.27074        -2.48522         0.35011
LJ         -0.167332         2.06345        -1.31944
LJ          0.436536        -2.49693        -1.20616
LJ          -0.72679        -1.55435        -1.42232
LJ          -2.08544         0.85826         1.65241
LJ              -nan            -nan            -nan
LJ           2.26466         2.32688          0.2988
LJ          0.582862       -0.176449         1.82737
LJ           1.12525        -1.80372       -0.236443
LJ          0.778583         1.48989       0.0519021
LJ         -0.151847         1.63493       -0.686546
LJ           2.00536        -0.47769       -0.854595
LJ         -0.772211        -0.55512       -0.715648
LJ          0.181109        0.129745      0.00226999
LJ          0.923249        -1.75101         -2.5086
LJ            1.1045        -1.94239        -1.55738
LJ          0.442734         1.26359         1.78191
LJ           1.54581       -0.574621        -1.13659
LJ          0.745752         1.30577        0.476114
LJ         -0.640526         1.41328        -2.30983
LJ              -nan            -nan            -nan
LJ           -1.6423        -2.10255         1.22824
LJ         -0.888678        -1.57477        -1.49502
LJ          -0.17026       -0.466977       -0.939606
LJ           1.56233         1.92431      -0.0950185
LJ          -2.51808        -1.63152         1.12915
LJ           2.48905       -0.641808        0.346784
LJ          0.398014        -1.21536         1.31381
LJ           2.55744        0.968329         1.89556
LJ          -1.25495       -0.276681         -1.6147
LJ           1.03753         2.15105        -2.52049
LJ           2.23479         2.00617           0.331
LJ          0.555014         2.30817        0.599392
LJ           0.59344       -0.150626         1.46267
LJ            1.5756         1.63183        -1.27479
LJ           1.33461         2.52814       -0.797143
LJ          -1.22172        0.629789         2.24741
LJ           2.18276        -2.16038         1.26622
LJ           1.73376       -0.697265         2.41671
LJ           2.19656        0.538962        -2.31173
LJ          0.654272        -2.29986         1.93415
LJ           0.41682        -1.87007        -0.46606
LJ           1.20207       -0.236055         -1.9697
LJ              -nan            -nan            -nan
LJ          -1.08403        0.204149       -0.722264
LJ           1.92712       0.0190689        -1.87807
LJ          -2.21877        -0.60941       -0.621736
LJ          -1.10329        0.464143       -0.781478
LJ          -0.79024        -1.59558         1.75768
LJ          -0.79437        -2.25627        0.615079
LJ          0.646612        -2.25524       -0.469042
LJ           1.68752        -1.19839        0.651322
LJ           2.34302        -1.80163        -1.19201
LJ            2.1924        -0.59251       -0.217292
LJ           2.08581       -0.458495        0.679959
LJ          -2.50215        -1.05057         2.16198
LJ          -2.20635        -2.06313       -0.952287
LJ         -0.453522       -0.865672        0.660515
LJ          -2.31436         1.20599         2.27573
LJ          -1.09074         2.04703        -2.18148
LJ              -nan            -nan            -nan
