108
#Comment!
LJ          -2.27373        -1.43495       -0.857117
LJ          -1.54218        0.893468       -0.968626
LJ          0.176462        0.601468        0.398489
LJ          0.101126        -1.29142        -1.50504
LJ            1.0327        -2.03157        0.581662
LJ          0.306741        -2.17446        -0.51785
LJ         -0.520604         1.89551          1.7201
LJ         -0.661399        0.795799      -0.0896961
LJ           2.02561         2.23734         1.14494
LJ          -1.84136        0.188997        0.776752
LJ              -nan            -nan            -nan
LJ           1.40817         2.12361       -0.875963
LJ         -0.555125         1.28926         1.88155
LJ              -nan            -nan            -nan
LJ           1.65428        0.384167         1.67483
LJ              -nan            -nan            -nan
LJ              -nan            -nan            -nan
LJ              -nan            -nan            -nan
LJ         -0.275984         1.60124        0.192252
LJ              -nan            -nan            -nan
LJ       -0.00897875        0.115306        -1.80186
LJ          -1.90061        -1.43993         2.32161
LJ            2.4485        0.862255       -0.152116
LJ            1.1312       -0.228601        -2.52902
LJ            2.4592         2.07486        -1.77889
LJ         -0.251453        0.903381       -0.195878
LJ         -0.402808        0.599963         2.35505
LJ            2.1352       -0.458479       -0.412314
LJ          0.511402       -0.631122         1.27788
LJ          -1.22172         1.87005        -1.96679
LJ              -nan            -nan            -nan
LJ          0.142643         2.12174        -2.31055
LJ              -nan            -nan            -nan
LJ           1.09172        -2.36131         2.41937
LJ              -nan            -nan            -nan
LJ          -1.46472        -1.75778        -1.45738
LJ          -0.46685        -2.43142         -2.0892
LJ         -0.504159        -1.84004        -1.55312
LJ          0.781158         2.13171       -0.532458
LJ         -0.210104        -2.18295        -1.54865
LJ           2.10297         1.06721        -1.76207
LJ           1.32657        -1.33621         2.06138
LJ          0.125303        -2.27138         1.38836
LJ          0.730512        -1.84206        -2.24813
LJ          0.745883         1.82254        -1.85837
LJ         -0.535639         1.00693       -0.197181
LJ          -1.34971         2.26345       -0.466142
LJ           2.21641         -1.3743         2.47259
LJ          -0.47465        -1.60937        -1.11724
LJ         -0.820537        -2.10131      -0.0156455
LJ          -1.17598         0.76534        -1.76883
LJ         -0.216992         1.60286        -1.45596
LJ              -nan            -nan            -nan
LJ          -1.88507        -2.07312         2.39876
LJ          -2.42201         1.84373         1.57968
LJ          -1.90627       -0.363527         2.28997
LJ          0.284682         2.09929          2.2132
LJ           1.85369        -2.28775        0.414675
LJ          0.635445        0.680432       -0.172374
LJ          -2.22065       -0.142025        0.150162
LJ           2.01289         1.30984        -1.45001
LJ          -2.54838         -2.3647        -1.60107
LJ        -0.0374468        0.511358        -0.31511
LJ          -1.98635        -1.96074        -1.76729
LJ              -nan            -nan            -nan
LJ          -1.33224        -2.30471        0.841604
LJ          0.723498         1.71069      -0.0777676
LJ              -nan            -nan            -nan
LJ         -0.593127         2.00815       -0.354876
LJ          0.455234        -1.23302        -2.28488
LJ         -0.229096         2.47865        -0.88136
LJ         -0.438055       -0.224534         2.28467
LJ          -1.74317        -1.76688         1.72834
LJ          -1.85193        -2.20367          1.4598
LJ          0.757849         2.09616         2.04196
LJ           -2.3664         1.11906       -0.621688
LJ       -0.00745751        -1.50865        0.146061
LJ          -2.49143        -1.81611       -0.398193
LJ          -2.21519        0.799914        0.171553
LJ           1.33246         1.73119        -2.40472
LJ          0.487862          1.2096       -0.659128
LJ          0.283563        -2.22194         1.19863
LJ          -1.25047         2.48255         2.03919
LJ          -1.14315         1.10481        0.108064
LJ          -1.50993       -0.705405          -2.338
LJ           1.06911         2.46716        0.107409
LJ         -0.507785        0.502617        0.234892
LJ         -0.253924        -1.28197        0.877655
LJ          0.102352       -0.611513       -0.188929
LJ           1.25601        -1.13608         1.13843
LJ              -nan            -nan            -nan
LJ            2.1355        -0.28622        -2.06805
LJ          0.358814         -1.1859       -0.439172
LJ           1.19255         1.06876        -1.80507
LJ           -1.9772        -1.69441        0.378343
LJ         -0.144592         1.18084         -1.8939
LJ          0.387156         1.94532       -0.911606
LJ         -0.607026         1.33754         1.92703
LJ              -nan            -nan            -nan
LJ         -0.233642         2.39026         -1.2388
LJ           2.10433        0.771035         1.45657
LJ          0.457142        0.445936        -2.42217
LJ           1.84454         -2.2229        -1.24807
LJ        0.00455337        -1.81717         1.41947
LJ              -nan            -nan            -nan
LJ        -0.0992445         1.43499         1.68733
LJ           2.49799        -1.36623         1.88771
LJ              -nan            -nan            -nan
