108
#Comment!
LJ           2.16682        0.812859         2.55409
LJ         -0.686125       -0.722803       -0.526964
LJ         -0.415734        -2.24156         2.18732
LJ          0.393334         2.02334         0.92576
LJ           1.88726        0.681809       -0.210938
LJ          -1.10462         1.30837       -0.564237
LJ          0.186412         1.83174         1.20533
LJ           1.20481         1.51053         1.98856
LJ         -0.818158        -1.43583        0.925569
LJ          -2.36203         -1.6688         1.76937
LJ              -nan            -nan            -nan
LJ           2.45745       0.0878227        -2.40207
LJ           0.24939       0.0866161         2.47772
LJ              -nan            -nan            -nan
LJ           1.11956        0.905317        -2.42893
LJ              -nan            -nan            -nan
LJ              -nan            -nan            -nan
LJ              -nan            -nan            -nan
LJ          -1.59166        -2.25405         2.43826
LJ              -nan            -nan            -nan
LJ         -0.141846       -0.418786        -1.60418
LJ         -0.378195        -2.27958        -1.58047
LJ          0.522014      -0.0528255       -0.049932
LJ              -nan            -nan            -nan
LJ         -0.162917        -1.66114         1.86267
LJ         -0.340264        0.258431      -0.0847496
LJ          -2.34367      -0.0119357        0.907936
LJ          -2.20179        0.952939        0.382942
LJ          -1.91468         -1.0009        -1.17849
LJ           1.26074         2.40573       -0.472101
LJ              -nan            -nan            -nan
LJ           2.45308         2.37259        -1.56269
LJ              -nan            -nan            -nan
LJ         -0.757128        0.638756        0.345908
LJ              -nan            -nan            -nan
LJ          -1.29995        -1.42474        -1.32862
LJ         -0.521182        -2.25104         1.93498
LJ          -2.19826         1.27972        -2.40198
LJ          -1.67434        -1.46339        -1.79054
LJ         -0.835584          2.4843       -0.695277
LJ          0.220472        -2.11392         2.21405
LJ         -0.264864        -2.13307       -0.503114
LJ          0.669796         2.54947         2.32891
LJ           -1.7294         1.25804          2.2782
LJ          -2.41689        -1.96247        -1.97752
LJ           -2.1342         0.86233         1.84854
LJ           2.33122        0.106223       -0.250427
LJ           2.01672        -2.45743         0.91102
LJ          -2.16098       -0.347521        -0.89724
LJ          -2.22454       -0.929151         1.84008
LJ           -1.2232        0.570879      -0.0502875
LJ         -0.599213        -2.45886         1.86143
LJ              -nan            -nan            -nan
LJ            2.2625       -0.956664       -0.509621
LJ          -1.73704        -2.54061         2.25684
LJ         -0.975415       -0.176066       -0.438788
LJ          -0.16419       -0.249352         1.49315
LJ           -2.3352         2.00481        -0.70854
LJ        -0.0650217         1.15894       -0.654848
LJ          -1.11505         1.39213         0.70524
LJ          -1.14662         1.47155        -1.23951
LJ          0.869636        0.386618        0.120263
LJ          -2.36222        0.944779       -0.470945
LJ              -nan            -nan            -nan
LJ              -nan            -nan            -nan
LJ           0.95008          1.3067         2.27696
LJ           1.17069        -1.40391       0.0097518
LJ              -nan            -nan            -nan
LJ           1.60268         2.55581         0.01042
LJ           2.11702    -0.000193958      -0.0415474
LJ        -0.0380109         1.51967        -2.03425
LJ           1.91978         -2.1182        -1.43094
LJ         -0.368842       -0.743695         1.03053
LJ          -1.60112        -0.45445         2.21505
LJ          0.526804        -1.68603          1.4815
LJ           2.53292         2.52591        0.320365
LJ          -1.88103        0.317907        -1.49771
LJ         -0.743962       -0.805128       -0.962754
LJ           1.35012         1.07329         1.64031
LJ           2.38517        0.478138         -2.4527
LJ           1.25027         -2.4907         2.46339
LJ            2.4698       0.0729697        -2.13606
LJ          -2.20574        0.807912        0.351964
LJ          -2.11591         1.68321          -2.317
LJ         -0.680254        -1.20071        -1.51865
LJ          -0.78047       -0.897997        0.752945
LJ          0.465708        -1.16371        0.884207
LJ          -2.02259         2.39306        -1.28177
LJ           1.69526        -2.05196        -1.82566
LJ           1.18872         1.25756         1.39471
LJ              -nan            -nan            -nan
LJ         -0.466494        -2.28732        -1.66116
LJ            1.0382        0.561575        -1.44914
LJ          0.838395         1.43436        -2.05245
LJ          -2.17836       0.0951333         2.47529
LJ          -1.97459        0.569003         1.67813
LJ          0.321816       -0.482607        0.498218
LJ          -2.49385         1.63555        -1.87126
LJ              -nan            -nan            -nan
LJ           -2.4214        0.405321        -0.62466
LJ           1.40919         1.27436       -0.958683
LJ          -1.88599         1.71247        -1.73135
LJ           2.36482       -0.410674        -0.10808
LJ          -2.39132         -1.3677         1.96639
LJ              -nan            -nan            -nan
LJ           2.11007      -0.0715759       -0.342242
LJ          0.433738       -0.509129       -0.650383
LJ              -nan            -nan            -nan
