108
#Comment!
LJ         -0.346047        -1.28876         -1.3672
LJ           1.42954         2.01357         1.50382
LJ           1.75415        -1.90331         1.30703
LJ          0.694114        0.730935        0.484693
LJ          0.737185        -2.31291        -2.50462
LJ         -0.439135         0.29753       -0.257918
LJ           1.09631         0.65701        -2.26036
LJ           1.49732        -0.99032        0.355779
LJ            1.3876        -2.06947         0.12184
LJ         -0.167556       -0.639309         -1.6219
LJ              -nan            -nan            -nan
LJ           1.89567        0.277977        -1.06272
LJ          -1.63412        -1.84999        -2.40627
LJ          -0.57729         2.55949         0.22275
LJ          0.507934        -2.06239         -0.7511
LJ            1.7521        0.737636        -2.51816
LJ              -nan            -nan            -nan
LJ              -nan            -nan            -nan
LJ          0.991999         1.17484        -2.22326
LJ              -nan            -nan            -nan
LJ          0.645537       -0.869587        0.892487
LJ         -0.242047        -2.17715        0.725445
LJ           1.78587        -2.37383        -2.49278
LJ           1.99586        -1.96414         1.54293
LJ           1.92363         2.09073         1.90727
LJ           1.24587        -2.39197        -1.11896
LJ          -1.68207          -2.203         1.52397
LJ          -1.96995         1.41357        -1.86116
LJ          0.725354        -1.37552        -1.98846
LJ          -1.09612         1.16417        0.502563
LJ         -0.700539        -1.01444         2.15024
LJ           1.54118        -2.35209        -1.96276
LJ              -nan            -nan            -nan
LJ           1.17459        -1.34742       -0.782371
LJ              -nan            -nan            -nan
LJ          -1.90698        -2.05875          2.4801
LJ          -0.54385        -2.33391         1.61663
LJ          0.925274          1.7533         1.09896
LJ         -0.630268        -1.20716         1.72111
LJ         -0.777671        0.368517        0.162973
LJ           2.54538         0.90731        -1.01112
LJ          -2.02321        0.662723        -2.13071
LJ           0.98312        0.350523          2.4854
LJ           1.52137         1.82776       -0.128238
LJ          -2.20976        0.875801         2.54959
LJ           2.38894         2.12239        -1.75013
LJ            1.1394         1.78257       -0.809892
LJ          -2.18237        -1.98015         2.06579
LJ          0.707175        -1.65843         1.13859
LJ          -2.34289     0.000445795         1.59318
LJ          0.713058        -1.49694        -2.41854
LJ           -2.3281         2.40961        0.320519
LJ              -nan            -nan            -nan
LJ          0.232807        -1.72605        -0.97847
LJ         -0.549416        0.196666        0.727313
LJ          -1.68537        0.144354         2.32684
LJ           2.42511         1.13309         1.92969
LJ          0.219539       -0.529194         2.56005
LJ          -2.18294        0.600234        -1.28972
LJ           1.50049       -0.838106       -0.148377
LJ           1.53282          1.8627      -0.0390928
LJ          -1.44992       -0.661883        -1.80421
LJ           1.30584         1.76868         1.34024
LJ          0.214362        -2.22248         1.98367
LJ          -2.45673       -0.579949        -1.62555
LJ           2.47209        -1.48648        -1.76176
LJ           2.47723        0.642618         -1.4376
LJ              -nan            -nan            -nan
LJ          -1.64325        -2.54035       -0.399223
LJ          0.431678        -1.95676         1.04632
LJ          -1.34086       -0.492267       -0.833479
LJ          -1.29299         1.95787       -0.598841
LJ         -0.763014        -2.42583       -0.782101
LJ          -1.24597       -0.547371         1.05266
LJ         -0.851926         1.37368       -0.797401
LJ           1.44468        0.660788         1.33372
LJ           -2.0908        -2.21665        -2.30385
LJ         -0.267485          -1.358        0.231108
LJ         -0.299003         0.53036         1.62734
LJ          -2.38148         1.98671       -0.158198
LJ           1.56445        0.934952       -0.279989
LJ        -0.0628353         2.16338        -2.01112
LJ          -2.01546        -2.27346        0.895874
LJ           1.61222        -1.50424         1.08789
LJ          -1.28456        -1.98685       -0.229563
LJ          0.656724        -1.14995        -1.05945
LJ           1.74185        0.990902         1.73983
LJ            1.4349         1.10687        -2.15853
LJ           1.00938       -0.226951       -0.619788
LJ          -2.15491         2.12528       -0.170998
LJ              -nan            -nan            -nan
LJ           2.55003        0.652342       -0.628586
LJ           2.47923        -1.41802       -0.486506
LJ           1.02382         2.46205       -0.146997
LJ          -1.76538        0.366636         2.46195
LJ           1.37449         1.62773         1.53258
LJ          -1.84222       -0.871042        -2.28253
LJ          -1.44898        -1.17844        -1.05995
LJ           1.09135       -0.942741        -1.95148
LJ          0.831845       -0.501328         -1.3374
LJ           1.91202        -2.34463         2.49776
LJ           2.18392        0.975121       -0.133225
LJ           2.49782        -1.89259        -1.08298
LJ          -1.56453        -2.48432         1.32611
LJ             1.276         2.47448         2.41986
LJ          0.939794        -2.30403        -1.65709
LJ          -1.33995        -1.29232        0.371166
LJ              -nan            -nan            -nan
