108
#Comment!
LJ         -0.185414       -0.873516         2.16287
LJ          -0.45789       -0.479231         1.52266
LJ         -0.609884        0.330848       -0.600844
LJ          0.162048        -2.26148        -2.33071
LJ           2.50646        -1.60476          1.9046
LJ           2.20678       -0.755842        -1.51642
LJ          -1.09182          0.4698       0.0928633
LJ         -0.225964         2.38842         2.00947
LJ           -2.1899         1.41505         1.48353
LJ          -2.42654         2.22741        -2.29376
LJ           2.08168       -0.430808         1.87087
LJ          0.825922        0.168611       -0.652342
LJ          0.812708       -0.837782        0.901267
LJ          -1.98835        -1.44606       -0.529319
LJ           1.66733        0.233715         2.13284
LJ          -0.97834         2.28544        -2.50638
LJ          -2.31724         1.89867        -0.87619
LJ          0.472422       -0.897528       -0.570546
LJ           1.63043         2.11349          1.8931
LJ           1.36592         1.81066         2.18414
LJ         -0.561669         2.51685         1.06647
LJ           1.60367         1.04154        -2.53689
LJ         -0.179987        0.873759        0.965862
LJ        -0.0206756        0.146998       -0.734662
LJ          0.681154       -0.686024      -0.0429244
LJ          0.808241        0.431842      -0.0447214
LJ          0.564394        -2.23909        0.314048
LJ         -0.282006        0.177415        -1.15794
LJ          -2.52213         2.53617        0.640432
LJ          -1.89239          2.3589       -0.585363
LJ         0.0631766         1.97472          1.4815
LJ          0.522776      -0.0212578        0.853229
LJ          -2.51572       0.0682885        -1.11465
LJ           2.04074        -2.46243       -0.408521
LJ         -0.394211        -1.41805         2.19671
LJ         -0.745002        -1.64491         2.55201
LJ           1.92611        -1.62281       -0.730514
LJ          -2.39525         1.03034         -1.5135
LJ         -0.853459         1.00271        0.867585
LJ         -0.424469         2.54041         2.14716
LJ           1.93963        -2.34381        -0.24302
LJ          0.266212       -0.648563       -0.484372
LJ          -2.44805        0.395734        -2.46438
LJ          0.831674        -1.51108         2.09223
LJ           2.09851        -2.07205          1.6484
LJ         0.0520224       -0.993714        0.569781
LJ          -1.28914        0.617356         1.44934
LJ          0.942663         1.02721       -0.631345
LJ          -1.98858         2.25465         2.12292
LJ          -1.58474        -2.46003        0.957891
LJ         -0.981709         1.41223         2.12576
LJ           1.97237         2.53317       -0.831774
LJ           1.02354        0.565839        0.541043
LJ           2.24401         1.91581        -1.60472
LJ           1.40348        0.161249         2.27608
LJ           1.73876        -2.52288        0.338072
LJ           2.29443         1.84589         2.30149
LJ          0.597324         1.70405        0.946779
LJ          -1.67926         1.56869         1.99544
LJ          0.357317        -1.57322         1.98892
LJ          0.409578        0.222535         1.70747
LJ          0.423718        -1.42725         1.87586
LJ          -1.48508        -1.28357         1.20248
LJ          0.755546         2.42998        -1.80565
LJ         -0.695069        -1.25229        0.929048
LJ            2.2211        0.324216        -1.09215
LJ           2.15629        0.690671         2.04815
LJ           1.20828         -2.3006       -0.230889
LJ          -1.18766         0.25968        -0.31472
LJ          0.212107        0.211891       -0.439732
LJ          -1.34427        -2.06148        0.295029
LJ         -0.893477        0.139625         0.99041
LJ           1.63478         1.44898         2.42069
LJ         -0.245042        -2.39522        -1.68788
LJ          -2.55887        -2.29071          2.4577
LJ           1.62841        -2.19708         0.42826
LJ           1.26269          2.3804       -0.685888
LJ          -0.32164         -2.3734        -1.81648
LJ           1.80089        0.107817        -1.79127
LJ        -0.0130015         0.26426        -1.06065
LJ          -1.94056        -1.56613      -0.0279286
LJ           1.29124        -1.55012       -0.991134
LJ           1.53535         2.46223        0.982363
LJ          -1.76725         1.00796         2.21257
LJ           1.65895         1.78482        -1.62572
LJ            1.6143       -0.773442        -0.59793
LJ          -1.87393         2.11162        0.425301
LJ          0.318943         2.43651        -2.41714
LJ          -2.44767         1.50165       -0.312637
LJ          0.672501       -0.227743       -0.253347
LJ           1.22866       -0.925637       0.0362099
LJ           1.05973        0.436056        -1.93293
LJ         -0.529081       -0.964681          1.2555
LJ          -1.40214         1.62182        -1.29097
LJ          -1.07937         2.32937        -2.52211
LJ           1.57809        -2.12446         1.40423
LJ         -0.116912       -0.808296       -0.604913
LJ          -1.93642        -1.07484        -2.42889
LJ         -0.634835         1.17001        -1.97497
LJ         -0.161728       -0.967415        -1.93574
LJ        -0.0170194        0.645421         0.34198
LJ          -1.42796       -0.139137        -1.62567
LJ          -1.48303        -2.55965        -1.09777
LJ         -0.325263         1.11116        -1.80639
LJ          0.729994        -1.71312       -0.990314
LJ          -2.39896         1.35169         2.49672
LJ          0.179233        -1.99156        0.421328
LJ          -1.30464         0.43637         2.54647
