108
#Comment!
LJ            1.3687        0.785276        0.924948
LJ           1.41912        -1.01965      -0.0619157
LJ          -0.55107        -2.00453        -1.37315
LJ          -1.79115         1.41086        0.743134
LJ           2.23765         2.13617       -0.724167
LJ           1.01361        -1.77206        0.585512
LJ         -0.226748        -2.36165         1.69278
LJ           1.64263        0.152095         0.57914
LJ          -1.77251        -1.00871        -1.53328
LJ         -0.941502        0.890805         1.90276
LJ              -nan            -nan            -nan
LJ        0.00430615        -2.13008        -1.67355
LJ           2.08199      -0.0968176         1.50982
LJ           1.67348        -1.86953        -1.02435
LJ          -1.69108      -0.0027554        -1.08159
LJ           1.20594         1.34194        -1.39817
LJ              -nan            -nan            -nan
LJ              -nan            -nan            -nan
LJ         0.0255792        -2.28908       -0.645235
LJ              -nan            -nan            -nan
LJ          -1.34438         1.48848        -1.01856
LJ         0.0543885        -2.42845        -1.32857
LJ          -1.18612        -2.36835        -1.68131
LJ          -1.37196        0.838344       -0.984092
LJ             2.135        -1.91518        -1.46949
LJ          0.630434        -1.74213        -1.40829
LJ          -2.00152        0.949603       -0.415902
LJ          0.947264      0.00271961        -2.47653
LJ         0.0577046      0.00814715       -0.334332
LJ           1.27466        0.488855        -2.27157
LJ           1.82331        -1.86415         2.24016
LJ           1.70211        -1.65117        0.819503
LJ              -nan            -nan            -nan
LJ          -1.63862         2.34214        -2.08837
LJ              -nan            -nan            -nan
LJ         -0.626832       -0.595152         1.66421
LJ         -0.527956       -0.998338       -0.690682
LJ          0.321804        0.792531        -2.53401
LJ          0.667345        -1.37328        0.959288
LJ         -0.635208        0.286255       -0.949032
LJ           2.36305        0.153951        -1.74743
LJ          -1.89416       -0.858726        -2.41061
LJ           1.42972        -2.12599         0.64939
LJ          -1.74828        0.664039         1.08692
LJ           2.51838       -0.145131         2.38994
LJ          0.660995         2.22391         1.60805
LJ         -0.941233         1.65331        -1.83958
LJ          -1.60174      -0.0775622         2.39434
LJ         -0.434291        0.501412        -2.11104
LJ          -1.64025         -1.4652       -0.667772
LJ           2.33029       -0.255762       -0.566648
LJ           1.99703        0.331795         1.55635
LJ              -nan            -nan            -nan
LJ         -0.349426       0.0260627        -1.31549
LJ          -2.38572        -2.56202        0.554969
LJ           1.98499        0.507879       0.0644274
LJ          0.838446        -1.05254       0.0803227
LJ          0.243159        -2.48182         1.97091
LJ          0.775796       -0.123824        -1.42348
LJ           1.72637       -0.911589         1.98211
LJ         -0.106974       -0.782288       -0.438962
LJ           -2.2046        0.353559        0.754413
LJ         -0.757002        0.492631        0.280353
LJ          0.234527         1.52043         1.22725
LJ           1.87301        -2.38176        0.287084
LJ           1.95346           1.179       -0.209198
LJ         -0.423608         2.47458         1.71265
LJ              -nan            -nan            -nan
LJ          -2.13425         1.47586        -2.27414
LJ         -0.132766         2.03484        -1.18616
LJ           2.23902        0.672295        -1.66043
LJ          0.330359         1.90279         2.54969
LJ         -0.566901        0.920118         2.17958
LJ          0.368725         1.90701        -1.93798
LJ          0.326037        0.376299         2.08212
LJ        -0.0230848        -2.22741        -2.12383
LJ          -1.92941         1.48517        -1.61721
LJ         -0.190262         1.14812         2.21984
LJ          0.963148         1.46272       -0.347273
LJ           0.28606        -2.35506         2.48272
LJ           -2.2221       -0.915454        -2.33315
LJ          0.648795       -0.287677        -1.39143
LJ          -1.84963        -2.11241         2.47285
LJ         -0.340214         2.06763         1.34947
LJ         -0.707526         1.53461        -1.39601
LJ          0.883117      -0.0160869       -0.704376
LJ         -0.095123         -2.3426         -1.9692
LJ           -2.2707       -0.368124         1.87069
LJ          -1.34445        -2.10272        -1.84902
LJ          -2.07304       0.0404059        -2.03784
LJ              -nan            -nan            -nan
LJ           2.22719         1.50067       -0.312761
LJ          0.957145          1.3766        -1.67218
LJ           1.28904          1.5061         1.78317
LJ           1.79072        -1.87118         -1.9668
LJ          -2.52853       -0.555474        -2.31817
LJ          0.223769       -0.985881        -1.20412
LJ           0.13574         2.35582         2.27591
LJ          -1.49866        -1.13094          -1.882
LJ          -2.34938        -1.38688        -2.45315
LJ           1.86714        -1.84747        -1.66425
LJ         -0.506502       -0.574573        -1.84947
LJ           1.19137         -1.4924        -0.97781
LJ           -1.0637          2.0946         1.12126
LJ          -2.38834       -0.968744        0.495183
LJ         -0.133175       -0.705265        0.100359
LJ          -2.47239       -0.116565        -1.75048
LJ              -nan            -nan            -nan
