108
#Comment!
LJ       -0.00558379        -1.61512        -1.74929
LJ         -0.939347         2.08048        -1.69994
LJ          -2.43667         2.17509        -1.72532
LJ          -2.38164        0.718012        -1.62697
LJ           1.44057        -2.47506       -0.195527
LJ          -1.99187         1.47241       -0.546493
LJ         0.0232942       -0.532495        0.543384
LJ         -0.321947         1.18574       -0.574032
LJ        -0.0392521        -1.11645         2.56099
LJ           2.44813        -2.15103         1.63013
LJ          0.278027        -1.58021        0.724667
LJ           2.38997        -1.74821       -0.683929
LJ           0.25009        -2.33191          1.2846
LJ           1.27325        -1.25508       0.0423077
LJ         -0.936986        0.563293        -1.68024
LJ           -1.1175        -0.48224         -2.1728
LJ          -1.66614         1.08833       -0.874449
LJ          0.446892       0.0220807       -0.285222
LJ          -2.39459         1.00312          1.9267
LJ          0.126475        -1.39762         1.97018
LJ          -1.77344       -0.138303         2.26869
LJ           1.15824       -0.347266        -1.02523
LJ          0.758234         1.77918       -0.346143
LJ          0.370512        -1.43501        -2.39533
LJ         -0.713452        0.134003       -0.342953
LJ          -1.61762        -2.44834       0.0921444
LJ          0.947427        0.723029         1.05905
LJ          0.619661        -1.93635          1.2739
LJ         0.0294691         1.74608        0.731433
LJ           2.48288        -2.05311       -0.671018
LJ          -1.86999        -1.06853        -1.64553
LJ          -1.54878        0.309951       0.0750479
LJ           1.18691         1.76574         2.33391
LJ          0.350198         1.33968         2.22198
LJ          -2.49372        0.498913         -1.4626
LJ           -1.1801         1.01803        0.864719
LJ           1.22664       -0.352073         1.94689
LJ          0.183633        -1.33179       -0.423332
LJ          0.989297        0.620598       -0.739173
LJ           1.83815       -0.406951         2.07053
LJ         -0.776566         2.44018        -1.43582
LJ         -0.296174        -1.68947       -0.191854
LJ           1.90159         2.17955        -2.35658
LJ         -0.703161       -0.854971       -0.671114
LJ           -1.1592         2.02083         2.01423
LJ          0.970075        -1.88436         1.26456
LJ           1.99825         1.73799       -0.442675
LJ          0.698895        -2.06224        0.189196
LJ          -1.05058        -2.41282        -2.46771
LJ          -0.42775         2.17063       -0.151473
LJ          -1.36654       -0.122704        0.785525
LJ          0.499769        -1.80667         1.12718
LJ         -0.411672        -1.91451        -1.64408
LJ          -1.85248         -2.4301        0.577549
LJ          -1.16583        -1.19834        -2.13122
LJ          -1.98665         2.09132        -1.19848
LJ          -2.36114          2.2391       -0.475562
LJ         0.0133893         1.58035        -0.64837
LJ         -0.210899        -2.38497         1.49207
LJ          -2.46685         1.75672        -1.46826
LJ          -1.02548         1.63764          2.1327
LJ           2.12686        0.488563         2.09415
LJ           2.32111        -1.32841        -1.10973
LJ         0.0372076       -0.185072        0.891231
LJ            1.4568       -0.759713        0.879271
LJ          -2.29041        -1.87213        -1.52759
LJ          0.143474        -1.75075       -0.778301
LJ           2.18455        0.267604        -1.17386
LJ         -0.185208      -0.0608357        -1.45824
LJ           1.18544      -0.0379818         1.92242
LJ          -2.00884        -1.58489        0.322824
LJ            1.2945         2.31201        0.222955
LJ          -2.15689       -0.708288       0.0351542
LJ          0.813219         1.18568          2.3419
LJ          -2.44793       -0.663423         2.38279
LJ           2.41518         2.50781        -1.32609
LJ          0.170303      -0.0369368        -2.23849
LJ          -0.82458          1.4523         2.07932
LJ          -1.09235         2.04198         1.52366
LJ          -1.12251         0.24454         1.66043
LJ        -0.0769362       -0.771815       0.0464262
LJ          0.565176        0.637217       -0.907118
LJ          -2.03516        -2.26691         1.42929
LJ          -2.27251       -0.665555         1.51088
LJ           2.55382         1.94531        -0.15057
LJ          0.941149         1.48248       -0.918108
LJ         -0.901175        -0.15706        -2.08543
LJ          -1.19695       -0.876627         1.48128
LJ          -1.18277        -1.16633       -0.568612
LJ           1.65141        -1.91091         1.20854
LJ         -0.802159         1.35435         1.28389
LJ           1.70823         2.46051         1.76516
LJ          0.984271        0.706174    -0.000607693
LJ          -1.86486         1.66588        -2.43763
LJ           1.77556        -1.00682       -0.368801
LJ          -2.19683        -1.15673        0.302466
LJ          -1.93613       -0.976036       -0.934349
LJ          -1.43568         1.66036       -0.367072
LJ           2.00346        0.120347        0.824545
LJ          -2.48438         2.35281        -0.38871
LJ            0.4591        -1.98846       -0.582303
LJ          -1.08392         1.16808       -0.520513
LJ          0.284866         1.82733        0.117845
LJ           -2.2959        -2.22547        0.984175
LJ           2.47404       -0.331827        -1.65016
LJ           0.80791        -1.36696        0.827201
LJ           1.38291         2.07151         2.52042
LJ            -2.319        0.611404        0.146812
