108
#Comment!
LJ         -0.360875          1.3255        0.653367
LJ           1.72808        -2.37526        -1.11829
LJ          -2.04023         1.54114        -2.26845
LJ           1.51286        0.414485        -2.39921
LJ           2.52239        -2.04719       -0.949207
LJ          0.203565        -1.85959      -0.0456628
LJ          -2.52781         -1.6449        -1.55868
LJ           1.93228        -1.22471        0.322185
LJ            1.2829        0.367838         1.57788
LJ          -1.00032       -0.907662         1.69347
LJ              -nan            -nan            -nan
LJ          -2.48615       0.0152175        0.338576
LJ          -1.17953        -1.20905        -1.26766
LJ           1.34643       -0.487139          -2.148
LJ         0.0324747         2.18392        -0.82071
LJ           2.25855        -2.39169        0.397934
LJ           1.91895        -1.03089         1.52299
LJ          0.945427        0.529443         1.61941
LJ           -1.9891         1.22663         1.36985
LJ           0.97931        -2.10152         1.53594
LJ           1.99798         2.15912         1.52922
LJ           1.24245        -2.44906        -1.66725
LJ          0.852997       -0.877948         1.45033
LJ           -0.2502       -0.471799          1.2128
LJ          0.939009         2.50148        -2.22765
LJ          -2.22519       -0.899878       -0.935621
LJ           1.47068        -2.52393        -0.90227
LJ          -2.43862        -1.05896        -2.23176
LJ           2.09427         2.06789        -2.35818
LJ          -1.95573         2.37406         1.89399
LJ           0.91275        -1.34003         1.26872
LJ          -2.54052        -1.42375       -0.235594
LJ              -nan            -nan            -nan
LJ           1.02799        -1.72189         0.79912
LJ         -0.548525        -1.63851         1.25203
LJ           2.40275         1.64015        -2.23052
LJ            -1.377         1.24784       -0.692194
LJ         -0.941983        -2.54637        -1.87201
LJ           2.44477       -0.750688        -1.54434
LJ          0.519764        -2.00218          -1.007
LJ          -2.03981        0.944747         1.30477
LJ         -0.402621       -0.993273         1.65638
LJ           1.68834         1.01957        -1.38644
LJ          -1.33928        -2.10854        -2.01464
LJ          -2.46984      -0.0617452        0.978954
LJ         -0.705425         2.45422       -0.887079
LJ         -0.144447        0.959135        0.423674
LJ         -0.697578        -1.21977       -0.739086
LJ          -2.34176        -2.30649         2.46935
LJ          -1.01051        -1.68898       -0.358694
LJ           1.66081       -0.868778        -1.10784
LJ           2.35638         2.04223        -0.67296
LJ         -0.208552        -1.18426         1.32365
LJ           2.54688       -0.495644        0.402399
LJ          0.907485        -2.14757         -1.2824
LJ         -0.856137         1.70972         2.40357
LJ           -1.0839       -0.365447        -0.14205
LJ           1.59861         -1.0365         0.57988
LJ           1.06687         2.20991        0.580163
LJ            1.6254       -0.113972        -1.66835
LJ          -2.21963        -1.05624         2.09285
LJ           2.19319        -2.41953        -2.43151
LJ          -1.16442        0.459661        -1.88696
LJ          0.599725          1.2371        -1.01354
LJ          -2.03534        -1.27046           2.231
LJ          0.233464         1.38208       0.0122372
LJ          -1.06479         2.21188       0.0898509
LJ           2.18768         1.88649         1.48221
LJ           1.10934         1.48601        -2.28481
LJ          -2.33238         -1.6764        -0.49907
LJ           1.19714     -0.00695006        0.994348
LJ         -0.170733        -1.62505        -1.22472
LJ          0.950905        -2.01573         0.34677
LJ          -1.19889         1.03372        -2.20787
LJ           1.38338         2.41173         1.24302
LJ         0.0160851        0.952425         1.01254
LJ           1.57897        -2.51781         2.30193
LJ           1.56933        0.757605        -2.35211
LJ           -2.1928        0.563461       -0.547986
LJ         0.0833449         2.25624         2.36991
LJ           1.77017       -0.110636       -0.981851
LJ         -0.992699        -1.77873         2.14677
LJ           1.64108         1.02782        0.947652
LJ           1.35444       -0.906884         1.31911
LJ          -1.89086       0.0963467         1.65386
LJ         -0.298048        -1.29323        -2.41244
LJ           1.56855          2.3792         2.22895
LJ           2.15457        -1.62619       -0.349323
LJ        -0.0692504        -1.25786        0.320457
LJ           2.44993       -0.151701         1.23105
LJ          -1.93232         1.42631        -2.12365
LJ          -1.75875        -1.88248        -1.30303
LJ         0.0532428         1.48088        -1.96752
LJ          0.771794         1.17477         -1.1069
LJ         0.0529327       -0.967889       -0.325662
LJ           1.08778         1.05278       -0.397143
LJ             2.525        0.601755        -1.11308
LJ          0.832806        0.052997         2.11006
LJ           0.59306        -1.01131       -0.634159
LJ           1.47611       -0.475923       -0.282667
LJ          0.615336        -2.36283        0.167246
LJ           1.65594        0.801217        -2.40888
LJ          0.734799         2.02802         1.51484
LJ         -0.638504        -1.91164         2.23832
LJ           1.96668        0.376653        0.835549
LJ           1.87991        -1.03253       -0.684594
LJ           1.22601         1.03486        0.781943
LJ          -2.03153        0.479942        -1.86209
