108
#Comment!
LJ         -0.861239       -0.351755       -0.884869
LJ          -1.95911        -1.93916        -0.60318
LJ          0.951877        0.472351         2.01411
LJ           1.71792         2.19665         1.62038
LJ           2.14069        0.738823          1.9629
LJ            1.8589        -2.39375         2.22903
LJ          -2.45363         1.25453         2.37334
LJ         -0.362378         1.27611         -2.3244
LJ          -1.59988         1.11987        -1.03195
LJ          -1.79988        0.472519        -1.22965
LJ              -nan            -nan            -nan
LJ         -0.398106        0.229159         1.26162
LJ          -1.75355         2.19267         1.77358
LJ          -2.50265        -1.92014       -0.985033
LJ          -1.30262       -0.882307        -1.62101
LJ           1.69761       -0.207177        -2.23126
LJ              -nan            -nan            -nan
LJ              -nan            -nan            -nan
LJ          0.287099       -0.272375         1.85558
LJ              -nan            -nan            -nan
LJ          -2.44002         -1.2413        0.155975
LJ           1.34466       -0.609957        -1.42354
LJ         -0.783587         1.82052       -0.267006
LJ          -2.52657        0.550958       -0.555778
LJ          0.856293          1.3998        -1.66272
LJ           2.35421         2.03304        -2.09345
LJ           1.63569        -2.12217         1.01918
LJ          -2.42258       -0.045364         1.53482
LJ         -0.471763        -2.44505         0.44552
LJ          -1.91551         1.75722       -0.567646
LJ          0.889587         -1.8435         1.87772
LJ          0.181669        0.735229        -2.55401
LJ              -nan            -nan            -nan
LJ          -1.44264         2.56197       -0.744508
LJ              -nan            -nan            -nan
LJ          0.125195         2.41535       0.0259135
LJ         0.0424274        -1.97974       -0.818216
LJ           1.34135         1.02187      -0.0507379
LJ           1.11559         1.81281          -1.207
LJ         -0.974268        -0.79182        -2.31945
LJ           2.14157        -2.04343        -2.56052
LJ           1.89043       -0.389082         1.41238
LJ          0.178651       -0.415295       -0.647902
LJ           2.10097         1.53569       -0.110327
LJ           1.38436        -1.04275         1.10976
LJ           -1.2607        0.811183       -0.288514
LJ          0.423361        -1.30854       -0.695537
LJ         -0.631294         1.56172         1.23102
LJ           1.16065        -1.91669       -0.376898
LJ         -0.972152       -0.140509         1.07464
LJ           1.07558         1.14026         2.36297
LJ          0.246729       -0.958056       -0.134822
LJ              -nan            -nan            -nan
LJ          0.331091        -1.57284        -2.00903
LJ          -1.02087        0.292617         2.10626
LJ           1.04169        -1.75777        -2.31046
LJ           1.34464        0.107567        -1.75427
LJ         -0.774353        -1.90304        -1.59244
LJ           1.58605         2.38827        -2.40981
LJ         -0.154835         2.16272        0.658026
LJ          -1.67072         1.15507      -0.0347038
LJ          0.556283        0.498694         1.27794
LJ          -2.36948        0.870551        -1.37037
LJ         -0.576786       -0.698376        0.383216
LJ        -0.0575443         1.58837        0.212186
LJ         -0.917896        -1.59804      0.00485565
LJ           0.26938        0.271824       -0.312788
LJ              -nan            -nan            -nan
LJ           2.49322        0.234946         2.03204
LJ          -1.69931        0.877031        0.234735
LJ           2.01936        -2.52503       -0.832842
LJ           2.34957        0.423085         2.03416
LJ           2.39654         2.36637        -1.70819
LJ         -0.466272        -1.08725         2.36134
LJ           2.44254        -1.15848        0.171968
LJ          -1.33796        -2.55218        0.172888
LJ          -2.32463        -2.19097        -1.81371
LJ           0.88784       -0.113661        0.567542
LJ          0.848238        -1.77204         1.22394
LJ          -2.00468        -1.73714         1.90212
LJ           1.24372         1.67649        -0.77475
LJ         -0.589874        -1.70191        -2.51476
LJ           1.78464         1.21424       0.0883878
LJ          -1.98369       -0.390616        -1.40438
LJ           2.05819        -2.32814       -0.379643
LJ          -1.74331        -1.87293       -0.643928
LJ          -1.78942         1.72156        -0.45328
LJ         -0.660145        -2.16215        -1.21096
LJ         -0.833287        -1.20748         -1.8133
LJ           2.54692          0.8139       -0.762532
LJ              -nan            -nan            -nan
LJ           1.02729         2.53679         1.71813
LJ           1.51893         -1.4363       0.0331891
LJ            0.2271        0.338606        -2.42805
LJ          -2.36232        0.455001        -2.06636
LJ           1.29376        -1.42998        -1.62007
LJ          -2.54381        -1.87674         1.35144
LJ          -2.07112         2.37109        0.036824
LJ           1.31781         2.37673        0.552684
LJ          -2.29679       -0.663883         2.35916
LJ          0.153493        -0.37426       -0.291404
LJ           2.53762        -1.77539         1.19393
LJ           -1.0383         2.22203       -0.613722
LJ         -0.401659        -2.53582         1.95769
LJ            1.4241        -2.11701         2.52873
LJ           2.52158          2.4146          2.2672
LJ          0.636568        0.586742        0.648656
LJ              -nan            -nan            -nan
