108
#Comment!
LJ          -2.02079         2.38512        -1.25532
LJ           1.96408         1.49018         1.08582
LJ          -2.04832       -0.553742       -0.906829
LJ           1.08411        -1.57299         2.04205
LJ           2.36797          1.7135         1.44317
LJ           -2.0922         2.34414       -0.212263
LJ          -2.11769         -2.0318         2.32845
LJ          -1.21123         1.20003        0.623492
LJ           1.11018         2.07045       0.0766025
LJ         -0.231878         2.30191        -1.49582
LJ              -nan            -nan            -nan
LJ           1.20853        0.522805         2.49813
LJ          -2.55755         1.35695         1.66145
LJ         -0.141967          1.7099         1.98484
LJ           2.01875          2.4078         -1.2976
LJ           1.56155       -0.265896        -1.95618
LJ              -nan            -nan            -nan
LJ              -nan            -nan            -nan
LJ           1.17903         1.06505         -1.9184
LJ              -nan            -nan            -nan
LJ           -1.1112       -0.650833        0.770379
LJ           1.34772         2.36419        -1.90097
LJ          0.417655        0.762892        -2.16158
LJ          0.105679        -2.36224        0.449369
LJ           -1.2869         1.44549        0.266983
LJ          -1.40503         1.96707      -0.0910711
LJ           0.32916        0.909416        -2.43856
LJ          0.453399        0.495891        -1.29582
LJ           1.29702         -2.4244        -2.12811
LJ           -1.0881         0.34294         2.34681
LJ          0.725262         1.98218         0.72098
LJ         -0.361556        -2.21237        -2.34441
LJ              -nan            -nan            -nan
LJ         -0.480793       -0.137561        -2.51006
LJ              -nan            -nan            -nan
LJ        -0.0721166        -2.08261        -1.98113
LJ          -1.42844        -2.48332          1.1451
LJ           2.24469        0.619829        -1.59045
LJ          0.219815       -0.813173        -1.96146
LJ           1.45445         1.99652         1.99148
LJ         -0.174198        -1.31029       -0.150261
LJ          -1.47879         2.38609        0.596675
LJ          -1.46571       -0.901692        -1.11883
LJ          -1.81279      -0.0602208       -0.796403
LJ           2.39954       -0.975146        -2.02339
LJ           -1.1413         2.54414       0.0503033
LJ           1.16423         -1.7398        0.981342
LJ           0.75597        -1.58677       -0.858824
LJ          -0.55013        -1.65884         1.76146
LJ         -0.536641         1.40748        0.509776
LJ            2.0339        -1.16144        0.471517
LJ          0.786444         1.78351         2.43688
LJ              -nan            -nan            -nan
LJ          -1.89777         2.52529       0.0263197
LJ          0.675502        -2.07024         1.55173
LJ          -1.60904        0.770288         2.11637
LJ         -0.861123        -1.47385       -0.802019
LJ         -0.568452         0.14615        -1.11636
LJ         -0.229128         1.01802        -1.32957
LJ          0.372926       -0.117525        -1.87396
LJ          0.441114        -2.53241        -1.06489
LJ          0.110789        0.472677         2.10664
LJ           2.32825         -1.0264       -0.332451
LJ          -1.66805         2.19604        0.246636
LJ           1.04273       -0.246471       0.0765655
LJ           1.57177       -0.468592        0.510218
LJ          -0.42066          1.2626         1.44056
LJ              -nan            -nan            -nan
LJ          -2.42927        0.819146        -1.71211
LJ          0.600902           2.012       -0.479196
LJ          -2.18448        0.985344        0.482507
LJ         -0.941025        0.810879         1.23575
LJ           2.01447        0.674976       -0.475834
LJ          -1.86264         1.28817        0.168361
LJ          -0.94562         2.12997         1.55455
LJ           1.76065         1.55616         2.00888
LJ            1.2686           2.511         2.45124
LJ          -2.02874         2.35353         2.10369
LJ           1.54465       -0.347893         0.99043
LJ         -0.433898         2.06022        0.914336
LJ          0.439108        -1.84237         2.34649
LJ           1.31776        -2.47516       -0.726695
LJ          0.103998        -2.48177        -1.79817
LJ        -0.0877501         0.15351         2.09442
LJ         -0.411038      -0.0303569        -1.03345
LJ           1.92487        0.266687         1.16776
LJ          -1.28685        0.389158       -0.773554
LJ           2.34822        0.418098        -2.10921
LJ          -1.40031         1.75613       -0.824406
LJ          0.581996         1.14737        -1.76601
LJ              -nan            -nan            -nan
LJ           1.77693         2.18299        -1.75955
LJ           1.59214        -2.07766       -0.295225
LJ          -2.23509         1.61346       -0.762934
LJ        -0.0147419       0.0314696        -1.33595
LJ          -1.70506        -2.53007         -2.3281
LJ           1.98953       0.0707338         1.46252
LJ           1.10985        -1.99253        -0.57943
LJ          -2.38863         1.58638         2.43061
LJ           1.88989        -2.28107        -2.30807
LJ         -0.914913        -1.10599       -0.162422
LJ          -1.90422         2.34045       -0.109735
LJ         -0.553578       -0.679048        -1.86501
LJ          0.694944        -1.10378         1.81153
LJ          0.465832       -0.432684        0.212226
LJ         -0.689666        0.736738      -0.0660772
LJ          0.306905        -0.86307        -1.60024
LJ              -nan            -nan            -nan
