108
#Comment!
LJ         -0.408722        -1.16915        0.164931
LJ           1.84583        -2.04607         1.60388
LJ           -2.4196       -0.243255      -0.0828383
LJ          -1.90658        -0.47364       -0.314117
LJ          0.616366         1.83123         1.92168
LJ           0.44924        0.771205        -2.39503
LJ          -1.23249        -1.41989        -1.44376
LJ          -2.31399       -0.398436        -1.71982
LJ           1.75034         -2.2654        -1.71019
LJ          -2.29121       -0.564239        -2.24189
LJ              -nan            -nan            -nan
LJ          -1.67726        0.199875        0.981046
LJ          0.273243        -1.54731         2.10414
LJ          -1.82576         1.75651        -1.12654
LJ           1.83959        0.382999         1.62231
LJ        -0.0111416       -0.320101        0.850255
LJ              -nan            -nan            -nan
LJ              -nan            -nan            -nan
LJ           2.17085        0.654075         2.19262
LJ              -nan            -nan            -nan
LJ           1.11341         1.95525        0.461718
LJ          -1.64014         1.31861       -0.688587
LJ           1.91414       0.0259558         1.71377
LJ           1.45007         1.78826       -0.258171
LJ         -0.975001       -0.756371        0.496111
LJ          -1.19137        -1.47923          1.3262
LJ           -2.1413        0.588575       -0.906504
LJ           2.43207        -0.67216       -0.500112
LJ          0.242196        0.208258        -1.13308
LJ          -2.18696        -2.31999        -1.03661
LJ         -0.943496         2.31571         1.64946
LJ           1.54834        0.783721        -1.88749
LJ              -nan            -nan            -nan
LJ          -2.10659        0.953457       -0.834811
LJ              -nan            -nan            -nan
LJ        -0.0271523       -0.276539       -0.430273
LJ          -1.93934        -0.17699       -0.717329
LJ           2.20424        0.351097        0.650154
LJ       -0.00585674        -1.81398          1.1629
LJ           1.30184        0.870823        -1.75109
LJ         -0.192934        -2.39228        -1.95037
LJ          0.437851        -1.48354        -1.61284
LJ         -0.206057         2.53536         -2.0024
LJ         -0.652407         2.19057          1.0203
LJ            1.7193        -1.72151       -0.765217
LJ          -2.22255         0.63529        -1.99291
LJ           2.25634        0.785356        0.122787
LJ          0.961543        -1.03532        -2.14193
LJ          -1.56541         1.09522        -1.54559
LJ          -1.90933        -1.81194        -1.72414
LJ        -0.0692106         1.84163        0.227534
LJ          -2.23753        -1.55549         1.33123
LJ              -nan            -nan            -nan
LJ         -0.510755        -0.60545        -1.10214
LJ          0.981544         1.61314     -0.00719093
LJ          -1.41145        0.705977       0.0781671
LJ           1.86193        0.529348         1.01598
LJ           1.36931       -0.679818        -1.17607
LJ          -1.70908        -1.27835       -0.289819
LJ          -1.35219        -2.12308         1.56734
LJ           1.01869        0.484665         1.73813
LJ          -1.58194       -0.327972        -1.52254
LJ         -0.393371        -1.54384       -0.189632
LJ          -2.21625       -0.299342        -1.97852
LJ            2.0236        0.160299         1.43844
LJ         -0.305377       -0.156977          1.1873
LJ           1.71064         1.38139        0.181202
LJ              -nan            -nan            -nan
LJ         -0.863133         1.15293        -2.13656
LJ          -1.80484         -1.4225        -2.12878
LJ          -2.44452         1.96387       -0.130474
LJ         0.0159631         2.05336        -1.78629
LJ          -1.37416       -0.830141          1.2624
LJ          -2.33666       -0.653066       -0.695481
LJ           2.27733         2.05782         2.20008
LJ           2.08614        -1.28147         1.72826
LJ           1.00416       -0.696525       -0.559318
LJ        -0.0756454         1.56063        -2.42672
LJ           -2.1907        -1.30411         2.20991
LJ          0.523775        -2.31168        -1.56127
LJ         -0.248209         1.92601       -0.165143
LJ         -0.757849         1.63578        -2.46984
LJ         -0.233784        0.104296          1.8623
LJ          -1.25518       -0.119567         2.55212
LJ          0.889043       -0.741183         1.03988
LJ           1.62708         1.65965        -1.17042
LJ           1.16502          1.3684        0.312973
LJ          0.307732      -0.0630075        -2.08234
LJ           2.22833         2.51132         2.05061
LJ          -1.20155        -1.16008        -1.27999
LJ              -nan            -nan            -nan
LJ          0.246668         1.93392       -0.104471
LJ         -0.333493        -2.07856         1.92099
LJ           2.54248        0.679495        -1.28677
LJ          0.490243        -2.47521        0.816536
LJ          -1.59951         1.23685        0.102093
LJ          -2.16239         -2.0646         1.14135
LJ         -0.924978        -1.50079         2.19903
LJ           -2.4911        -2.40917         1.25168
LJ          -1.41472        0.657347        -1.01347
LJ          -1.87818          0.6103        -1.05771
LJ         -0.194329           2.289        -0.14234
LJ           2.46622         1.85038         2.32226
LJ         0.0116848       -0.358997         1.24976
LJ          -1.32189        0.748177        0.248137
LJ         -0.552327      -0.0692857        -2.28949
LJ           1.62873        0.547376        -1.52879
LJ              -nan            -nan            -nan
