108
#Comment!
LJ         -0.181557       -0.325149         2.42751
LJ            2.3801       -0.126018       -0.710389
LJ         -0.581263         1.53367         -1.1046
LJ          0.905505        -1.48393         1.79174
LJ         -0.219182        0.768664       -0.954402
LJ          -2.15578        0.383751         1.64158
LJ          0.534011        -2.33742        0.766093
LJ         -0.266464         1.48759         1.79234
LJ          -1.65292       -0.695589        -2.54807
LJ           1.05978        -2.05206         1.82322
LJ              -nan            -nan            -nan
LJ            1.0038        -2.42802        -2.32503
LJ           1.62619         1.63701         1.03211
LJ         -0.410497       -0.129897      0.00600221
LJ           0.13831       -0.733621       -0.766275
LJ           1.30352        -0.33483        0.599156
LJ              -nan            -nan            -nan
LJ              -nan            -nan            -nan
LJ          0.587324         2.32915        -2.33239
LJ              -nan            -nan            -nan
LJ       -0.00891092        0.845674        -2.18012
LJ          -1.44075         1.15231        -1.37967
LJ          -1.25029        0.980211        -1.40643
LJ           2.26102        0.944577         1.83182
LJ           1.71361         1.89977         1.27354
LJ          -1.18337         1.93085          1.6396
LJ           1.83717         2.08666       -0.648095
LJ          -1.59512       0.0445459      -0.0723667
LJ        -0.0278777         1.03548         2.09578
LJ          0.839481        -2.36639       -0.214669
LJ         -0.457015        0.069935       -0.348744
LJ          -1.48104        -2.24379       -0.195967
LJ              -nan            -nan            -nan
LJ          -1.58877       -0.160269       -0.339949
LJ              -nan            -nan            -nan
LJ          -2.02999         1.78644       -0.531139
LJ           1.61589        -1.41464        0.387165
LJ          -2.41235        0.989783         1.34593
LJ          -2.00221        0.788361        -1.39925
LJ          -1.65308        0.609147        0.637786
LJ          -2.28924        -1.77535       -0.372403
LJ          0.376535        -1.72192         1.04932
LJ          -1.76937        -2.10207       -0.997271
LJ          0.202209         1.13725         1.25125
LJ         -0.342255        0.329292        -1.58543
LJ         0.0730067        0.334252        0.821133
LJ          -2.03796        -1.05638         1.27348
LJ          -1.18505        -1.78392         1.38453
LJ           1.52472        -2.04302         1.84438
LJ           2.47414         1.03871        -1.22857
LJ           1.79527         2.46042        -2.44172
LJ           1.94362        -1.95591       -0.253551
LJ              -nan            -nan            -nan
LJ           0.17775        0.504813        -2.07591
LJ           1.29785        -1.66687        0.680429
LJ        -0.0257547        -2.49432        0.455561
LJ          -2.01828        -2.39833         1.27166
LJ          0.227794        -1.78169      -0.0983548
LJ          -0.41518       -0.246851         2.31093
LJ           -0.5921        -1.03347       -0.125781
LJ          -2.34325         1.20968         2.41868
LJ          -1.59083        -1.42131       -0.152994
LJ         -0.822131          1.6572        0.831886
LJ          0.349654        -2.49878         1.44234
LJ         -0.569877        -1.81908         1.00065
LJ          -1.48026         -2.0498        0.854742
LJ          -1.72255        -1.82675       -0.746991
LJ              -nan            -nan            -nan
LJ          -1.24411         1.38967      -0.0645759
LJ          -1.80006         1.65038        -1.29422
LJ           1.36879        -0.55659        0.256442
LJ           2.45226        -1.84525        -1.16803
LJ         -0.255194      -0.0229047        0.599216
LJ          0.678411         0.56188        -1.64259
LJ          -1.24884        -2.34046         1.24985
LJ           2.17223       -0.268504        -2.25945
LJ           -1.7825         1.85729       -0.598232
LJ          -1.89304         1.98018        -1.99295
LJ           1.74375       -0.903238        0.696195
LJ           2.51001       -0.550944        -1.41135
LJ          0.813624         1.90349       -0.400564
LJ          0.718993         2.04101        -1.52416
LJ          0.482294        -1.03385        -2.27624
LJ           1.69516        -2.28162        0.899641
LJ          -2.18316        -2.37052         -1.4124
LJ          -1.87403        -2.26658         2.01654
LJ          -1.36879         1.50798        -1.15264
LJ           1.05162        -1.41614        -1.39563
LJ         0.0274125         2.10714        -1.27407
LJ           2.30194         1.49372        -2.48553
LJ              -nan            -nan            -nan
LJ           1.31424       -0.732254         1.77634
LJ          -1.83038        0.958237        -2.35712
LJ         -0.306934        -2.34548       -0.264259
LJ            1.2138        -0.67425       -0.891224
LJ            1.3313         1.38593        0.612603
LJ          0.883605        0.653296       -0.159576
LJ             1.387        -2.05618       -0.785548
LJ           1.31486        -1.60983       -0.776819
LJ          0.544828         1.65835        -2.16793
LJ          0.417368        -0.61277        0.860667
LJ           1.52335         2.03584         1.04312
LJ          0.490446        0.629253         2.47534
LJ           2.10421        -1.66029      -0.0560616
LJ            1.8606        -1.62626         1.28369
LJ           1.25879         1.04611         0.42687
LJ            1.6512         1.11637         -2.4698
LJ              -nan            -nan            -nan
