108
#Comment!
LJ          -2.25922       -0.552218        0.766782
LJ           1.34692        -1.22013        0.194078
LJ         -0.862457        -2.26002        -1.84509
LJ          0.823636       -0.260887         1.02336
LJ         -0.552918        -2.53476       -0.417292
LJ         -0.691133         1.96639        -1.13069
LJ           2.21493       -0.759081      -0.0926875
LJ         -0.757327        0.216327       -0.927344
LJ          -1.78858         1.57088         2.55357
LJ         -0.723024       -0.344631        -1.77651
LJ              -nan            -nan            -nan
LJ          -1.08097         2.06747        -1.84556
LJ           2.23814         2.30499        -0.14987
LJ              -nan            -nan            -nan
LJ          0.630952        -1.44937         1.18303
LJ              -nan            -nan            -nan
LJ              -nan            -nan            -nan
LJ              -nan            -nan            -nan
LJ          -1.04516         1.40519         1.92751
LJ              -nan            -nan            -nan
LJ           1.15679        0.702467         1.10907
LJ          0.212784        -1.80973        -2.26047
LJ         -0.676362         0.11646         2.51285
LJ         -0.631049        -2.21051        -2.24047
LJ           1.32795         2.51669        0.354386
LJ          0.817958        0.308677        -1.37387
LJ          0.874163         2.10761        -0.16044
LJ           1.39981       -0.664852        -1.00818
LJ          -2.50991       -0.999838         2.25623
LJ         -0.306812        -1.24588       -0.413503
LJ              -nan            -nan            -nan
LJ           1.04389        -1.13328        -1.08688
LJ              -nan            -nan            -nan
LJ           2.09489         1.59977        -1.05709
LJ              -nan            -nan            -nan
LJ          -0.69425         -2.2068         1.94114
LJ          -1.29431        0.706095       -0.269539
LJ          0.600715      -0.0269564        -1.21789
LJ           1.67695       -0.760068        0.194097
LJ          0.528393        -2.09514        -1.51913
LJ          0.552184         2.55088         1.06949
LJ           2.23172       -0.765324       -0.852762
LJ          -2.19042         1.88041       -0.158006
LJ           2.12664         1.89552         1.35477
LJ          -1.18041       -0.837689        0.852221
LJ         -0.756628        -1.24838       -0.550731
LJ           1.95687       -0.758582         2.09163
LJ          -2.50074         2.30401        -2.24395
LJ          0.849875         1.15633         1.25888
LJ          -2.17334         1.58215          1.3885
LJ            1.6313         1.45673         0.60823
LJ          -1.93399       -0.879913       -0.401905
LJ              -nan            -nan            -nan
LJ          0.507787        -1.93911        0.325232
LJ           1.84226         2.33335        -1.85355
LJ           1.32316         2.44903         2.53122
LJ          -1.28633        -1.74154      -0.0505695
LJ          -2.30362       0.0137487         2.19583
LJ          -1.95658        -1.36598       -0.159158
LJ         -0.326816         1.33192        -1.73564
LJ           2.43487        -1.29926         -2.2726
LJ          -1.56309         2.21308         2.38321
LJ          -1.30708         1.50972        -1.43779
LJ           0.85421        0.855295         -2.3815
LJ              -nan            -nan            -nan
LJ           2.09376        -1.10757        0.397728
LJ         -0.757404        0.698865         1.19874
LJ              -nan            -nan            -nan
LJ            -1.926        0.883658         1.33397
LJ           1.91358          1.0544         2.33496
LJ          -1.33979         -2.2267         1.36809
LJ       -0.00637763      -0.0387075        -1.98829
LJ          0.564148         1.65191        -1.39322
LJ            2.1677         1.38839        -1.65176
LJ           1.17065        -1.88141        -1.71256
LJ           1.24533        -1.34912        0.404455
LJ           2.11616        0.392719         1.57462
LJ           1.93006         1.20948          1.7504
LJ          -1.94696         1.06134         1.87621
LJ           1.96557        -1.22898        0.383935
LJ           1.80811         1.18724        -2.03997
LJ          0.433086         1.32915         2.35265
LJ          -1.11618        -2.32935         1.80895
LJ          -1.96311        0.271882         1.72387
LJ         -0.294625        -1.58712         2.00212
LJ           1.71882        0.217219         1.39047
LJ          0.714793         1.54149        0.644355
LJ          -1.37939        0.634893        0.711758
LJ          0.243017       -0.219578        -2.10705
LJ          0.475057         1.87948        -1.34775
LJ              -nan            -nan            -nan
LJ          -1.09953         1.49005        -1.87055
LJ           2.21487       -0.274819        -1.57907
LJ          -1.34618         1.38116         2.06671
LJ           2.39715         1.72298         2.55563
LJ          -1.21651         1.95775         2.53594
LJ          -1.06677         1.07507         1.91886
LJ           1.65368         1.21616         1.96548
LJ              -nan            -nan            -nan
LJ         -0.875413         0.48101        -1.87404
LJ         -0.264578        -2.39061        -2.53854
LJ          -2.36979        -1.16201        -2.07066
LJ           2.17009        -1.87507         -1.8219
LJ           1.86101        -2.21373        -0.63268
LJ              -nan            -nan            -nan
LJ         -0.722481        0.848983        0.131483
LJ         -0.239359         1.40394        0.249051
LJ              -nan            -nan            -nan
