108
#Comment!
LJ           1.45211        0.136491        -1.39446
LJ          -2.03266        0.793503        -1.13654
LJ          -1.70411       -0.246067        -2.15747
LJ           1.88358         1.78601        -2.26159
LJ             1.081        -1.03855        -1.41666
LJ          -2.44856        0.914454        0.240183
LJ           2.32173       -0.512056        0.232833
LJ           1.78532        0.356536        -1.08668
LJ           2.16546         -1.5374         1.04638
LJ           2.43522        -1.26914        -1.34308
LJ              -nan            -nan            -nan
LJ         -0.185941        0.919146        -2.29691
LJ             1.174        -2.54818        0.352093
LJ              -nan            -nan            -nan
LJ          -2.28761       -0.941873         2.17895
LJ              -nan            -nan            -nan
LJ              -nan            -nan            -nan
LJ              -nan            -nan            -nan
LJ         -0.415009        -1.64335        -1.22439
LJ              -nan            -nan            -nan
LJ          -1.76685        -0.72854        -2.14904
LJ          -1.90692       -0.518358        -0.25363
LJ          0.788221        -1.18665       -0.731396
LJ           1.23613        -1.93862         0.55045
LJ        -0.0829889        -1.17695        -2.00448
LJ          -1.70636        -1.05536       -0.185884
LJ           2.39014         1.49778       -0.465086
LJ          -1.19949        0.254941         1.89588
LJ         0.0897076        0.494535        -2.00951
LJ          -2.43299       -0.262508        -1.60062
LJ              -nan            -nan            -nan
LJ          0.434609         1.29576        -2.28732
LJ              -nan            -nan            -nan
LJ          -2.37828         1.35737        -1.03072
LJ              -nan            -nan            -nan
LJ          0.606154        0.971302         0.28515
LJ           0.89098        0.615133       -0.125532
LJ           1.72186         1.08949      -0.0870635
LJ           1.69175       -0.548529       -0.941432
LJ           1.58766         1.12153         0.98227
LJ          0.759933        -2.55673        -2.14238
LJ          0.947832        -1.78559           2.022
LJ         -0.983212        -1.61216         2.54375
LJ          -2.55013       -0.407981       0.0915848
LJ           1.81276        0.487773         1.65925
LJ            1.4885       -0.545822         0.31294
LJ           1.39027         2.13836        -1.48692
LJ         -0.243235        -1.95112         2.21367
LJ          -1.39259        0.941228       -0.264751
LJ          -1.53193        -2.27524        0.973843
LJ          -2.03088         2.29806        -1.46825
LJ          -1.93602           1.499        0.359949
LJ              -nan            -nan            -nan
LJ          0.861352         1.37153         1.06801
LJ         -0.465143        0.929475       -0.833111
LJ         -0.350986         1.06669        -1.73838
LJ           1.19921        0.621574       -0.886094
LJ          -1.23825        0.320198       -0.126754
LJ           2.28175        0.700824       -0.621619
LJ           2.36012       -0.761864         1.59499
LJ           1.43889       -0.664743         2.30123
LJ        -0.0215386         1.59521          2.3901
LJ         -0.775988        -1.70392         0.97488
LJ          -1.20267        0.843774        -2.17727
LJ              -nan            -nan            -nan
LJ         -0.814384        0.141906       -0.406073
LJ           1.46966        0.214253         1.90504
LJ              -nan            -nan            -nan
LJ         -0.162406        0.141631         1.36876
LJ          0.399355        -1.19942         2.39665
LJ           2.51871        -1.89323        -2.50365
LJ         -0.625744       -0.893594        -1.61734
LJ         -0.408519       -0.976082         2.17016
LJ           1.02967        0.678423        -1.49444
LJ          0.660834       -0.981996       -0.302716
LJ           0.45654       -0.463131         1.14586
LJ         0.0195652         1.78361       -0.643669
LJ           1.18153        0.164579         2.14482
LJ           2.05079        0.984504         2.52746
LJ          -1.41548       -0.265992       -0.414828
LJ           1.65738        -1.20391         2.24221
LJ          -1.89967        -1.71812        0.626173
LJ          0.408756        -1.05902       -0.118181
LJ          -2.41327         1.60459       -0.710535
LJ          0.122883        -2.15346         2.36767
LJ          0.619265        0.190237         1.97072
LJ            -2.394         1.80251         2.23341
LJ          -1.31532        0.162106        -1.38544
LJ           2.33789       -0.630859        0.128374
LJ          0.623149         2.30414         1.66886
LJ              -nan            -nan            -nan
LJ           1.39555         1.38926       -0.612451
LJ            1.1033        -1.26881       -0.362677
LJ         -0.585944       -0.536182        0.626604
LJ          -2.41001        -1.54125        0.231659
LJ         -0.128178         1.42527       -0.691692
LJ          0.308117         1.68316         1.61541
LJ          -1.73512         2.05849        0.349177
LJ              -nan            -nan            -nan
LJ          0.943865        -1.24194        0.635756
LJ          -1.17773          1.9674        -2.23341
LJ           1.12111         2.42139        0.857493
LJ           2.10493        -2.16668        0.613389
LJ          0.792712        -2.56417       -0.032625
LJ              -nan            -nan            -nan
LJ          0.141959      -0.0287683         1.73168
LJ          -0.18826        -2.32998        0.149239
LJ              -nan            -nan            -nan
