108
#Comment!
LJ         -0.158419         2.23813         2.49342
LJ          0.256546       0.0321247       0.0147268
LJ         -0.928726         -1.2943        0.921665
LJ           1.38507        -1.55044         1.55566
LJ           1.84977        0.666449       -0.980616
LJ          -1.84573        -1.45748         1.49465
LJ          0.494804        0.680848       -0.782072
LJ          -1.89281        -1.93267       -0.397008
LJ          -1.37345      -0.0109728       -0.301482
LJ         0.0679064        0.806752        -1.95788
LJ              -nan            -nan            -nan
LJ          0.398788       -0.291687         -2.5589
LJ           1.51085        0.930618        -1.76985
LJ              -nan            -nan            -nan
LJ           2.14493         2.44182        -2.17903
LJ              -nan            -nan            -nan
LJ              -nan            -nan            -nan
LJ              -nan            -nan            -nan
LJ          0.675863         1.33121        -1.19284
LJ              -nan            -nan            -nan
LJ          -2.36558        -2.43497         0.82499
LJ         -0.433972        0.340108         1.50138
LJ         -0.424079         -2.4585         2.45448
LJ              -nan            -nan            -nan
LJ          -1.59088         1.68471        -2.32145
LJ          -2.21855        -2.06289        -1.23629
LJ           1.06492       -0.799253       -0.622031
LJ           1.93956       -0.242563        0.526646
LJ          -1.77878       -0.482889        -1.25392
LJ           2.47918      -0.0843713         1.09735
LJ              -nan            -nan            -nan
LJ           2.00511        0.660313        0.959692
LJ              -nan            -nan            -nan
LJ          0.994807         2.02687        0.930605
LJ              -nan            -nan            -nan
LJ         -0.595334        0.466504          1.5288
LJ          -1.48359         0.31168         -0.5309
LJ          -1.95658        0.764776        -1.97551
LJ           2.54656       -0.496098        0.492691
LJ           2.00792        -0.66785         1.86075
LJ          -1.41512        0.334977       -0.879529
LJ          0.555231        0.130344         0.98538
LJ          0.515348        0.251514        -0.63415
LJ           1.34979         -2.0634        0.670204
LJ           2.25612       -0.761801        -2.29055
LJ         -0.404531       -0.249576        0.960068
LJ           1.41642         2.53316        0.639039
LJ          -2.50034       -0.405945       -0.490929
LJ          -1.46223       -0.112135        0.559435
LJ           1.51127       -0.307368         -1.4145
LJ          -1.65291         1.42236         2.00705
LJ           1.97911        -1.85093         1.22572
LJ              -nan            -nan            -nan
LJ           2.08663         1.56504         -1.2949
LJ          0.445851          2.4044         1.32641
LJ         -0.343991        -1.01451        0.349374
LJ          -1.51791         1.33337         2.48896
LJ          0.207568           2.462       -0.789815
LJ            1.1634        0.666048        -1.06924
LJ          -1.36546        -1.50406       -0.541962
LJ         -0.784405        0.974844         1.18366
LJ           1.35413         1.03557         1.05208
LJ          0.648356        0.453919        -2.11228
LJ              -nan            -nan            -nan
LJ              -nan            -nan            -nan
LJ           1.60862         1.35805        -2.44822
LJ          -1.79232        -2.19934       -0.768574
LJ              -nan            -nan            -nan
LJ          -1.67694       -0.728765        -1.90828
LJ          0.786722         1.99338       -0.292831
LJ        -0.0511962        -2.27632         2.29868
LJ         -0.893815       -0.760134         1.39285
LJ         -0.972442         2.15025        -1.14804
LJ          0.130297       -0.807385       -0.705159
LJ          -1.57654         1.64088       -0.357419
LJ           1.95133         1.76878         2.12435
LJ         -0.288671       -0.100101        -0.55642
LJ          -1.41103         1.92814        -1.64422
LJ           2.22456         1.65259         2.33193
LJ           1.42398       -0.714524         2.24674
LJ         -0.729852        -1.97985         2.53828
LJ           1.86431         1.65821        0.442804
LJ           1.83609        0.867164         1.74287
LJ         0.0766046        -1.07013       -0.860195
LJ          0.139303        -2.02615        -1.40566
LJ           1.90293        -1.77857        0.232166
LJ          -1.03085        -1.92467      -0.0718645
LJ          -1.94707        -1.75467        -1.12184
LJ          0.793235        -1.21593        -2.07031
LJ          -2.07011         2.48726         1.00636
LJ              -nan            -nan            -nan
LJ          0.790313        0.622333         1.99683
LJ         -0.700173        -2.00755       -0.742015
LJ         0.0928255         1.17516       -0.635116
LJ           1.69853         -1.6218       -0.939849
LJ         0.0157351        -1.06636         1.50482
LJ           1.10893        -2.53612         1.49192
LJ          0.762708         2.50768        -2.09204
LJ              -nan            -nan            -nan
LJ        -0.0401752         1.49616       -0.331289
LJ          -1.90217         2.27159        -2.00763
LJ          -2.06207        -2.36292         1.96982
LJ         -0.430063        -1.08669          1.1295
LJ          -1.95492       -0.941417        -1.38458
LJ              -nan            -nan            -nan
LJ          0.246021         -2.2713        -0.87493
LJ          0.293129          2.4202        -1.80722
LJ              -nan            -nan            -nan
