108
#Comment!
LJ          -2.52082           -2.29         2.02264
LJ          0.761601       -0.631692        -1.04169
LJ           1.78525         1.50244        -2.06919
LJ          0.949758       -0.291069         2.40991
LJ          -2.52905         2.17416         0.41105
LJ           2.36867      -0.0799421          1.6054
LJ          -2.15251       -0.340643         1.35931
LJ        -0.0768259         1.63322         2.17772
LJ           -1.9212        -2.36853       -0.961451
LJ          -2.12422        -1.02269          -2.182
LJ              -nan            -nan            -nan
LJ         -0.878112         1.41975        -1.80873
LJ            -2.527        -2.49969         2.00941
LJ          0.747163        -1.82263         1.06012
LJ          -1.64282         1.36532        -1.90028
LJ           1.74486        -2.42733        0.783502
LJ              -nan            -nan            -nan
LJ              -nan            -nan            -nan
LJ            1.3088         1.31932       0.0610829
LJ              -nan            -nan            -nan
LJ          -2.18686         1.52113        -1.19283
LJ           1.65703        -2.33797       -0.503157
LJ         -0.197958        0.874925        -2.39247
LJ           -0.6915         1.58609       -0.195058
LJ         -0.370857        0.534422         1.44033
LJ         -0.727361         1.38035         1.86618
LJ           1.04264        -1.19886        -1.08178
LJ         -0.784627         2.36353         2.43541
LJ          -2.18181       -0.166828         1.93142
LJ           1.44434        0.682101         2.12228
LJ         -0.775001        0.570509         1.01502
LJ           2.23409         1.87221        -2.01808
LJ              -nan            -nan            -nan
LJ         -0.972283        -1.02137         1.38895
LJ              -nan            -nan            -nan
LJ         -0.901839        -1.70849         1.16844
LJ          -1.48203         2.38363       -0.279085
LJ         -0.806123         -1.5753         2.42598
LJ          0.854389        -1.28944        -0.27681
LJ           1.87008        -1.81153         1.30228
LJ          -1.89069        -2.04316         1.93328
LJ          -1.40789       -0.316385       -0.326862
LJ           1.42869        0.893168       -0.269967
LJ           2.11916         1.40404       -0.953327
LJ          -1.88293       -0.303767       -0.979685
LJ           1.67744        -1.00748         -1.7166
LJ           1.57107        0.267953         1.69946
LJ           -1.2866        -1.84487         2.25183
LJ           1.97476        -1.80313         1.47608
LJ           1.57826        -2.14685         1.64626
LJ          -1.56582        0.149171       -0.897733
LJ          -1.30013        0.850076         1.61056
LJ              -nan            -nan            -nan
LJ          -0.16611        -2.52912       -0.763745
LJ            1.1143        -1.26407        -1.97295
LJ          -1.57389         2.39081         -2.4681
LJ           2.02717       0.0225725         0.87844
LJ         0.0764161        -1.99837         1.68431
LJ          -1.71308        0.747325        -1.16726
LJ         -0.569358         1.62757        -1.65824
LJ          -0.69188        -2.41618        -1.27302
LJ          -1.91296      -0.0389163       -0.127296
LJ        -0.0897688        -1.19355       -0.588829
LJ          0.602921        -2.25432         2.27465
LJ         0.0560582          -1.982         1.48426
LJ           1.20201        -1.96108       -0.332797
LJ          -1.28122         -2.0269        -1.01201
LJ              -nan            -nan            -nan
LJ          -0.46357         -1.2594          2.1193
LJ           1.65123       -0.882206       -0.351614
LJ           -0.7405       -0.954632        0.045597
LJ          0.799567       -0.659043        -2.42029
LJ          -1.32462         1.20709        -1.06721
LJ           2.40785        0.372504         1.13011
LJ          -1.78288        0.574035      -0.0950371
LJ           2.13471        -1.67442          1.4733
LJ         0.0477727        -2.45394        0.884003
LJ        0.00542571        -1.84034        -1.31078
LJ          -2.19265       -0.617477        0.671718
LJ         -0.848421       -0.720806         2.46278
LJ         -0.581744        0.135243         2.15043
LJ           2.30698        -1.91519        -2.21943
LJ           2.52929       -0.778138       0.0863807
LJ           1.77566       -0.834798        -0.22241
LJ          0.827728       -0.670079        -2.27985
LJ          -2.43297       0.0206573       -0.265834
LJ          0.184279         1.30304       -0.646567
LJ          0.645386       -0.316777         0.98466
LJ          -1.35755         1.59246         2.23699
LJ          0.873324        0.216339        -1.74251
LJ              -nan            -nan            -nan
LJ           1.11606       -0.170359        0.115791
LJ           1.72415       -0.777469       -0.523423
LJ          -1.61954         1.78418        0.937776
LJ           0.26531        0.503301        -1.05476
LJ           1.74583       -0.267748        -1.17792
LJ          -1.51262        -1.99592      -0.0225732
LJ          -1.64233           1.771        -1.49577
LJ         -0.721053          -1.159          1.5598
LJ         -0.106183        0.388039         1.25208
LJ          -1.43445         1.73621       -0.465763
LJ          -1.52965        0.797422         1.86279
LJ           1.69063       -0.215031       -0.933045
LJ          0.590697        -2.52334       -0.212672
LJ          -2.42452        -1.02546       -0.592821
LJ          -1.97255         1.89912         1.42419
LJ          0.172645        0.274371        0.684995
LJ              -nan            -nan            -nan
