108
#Comment!
LJ          -2.01944         1.05892         1.42543
LJ          -1.20413       -0.814955        -2.23176
LJ           2.27358        0.668689         2.52106
LJ          -2.56152         1.43143         2.12332
LJ          0.642386         -1.7913         1.55769
LJ          0.537962        -1.78069        0.490198
LJ           1.17538        -1.80743       -0.698582
LJ           0.52638       -0.643535         1.50913
LJ         -0.486867        -1.05378        -1.23327
LJ          -1.08846        0.831088      -0.0875294
LJ              -nan            -nan            -nan
LJ        -0.0412337        -1.87843        0.863187
LJ         -0.345941        0.336975        0.787931
LJ           2.51862        -2.32997        0.695957
LJ          -2.46649       -0.377753       -0.721539
LJ          -1.22656        -2.22166        0.729854
LJ              -nan            -nan            -nan
LJ              -nan            -nan            -nan
LJ         0.0934267        -1.02122        0.196138
LJ              -nan            -nan            -nan
LJ         -0.779027        0.310423       -0.992977
LJ          0.389762         2.50959        0.642757
LJ           2.41928        -1.03719         0.82915
LJ          0.700469       -0.430997       -0.577028
LJ           1.44612        -2.23278         0.51362
LJ          -1.26714         2.01174        -1.75401
LJ         0.0956999      -0.0613476       -0.978887
LJ           1.66342        -2.11144        -1.15346
LJ          -1.71586         1.69114         1.99541
LJ         -0.792009         1.28149        0.711555
LJ          -1.54447        -2.53975         1.22653
LJ           2.02112         1.05745         1.88302
LJ              -nan            -nan            -nan
LJ         -0.957028        -1.80235         2.42951
LJ              -nan            -nan            -nan
LJ          0.792563       -0.443472         1.65826
LJ           2.25853         1.94699         2.53073
LJ           -1.1911        -2.00473         0.73775
LJ          -2.40108        0.666316       -0.674015
LJ         -0.798479        0.991073      -0.0195068
LJ          -0.97762       -0.408043       -0.840142
LJ           1.89126         1.78312        0.259064
LJ         -0.995069        0.692604        -2.28649
LJ           1.16714        -2.21578        0.732124
LJ           1.09345        -1.15919        -1.39837
LJ          0.132783         1.87124         2.46272
LJ           2.49015         2.48248         1.72042
LJ           1.51061         1.17597         2.05251
LJ          0.202999      -0.0151318        -1.53016
LJ         0.0556427         2.53363         2.07326
LJ           0.95841         1.71565         1.82813
LJ           -1.5314         -1.7169       -0.665801
LJ              -nan            -nan            -nan
LJ         -0.733188         2.38423        -1.48928
LJ           1.90186         2.49362        0.577332
LJ         0.0418479         -2.1426        -1.43415
LJ        -0.0575299       -0.123691       -0.558261
LJ           1.74105         1.00488        -1.16889
LJ       -0.00364607        0.682233        -1.30842
LJ         -0.600942        -1.09502         1.16837
LJ          -1.37521        -1.83704        0.642399
LJ           -1.6025        0.302528        -1.25876
LJ           -1.1908         1.98084         1.86382
LJ          0.919123       -0.806995         1.11408
LJ             2.497         1.31757         1.10914
LJ          -2.02411         1.84419       -0.722123
LJ           2.21267         -1.0214          2.5479
LJ              -nan            -nan            -nan
LJ           2.32252        -1.39369        -2.25516
LJ         -0.160532        -2.16748        0.198269
LJ          0.147349       -0.506459        -1.13853
LJ         -0.909874        -1.89439          2.4409
LJ          -1.03758        -1.42876         2.04159
LJ          -1.54702        -1.29079        -1.32823
LJ         0.0111003         2.14292        0.419024
LJ          -1.15033        0.781657        -2.28748
LJ           2.05944         -1.3831         1.14929
LJ          0.611901      0.00647586       -0.417118
LJ         -0.899457        0.249858        -2.27553
LJ          -1.77232        -2.54237         2.40769
LJ           1.13271       -0.122232        -2.45373
LJ          -1.87522        0.409678          1.2823
LJ           2.02881       -0.500589         2.37578
LJ           1.92685        0.579028          2.1841
LJ          0.989479       -0.531024        -1.19313
LJ          -1.78404      -0.0854489       -0.457723
LJ           2.25827        -2.52326        -1.23372
LJ         -0.256607       -0.957166         2.46225
LJ         -0.606158         1.48879       -0.360527
LJ         -0.363846        0.722791        0.896452
LJ              -nan            -nan            -nan
LJ          -2.09544        -1.62218        -1.19063
LJ          0.978099         2.41757       -0.703495
LJ          0.210003         0.60228         1.63636
LJ           1.29944         1.81491         1.83931
LJ         0.0851381        -1.91565         -1.9473
LJ          -2.27049         1.98837        -1.59596
LJ         -0.564815        -1.40168          2.2474
LJ          0.888899        0.577469       -0.986978
LJ           2.27831       -0.484597          0.2702
LJ         -0.105376        0.516167        0.766617
LJ          0.343391         1.41146         0.26816
LJ          0.906113        -1.90356       -0.561094
LJ           1.66522         1.46859       -0.552658
LJ          -1.65764        -1.88801          1.4969
LJ          -1.69287         1.52952        -2.13063
LJ          -1.89423       -0.818011         1.17247
LJ              -nan            -nan            -nan
