108
#Comment!
LJ          -1.95313        -1.67178        -2.49709
LJ         -0.374472        -2.48974        -1.28197
LJ           1.61841         1.31814        0.122022
LJ           1.38838        -1.02307       -0.523938
LJ          0.448133        -1.92429           2.184
LJ           1.20614        0.355429        -1.08487
LJ           2.52471        -2.20179        -1.10987
LJ        -0.0365773         1.52377        -0.58616
LJ         -0.368726        0.766005         1.48228
LJ           1.28903       -0.448227         2.28149
LJ              -nan            -nan            -nan
LJ          -1.64378         1.67735         1.29917
LJ          -2.06913        0.449364        -2.46353
LJ          -1.28779         1.53171        -1.97985
LJ          0.103416       0.0731281        -2.35549
LJ         -0.210487         1.32565          1.8103
LJ          -2.16248       -0.409582       0.0129828
LJ           1.36068         -1.0464        0.119923
LJ          -1.54215        -1.19701      -0.0546875
LJ       -0.00933605        0.986468        0.544491
LJ        -0.0957007       -0.120807          2.1158
LJ          -2.24828       -0.544735          0.7524
LJ         -0.508414         2.48675        0.981748
LJ         -0.725367         -1.1641        0.232462
LJ          -1.57258         2.03436        -2.18702
LJ          -1.61784        -1.12092        0.893226
LJ          -1.77758         2.00003         1.58777
LJ           1.95436       -0.873194        0.443875
LJ          0.956969        -2.44258       -0.294535
LJ          -1.13949         2.33106        -1.60894
LJ          -2.20848        -2.24473        0.328229
LJ           1.87701        -1.32692         1.51775
LJ              -nan            -nan            -nan
LJ           1.27835        0.217063         1.70365
LJ         -0.880775       -0.356905        -1.71189
LJ          -1.37974        -1.52361       -0.601538
LJ         -0.203513        -1.07893         1.09075
LJ          -2.52485       -0.950395        -2.29983
LJ          -1.68175        0.863593         2.46647
LJ         -0.783802        0.519935        -0.37092
LJ           1.78977        0.621847         2.27407
LJ         -0.372332        -1.95579        -2.04482
LJ           -2.3853         1.49563         -2.4379
LJ          -1.87528          -1.632        0.189812
LJ           1.54096        -1.20363        -0.75031
LJ           1.42703        -2.04087        -2.29733
LJ          -1.68187         2.11836      -0.0573455
LJ        -0.0688583         -1.3521         1.99005
LJ           2.18237        -0.30325        -1.67106
LJ           -1.2506         1.63677        -1.98135
LJ          0.369227        -1.12612        -1.61727
LJ          -1.54756        0.750816        -1.21873
LJ          -1.95892         1.26803         1.01059
LJ          -2.51823         1.02001         2.42198
LJ         -0.181949        0.964209         1.12967
LJ          -0.48543        -1.24755         1.08096
LJ         -0.340806         1.49206        -1.25278
LJ           1.48341       -0.582894        -1.26938
LJ           2.02357        -1.08047       0.0107639
LJ          -1.75438        -1.82138        -1.43899
LJ           2.09982        0.562712        -1.99725
LJ           2.46217         2.35428        -1.79824
LJ           2.04909         1.24525        -2.04465
LJ          0.416284       -0.334446        -2.07377
LJ          0.607497          1.0016         1.45077
LJ         -0.782609         2.00799         2.38093
LJ          -2.15886        -1.57621       -0.226255
LJ           1.42218         1.67906        -1.05832
LJ          -0.04973        -1.37909          1.1515
LJ        -0.0681031       -0.721522       -0.159422
LJ         0.0694243        -2.52109        -1.45094
LJ         -0.211672        0.562891        -1.68399
LJ          -1.40874       -0.311235        -1.77139
LJ          -1.49967         2.04661         1.83048
LJ            1.6366       -0.134818      -0.0540774
LJ          0.848158         1.03145        0.880264
LJ           2.33675          1.6332        0.116909
LJ          -1.17264        -1.69072       -0.535257
LJ         -0.245058        0.824133         1.86234
LJ           -2.3854      -0.0181782        0.381465
LJ          0.318514         1.44585        -1.24896
LJ        -0.0341686         1.62321       -0.320548
LJ           1.91413         2.13941       -0.220018
LJ         -0.824258        -2.18037       -0.550432
LJ         -0.148985         1.88735        0.927368
LJ         -0.422175       -0.946018         2.17099
LJ          -2.50055       -0.737404         2.24003
LJ           2.17833         2.45233         2.37842
LJ          0.292218         0.11081       -0.294132
LJ         -0.531205         1.77619          1.8742
LJ         -0.355578        0.864474         1.20446
LJ          0.797939        0.404093         2.15177
LJ          -1.37993        -1.72204        -1.76453
LJ         0.0216418         1.25444        -1.72481
LJ          -2.18514          1.8781       -0.616806
LJ         -0.337618       -0.633195         2.11104
LJ           2.38206        -1.07341         -1.4497
LJ          -1.92766         1.13926         1.65672
LJ          -1.30226        0.132544         1.42416
LJ         -0.288133       -0.385881         1.52173
LJ          0.626379        0.731551       -0.974983
LJ          0.577484        -1.54103       -0.317648
LJ          0.780049       -0.341608        -0.77139
LJ         -0.793503         -1.2775         1.03857
LJ         -0.150158        -1.11483        -1.97926
LJ            2.0201          2.3932        -1.93657
LJ         0.0316561        -1.93226         2.18855
LJ         -0.501222         1.46337         2.47831
