108
#Comment!
LJ         -0.286504        -1.87209        -1.61291
LJ           1.88431        0.486337        0.667339
LJ          0.766297       -0.509658        -1.03907
LJ          -1.41951         1.94056        0.132301
LJ        -0.0187565       -0.556403        0.724108
LJ          -1.86794         1.40537        0.262846
LJ           -1.7746         2.09306        0.352793
LJ          -1.99874        -1.33371        0.614019
LJ          -1.12148         1.96196        -2.21277
LJ           2.11654         1.23974        -1.55174
LJ              -nan            -nan            -nan
LJ          -2.23309         2.14144        -1.75643
LJ           2.52331        0.514376        -1.66024
LJ              -nan            -nan            -nan
LJ         -0.327477        -0.41894        -1.13998
LJ              -nan            -nan            -nan
LJ              -nan            -nan            -nan
LJ              -nan            -nan            -nan
LJ        -0.0175406         2.18604        -1.10461
LJ              -nan            -nan            -nan
LJ          -2.37084        -1.29064       -0.798885
LJ          -2.55506           2.365        -2.26002
LJ         -0.947673         -1.2779       -0.974787
LJ              -nan            -nan            -nan
LJ           1.20435        0.771847         1.04511
LJ           0.52335        0.563513       -0.712274
LJ         -0.994166        0.573723         1.23323
LJ          0.837404           2.483        -2.33171
LJ          -1.11069         1.08414        0.202498
LJ           1.09156         2.44519        -2.41729
LJ              -nan            -nan            -nan
LJ          -1.40878        -0.26494         -1.4751
LJ              -nan            -nan            -nan
LJ         -0.931311        0.694721       -0.792751
LJ              -nan            -nan            -nan
LJ          -1.98849       -0.777552         1.68522
LJ          0.724845        -1.72464         2.36296
LJ          0.111768         1.44304         2.47661
LJ           2.53049        0.963012        -2.44666
LJ         -0.554738         1.25847         1.94932
LJ           -2.4309       -0.794905       -0.153649
LJ         -0.618822        0.294685        -1.94486
LJ           0.68658       0.0476363        0.473053
LJ          -2.24567        -1.19137        0.913985
LJ           1.06734         1.01259       -0.788008
LJ          0.946179        -2.37758         2.47699
LJ           -1.4561        0.955322        -1.61652
LJ         0.0717163        -1.07698         0.76126
LJ           -1.3161         2.48379         1.28216
LJ           1.08692         2.43568        -1.65927
LJ           1.03802         1.62196         2.40427
LJ          -1.87464         2.10991        -1.70874
LJ              -nan            -nan            -nan
LJ          0.147232        -0.37114        -1.33085
LJ          -2.06789        -1.47702        -1.68417
LJ          0.427047       0.0890093        -2.08015
LJ         -0.339265        -1.41579        -2.11269
LJ         -0.794863         2.21149         -1.0137
LJ          -1.48275        -1.90724       -0.975755
LJ           1.74929       0.0492163         1.00633
LJ           2.48146        -2.33039         1.13575
LJ           1.50672        -1.42382        -1.06314
LJ           1.29641         1.85026         1.04413
LJ              -nan            -nan            -nan
LJ              -nan            -nan            -nan
LJ          0.385695         1.62431         0.87894
LJ          0.756069       -0.894282         1.54829
LJ              -nan            -nan            -nan
LJ         0.0932086        -1.95306       -0.395243
LJ           2.27753        -2.25138         1.34405
LJ          -1.28152        0.140388        -1.61395
LJ          -2.45545         1.47932        -1.71206
LJ          -1.25661        -2.50548        0.726003
LJ         -0.770994         -0.3013          1.9628
LJ          -2.42043        0.276403          1.9669
LJ          0.127459       -0.660317         2.54207
LJ          -1.24576        -1.99325        -1.50259
LJ          -1.63861       -0.994005         -2.2474
LJ           2.47227        -2.08371        0.582556
LJ          -0.64282        -1.62677        0.575507
LJ          -2.49068         2.43171         2.55366
LJ           -1.1624         1.08747       -0.248627
LJ           1.77329         -2.0193         1.44653
LJ           1.12703       -0.453986        0.782577
LJ          -2.00705       -0.905988           1.499
LJ           -1.7108        0.748733        -1.86084
LJ         -0.345801        -1.40833        -0.38832
LJ           2.53572         2.31516       0.0552689
LJ          0.326197       -0.223415       -0.443761
LJ            -1.801       -0.995967        -1.29282
LJ              -nan            -nan            -nan
LJ          0.455348        -1.72148        0.948386
LJ          -2.47428         1.46568        -1.55393
LJ          -2.36216        0.100915         1.90656
LJ           0.96184         1.30358       -0.886781
LJ            1.5947       -0.920646         -2.3801
LJ           1.61612         1.84318         1.75306
LJ          -1.15082         1.67593         1.31481
LJ              -nan            -nan            -nan
LJ           2.13114        0.173768         2.46185
LJ           -1.4991        0.102981         1.61356
LJ           -1.3248        -2.34031        -1.68711
LJ          -1.19398         0.28035        -2.24541
LJ            1.5428        0.168478        0.496122
LJ              -nan            -nan            -nan
LJ           2.36643       -0.846921         1.65873
LJ          0.776282       0.0649735        -2.03143
LJ              -nan            -nan            -nan
