108
#Comment!
LJ           2.30894         -1.5132         2.47542
LJ          -1.91661         1.85647        -1.07631
LJ           -1.4179        -1.55296       -0.142946
LJ          -2.33095        -1.29094        0.253648
LJ         -0.766701         1.46422         2.04679
LJ         -0.680252      -0.0101223        0.567734
LJ          0.484775        0.133225        -1.03025
LJ           1.94576       -0.735739         2.56435
LJ         -0.886349         1.03981        0.122599
LJ         -0.595093        0.928005      -0.0107793
LJ              -nan            -nan            -nan
LJ          0.405101         1.35799         1.68615
LJ           2.39204       -0.550088         2.04861
LJ              -nan            -nan            -nan
LJ           1.79956        -1.97529        -0.90326
LJ              -nan            -nan            -nan
LJ              -nan            -nan            -nan
LJ              -nan            -nan            -nan
LJ          -2.11443        -1.48655         2.41648
LJ              -nan            -nan            -nan
LJ          -1.93104        -1.05937         1.86081
LJ          -1.11286       -0.219612       -0.875843
LJ          0.405767        -1.58098        0.322381
LJ              -nan            -nan            -nan
LJ          0.504985       -0.952247          2.5094
LJ          -2.04576         1.36039       -0.110112
LJ          -2.31732        0.506043        -1.05518
LJ           2.45186        0.569488        0.317727
LJ          0.448769        0.584783        -2.26687
LJ          -1.28594        -1.29331      0.00584597
LJ              -nan            -nan            -nan
LJ         -0.851764          1.5343       -0.101553
LJ              -nan            -nan            -nan
LJ          0.174123        0.739214       -0.377804
LJ              -nan            -nan            -nan
LJ          -0.83868         1.35243        -1.09318
LJ           0.19526       -0.883776         1.90186
LJ          -1.92858       -0.490707       -0.209417
LJ           -1.3997       -0.894385        0.700538
LJ          0.387871       0.0717269         1.05696
LJ           1.20953       -0.868237         1.16868
LJ          0.227321         1.09946       0.0135681
LJ           1.14735        0.149041        0.359369
LJ         0.0501474         2.00187        -1.75325
LJ         0.0491034         1.69896       -0.315094
LJ          -1.54077        -1.73973       -0.498344
LJ          -1.97601        -1.87807         2.15446
LJ          -1.76405         2.01687         1.85046
LJ         -0.119396        0.808915         1.37544
LJ          0.627311        -1.50499      -0.0220742
LJ          -1.91235        -2.00353       -0.358287
LJ          -1.98285        0.543671        0.881604
LJ              -nan            -nan            -nan
LJ         -0.699432        0.591396        -2.42464
LJ          -1.67738         1.73782         2.12393
LJ           1.59402       -0.625176         2.08438
LJ          -0.77875         2.19224       0.0984295
LJ          0.770818          1.5029        -2.33156
LJ            0.3263        0.302296    -0.000936705
LJ           1.08125       -0.453201         1.22357
LJ         -0.762325        -1.35626         0.36918
LJ          0.413523        0.687541        -0.68759
LJ          -2.04336         2.27904       -0.726717
LJ              -nan            -nan            -nan
LJ              -nan            -nan            -nan
LJ          -2.37222        -2.54472       -0.711052
LJ         -0.737488      0.00520449         1.30145
LJ              -nan            -nan            -nan
LJ           -0.1243         1.51953        0.602359
LJ          -1.17589      -0.0225315        0.565471
LJ           1.97512        -1.53411         2.29128
LJ         -0.519175        0.694701         1.07674
LJ          -1.06947        0.552033         1.08116
LJ         -0.384037        0.418025        -1.74321
LJ          -1.97221        -2.37612        0.450095
LJ          0.304978        -1.48976        -1.22652
LJ           1.14125        -2.37349         2.51773
LJ          0.922287       -0.302901         0.25683
LJ           2.10566        -1.31699         2.33205
LJ           0.47248        -2.11054          1.2409
LJ           1.82883       -0.335402         1.83623
LJ         -0.993243        -1.96036         1.18504
LJ         -0.632411        -2.40047         1.16145
LJ         0.0729074       -0.651264        0.314721
LJ          -1.37747        0.406127        -2.10512
LJ          0.910083          2.2943       -0.966787
LJ           1.18785         1.44476         -1.8064
LJ          -2.37525         2.35862        -2.38892
LJ           1.32361       -0.897211        -1.34324
LJ          -1.10543         0.68815         2.53177
LJ              -nan            -nan            -nan
LJ         0.0574966         2.46161        -2.04132
LJ           1.26991        0.802095         1.33554
LJ          -1.57915       -0.862106        0.369552
LJ           2.14068        -2.40367       -0.232265
LJ           1.75607        -2.02128        -1.15658
LJ          -2.12646       -0.573737         1.30846
LJ         -0.722324         1.16518       -0.395138
LJ              -nan            -nan            -nan
LJ         -0.657896        -2.18927         1.76903
LJ            -2.366        -2.25394        -2.03015
LJ           1.26348        -1.66228       -0.152523
LJ          0.744803        -1.76545       -0.724521
LJ           1.62684       -0.852117        -1.51175
LJ              -nan            -nan            -nan
LJ          -1.00578         1.48037        -1.47867
LJ           1.89466         2.45726        -1.89792
LJ              -nan            -nan            -nan
