108
#Comment!
LJ         -0.605034         2.14313       -0.431151
LJ          0.707906        0.542299        -1.32954
LJ           1.76213         1.04866         1.78423
LJ           1.55836          2.5431          2.0491
LJ           1.78371       -0.306344       -0.395458
LJ            1.2372        -1.23538         1.50965
LJ           1.21816         1.22109         1.51941
LJ           2.28042        0.202207         1.69405
LJ          0.301909        0.132158       -0.599854
LJ         -0.388722         2.12383         1.15231
LJ              -nan            -nan            -nan
LJ          -2.28159         1.97166        0.535297
LJ         -0.987318         2.33809         1.43679
LJ              -nan            -nan            -nan
LJ        -0.0972549        -2.05952        -1.12957
LJ              -nan            -nan            -nan
LJ              -nan            -nan            -nan
LJ              -nan            -nan            -nan
LJ          -1.20249         1.47718      -0.0478599
LJ              -nan            -nan            -nan
LJ           -2.4314         2.04156         1.19899
LJ           2.05887        -1.36508         1.84536
LJ            -2.086        -2.06287        -1.50862
LJ         -0.157226        -2.43431        0.194576
LJ          -1.23356         -2.4936         2.04873
LJ          -1.35944        -2.19061       -0.903845
LJ          -1.50863          2.0137        -1.04072
LJ           1.29087        0.265136         0.27137
LJ         -0.193401         1.71682         1.58986
LJ          -2.01782        0.340667        -1.93735
LJ              -nan            -nan            -nan
LJ          -1.63859        -1.75693        -1.46221
LJ              -nan            -nan            -nan
LJ          0.528823         2.32041       0.0731322
LJ              -nan            -nan            -nan
LJ          0.438209        -2.45296        0.246599
LJ           -1.7404         2.47549         1.45726
LJ          -1.08317         1.00386        -1.47493
LJ         -0.812019          1.1439        0.162178
LJ            1.3771        -2.44725         2.52032
LJ           1.34636        -1.21171         2.11641
LJ          -1.99233        -1.60336        -1.67545
LJ           1.52945        -1.39586       -0.235231
LJ         -0.663223       -0.659787        0.479519
LJ           -2.2892        -1.36205        0.435779
LJ          0.297406       -0.122924        -2.04515
LJ          0.246807        -2.31207        -2.46306
LJ          -1.61073          -0.806        -1.36432
LJ          -2.08387         2.08743         1.72459
LJ           1.79971       -0.883517        -1.40083
LJ          -1.71387       -0.538082         1.41841
LJ           1.75826        0.305825        -1.36291
LJ              -nan            -nan            -nan
LJ          -1.53958      -0.0087491       -0.396921
LJ           1.73356       -0.357579        0.372121
LJ          0.119185         -1.6468       -0.697314
LJ          -1.61733      -0.0592817        0.968509
LJ           1.54727         2.44762        -1.93554
LJ         -0.610686        -1.96463        -2.25031
LJ          0.989717       -0.882169         1.96347
LJ          0.916615      -0.0236281        -1.47719
LJ          0.492921        -1.68345       -0.460602
LJ          -1.60173        -0.70939         -1.5509
LJ         -0.184712        -1.05117        -1.92241
LJ              -nan            -nan            -nan
LJ         -0.792315         1.41938        -0.60105
LJ           2.26126       -0.955406        -1.82477
LJ              -nan            -nan            -nan
LJ          -1.58348       -0.782735         2.11526
LJ         -0.777618       -0.994793         1.66196
LJ           1.34263         -2.4472         -1.1251
LJ        -0.0276557         1.74752        -1.57777
LJ          -2.06594        -1.91061       -0.776253
LJ         -0.229209       -0.241363        -0.72609
LJ          0.270242          1.5401         1.75097
LJ          -1.56405        -2.24683        0.848532
LJ           1.20763         1.28064         1.50912
LJ           2.31838       -0.352075         1.24471
LJ           2.28457        0.661058        0.889767
LJ         -0.135817        0.689587        0.877485
LJ           2.08793        0.843808        -2.54177
LJ          0.924601        -2.12412           1.053
LJ          -1.90337       -0.185793      -0.0153137
LJ          -1.08306        -1.09039         2.54862
LJ          -1.18548         2.11492       -0.437636
LJ          0.936443        0.594148         0.55543
LJ          -1.38826       -0.851854        0.804528
LJ          -2.35336        0.256234       -0.295449
LJ          0.270927       -0.986561         2.25028
LJ           1.89838        -2.41977         2.15376
LJ              -nan            -nan            -nan
LJ          -0.17672         1.68353        -2.44351
LJ         -0.332383         1.51189        -1.65575
LJ           1.71343        0.189482         2.32345
LJ          -1.03007       -0.101379         2.24148
LJ          0.563977        -2.00511        0.760946
LJ          -1.76658        -0.94592        0.144352
LJ           2.03085         2.50191         0.65457
LJ              -nan            -nan            -nan
LJ           1.68505        -2.34211         2.18475
LJ          -2.28616       -0.563375        -1.33254
LJ           1.55028        0.467629       -0.140589
LJ           2.12323         1.53284        -0.30539
LJ           2.03635         1.60788        0.985133
LJ              -nan            -nan            -nan
LJ           -1.7431         1.28826        0.599876
LJ          -2.06381      -0.0553382         1.34463
LJ              -nan            -nan            -nan
