108
#Comment!
LJ          -2.29207         1.37908         1.92987
LJ          -1.09073       -0.849853        -1.67638
LJ           2.44106          1.4542         2.16824
LJ         -0.700182         1.96032         2.07751
LJ          -2.09571       -0.131339        -2.07233
LJ           2.06522         2.31874       -0.259427
LJ           0.12046        0.851158        -1.20519
LJ          -1.93392         2.06495        0.164457
LJ          -2.31907        -1.36576        -1.04364
LJ         -0.788335        -1.36884         1.33791
LJ              -nan            -nan            -nan
LJ         -0.165559        -2.19343        -1.72135
LJ          0.759791       -0.680991         1.31609
LJ           1.17654         1.55867         1.62678
LJ          -1.99949        0.932501       -0.591167
LJ          -1.06696         -1.8312        -1.39628
LJ              -nan            -nan            -nan
LJ              -nan            -nan            -nan
LJ         -0.163472         2.40252         0.31744
LJ              -nan            -nan            -nan
LJ           2.25363        -1.09204       -0.975602
LJ           1.31754        0.814215        0.325798
LJ            1.6029        0.570652       -0.644546
LJ          -1.39663         2.22087        -1.97538
LJ           1.38487       -0.812319         2.41403
LJ          -2.21032        0.783792        0.242741
LJ           1.58393         1.51213         1.58014
LJ           -1.7347         1.83235       -0.590587
LJ           1.66293         1.64718       -0.459066
LJ            1.2006         1.97313       -0.466677
LJ          -0.53123         0.90094         1.58748
LJ             1.712         2.27135        -2.11946
LJ              -nan            -nan            -nan
LJ         -0.668929       0.0181253         2.45551
LJ              -nan            -nan            -nan
LJ          -1.91158         1.53182         1.47144
LJ           1.11917         2.56174        -2.44942
LJ         -0.367147         2.52163         1.77543
LJ         -0.828071       -0.839645        -1.79343
LJ           2.45731         2.40123        -1.44264
LJ            2.1173        -1.47063        0.341539
LJ           1.99495        -0.25099        0.722139
LJ          -1.55008          1.6044       -0.624648
LJ          0.351281       -0.669623         -0.6961
LJ          -1.75462         2.11583         0.68228
LJ          -2.11741         2.42165        0.170347
LJ          -2.43817        0.915956        0.851237
LJ          -1.10514         -1.8084         2.55746
LJ            1.9578        -2.32019        0.229895
LJ          -1.40434       -0.369207         2.40581
LJ          -1.02028        -1.08525       -0.286556
LJ          0.184698         1.54035           -1.27
LJ              -nan            -nan            -nan
LJ           2.15929        -1.75121        -1.23552
LJ           1.90667         -2.0859        -2.52631
LJ          -2.23386        -0.71257       0.0493927
LJ          0.410203        -1.28313         2.32282
LJ          -1.34523         2.50731        -0.23841
LJ          -2.24144         2.21359        -2.05746
LJ         -0.932873        0.989091      0.00224662
LJ          -1.20144         1.34129         1.43315
LJ          0.519393         1.23941       -0.281533
LJ           1.34851        -1.43226         1.92844
LJ         -0.254459        0.719669       -0.916925
LJ          -1.87763        -1.75895         1.95148
LJ          0.769294         2.32358         1.58315
LJ         0.0423785         2.38569        -1.56713
LJ              -nan            -nan            -nan
LJ          -1.29583         2.46415        -1.96623
LJ          -2.22251        -2.27417       -0.348012
LJ          -1.71109         1.58145        -1.38351
LJ           1.66723        0.874654         2.16062
LJ           1.63712        0.160571      -0.0645562
LJ         -0.782884         2.34582        -2.42553
LJ          -2.49272        0.817629       -0.833842
LJ           0.26548       0.0284552       -0.609313
LJ          -2.04626         1.50807          -2.191
LJ           1.81726        -1.22422       -0.709242
LJ           1.27822         1.76155       -0.143363
LJ          0.160181        0.657813         1.69855
LJ           1.70388       0.0458138       -0.866362
LJ           1.86039        0.211032        0.654777
LJ          -2.38666        0.146486         1.10573
LJ          0.633875        0.345854         2.45136
LJ          -1.91396        -2.34468         2.55873
LJ           1.73293        -1.08488       -0.361232
LJ         -0.366561         2.09103        -1.70957
LJ         -0.903725        -2.39953       -0.951548
LJ        -0.0202893         1.42004        0.344931
LJ          -1.82104         1.90727        0.641872
LJ              -nan            -nan            -nan
LJ          -1.90457       -0.738297         2.22233
LJ          -1.44739        0.641519       0.0209789
LJ          -1.22832         1.01922        -1.67806
LJ          -1.46772         -2.5202         0.40614
LJ           0.19863         1.42896        0.966399
LJ          -2.04273         1.33521        0.745667
LJ           1.52913         1.26043        -2.06818
LJ          -2.49047        0.768123        0.892042
LJ          0.593411        -1.21922        -1.81157
LJ          -1.05283        -2.27888        -1.57914
LJ          -0.90399        -2.38003         2.41108
LJ            2.0124        -1.12193      -0.0812522
LJ           2.13708         2.29991        0.867699
LJ           2.09209        0.425728         2.14968
LJ          -1.70175       -0.582337         1.94836
LJ          -0.80797       -0.321148        -1.74569
LJ              -nan            -nan            -nan
