108
#Comment!
LJ         0.0553848        -0.21585         2.53844
LJ           1.79736        -1.72537          1.2664
LJ          -2.32765        0.117293        -1.86202
LJ         0.0495165        -1.14009        -1.91874
LJ          -0.94836         1.24287       -0.514504
LJ           -1.8374       -0.196234         2.09761
LJ           1.12719        -2.24097        -1.39909
LJ          0.443698        -1.17024        -1.16033
LJ          0.527345       -0.219752        0.784693
LJ           1.38289        -1.62767        0.367938
LJ              -nan            -nan            -nan
LJ          0.980102         2.40647         1.60306
LJ          -1.41964        -2.50796         1.46615
LJ              -nan            -nan            -nan
LJ          -2.01676        -1.65936        -1.34968
LJ              -nan            -nan            -nan
LJ              -nan            -nan            -nan
LJ              -nan            -nan            -nan
LJ          -1.59651        -1.82146         2.20396
LJ              -nan            -nan            -nan
LJ           2.21865        -1.01056        -1.20692
LJ          -1.80507       -0.919366       -0.618877
LJ          -1.15162        -2.11903       -0.368819
LJ              -nan            -nan            -nan
LJ           1.03028          -2.453        -1.39293
LJ            0.9746       -0.712072        -1.07224
LJ         -0.322304        0.670247         2.22224
LJ         -0.452243        0.497451       -0.749752
LJ           -2.0574        -1.27039        0.916611
LJ           1.57313         1.06952        -1.87473
LJ              -nan            -nan            -nan
LJ          -0.85867        -2.26437        -1.32925
LJ              -nan            -nan            -nan
LJ             2.316         1.63496         2.37216
LJ              -nan            -nan            -nan
LJ          -1.36388        0.479368       -0.237632
LJ          0.968183       -0.136348          1.5811
LJ          -1.36462        -2.17483        -1.54241
LJ           1.05223        -1.00642        -1.60009
LJ          0.389246         1.69212         1.83447
LJ           1.32141        -2.40207       -0.414405
LJ         -0.979298        0.276162         1.06989
LJ          -1.93949        -1.98907       -0.571652
LJ          -2.54328       -0.991983       -0.944147
LJ          -2.49449      -0.0587392          0.9534
LJ          0.347433       -0.160012         2.36364
LJ          0.204047         1.98768       -0.418272
LJ         -0.842243        -0.29391       -0.584793
LJ          0.628837        -2.02516        -1.77364
LJ          0.978683        -1.81414         1.86099
LJ           1.05197         2.16963         1.32728
LJ           1.77878         2.01337        -2.26867
LJ              -nan            -nan            -nan
LJ          -0.26273       -0.978197        -2.17765
LJ         -0.993308         2.01821        -2.45213
LJ          -1.62044        0.731726        -1.83551
LJ         -0.537917        0.511959        -1.29906
LJ          -1.84343       -0.246191        -2.43143
LJ           2.39073         1.91054         0.92498
LJ         -0.910441         1.03313        -1.68997
LJ         -0.882479        -1.55473       -0.995664
LJ           2.25793         1.09361        0.853138
LJ          -1.96834      -0.0642065      -0.0507733
LJ              -nan            -nan            -nan
LJ              -nan            -nan            -nan
LJ          -1.60583       -0.345739         2.46578
LJ         -0.697154        0.501695       -0.239975
LJ              -nan            -nan            -nan
LJ          -1.22379         1.19184        0.896544
LJ           1.43346        -2.37656         1.66985
LJ          0.578019        -2.46672        -2.21798
LJ          -1.85131         2.36538        -1.64312
LJ           2.12701         2.24841        -0.35945
LJ          -2.05692        -1.13993       -0.232752
LJ           1.12459         1.35266       -0.272119
LJ           1.94834         1.19524         1.56072
LJ          -1.84234        -1.88677        -1.79976
LJ            1.8704        -1.70631         1.24334
LJ           1.42618         0.70445         2.08493
LJ          -2.21416         -1.7502        0.266109
LJ         -0.397366        -2.07489         1.53368
LJ          0.667332        -2.23816         2.18607
LJ            2.4194        -1.88282        -2.00484
LJ         -0.345103        -1.61922        -1.06308
LJ            2.4047        -2.39377         1.60786
LJ           1.79061         1.04136        -2.51683
LJ         -0.262992        -2.15784         1.32998
LJ         -0.607217         2.11043        0.711638
LJ         0.0190346        0.509988        -1.93706
LJ          -1.92195         1.54463        0.347905
LJ              -nan            -nan            -nan
LJ          -2.25447         0.82101         1.63939
LJ         -0.415092         1.47204        -1.03981
LJ         -0.612268        -1.31048       -0.167006
LJ          0.167388        -2.53024        -2.17262
LJ           -2.2183         1.43499        -2.31411
LJ          -1.41082       -0.342686        -2.39571
LJ           1.82574       -0.603498         1.61301
LJ              -nan            -nan            -nan
LJ          -1.64849        0.595332         0.23499
LJ          0.301942        0.938487         1.94021
LJ          -2.33636      -0.0190746        -2.19581
LJ           2.38292         1.58684       -0.119716
LJ           2.22077         1.32131         2.11289
LJ              -nan            -nan            -nan
LJ          0.737038        -1.10835         1.67081
LJ         -0.570297         2.44813         2.05384
LJ              -nan            -nan            -nan
