108
#Comment!
LJ          0.836742       -0.495803      -0.0401261
LJ         -0.100119        -0.71505         1.28205
LJ          -1.14888        0.555666         1.99615
LJ          -1.58322        -1.08303        0.436986
LJ         -0.699054        -1.12492         2.50703
LJ          -2.07574          2.4877       0.0111553
LJ         -0.635143         2.35516        -1.58254
LJ          -2.38695       -0.616526        -1.85189
LJ            2.4404       0.0439538         -2.4657
LJ          0.501154        -2.50089      -0.0287053
LJ              -nan            -nan            -nan
LJ           1.06138        -1.56162        -1.64586
LJ           1.24197       -0.837952         2.47532
LJ              -nan            -nan            -nan
LJ          -2.17841         1.63113         1.48853
LJ              -nan            -nan            -nan
LJ              -nan            -nan            -nan
LJ              -nan            -nan            -nan
LJ          0.239722         2.40878       -0.214951
LJ              -nan            -nan            -nan
LJ         -0.856501         2.25151        -1.50733
LJ          -2.48216        0.708742         1.19056
LJ           2.31622        -1.62164         1.72917
LJ              -nan            -nan            -nan
LJ          -1.46846       -0.523149       -0.855253
LJ          0.419997       -0.998858       0.0395795
LJ           1.59083         -1.7453        -1.44037
LJ           2.54866        -1.12121         2.07732
LJ         -0.692251       -0.569286         1.86391
LJ           -1.3285        0.164039         1.28662
LJ              -nan            -nan            -nan
LJ           2.41413         1.82051         1.19852
LJ              -nan            -nan            -nan
LJ         -0.586151        -1.06092         2.34988
LJ              -nan            -nan            -nan
LJ           1.23983        -1.89359       -0.275357
LJ           1.23469         -1.9675          -1.098
LJ           1.20697         1.81543       -0.590796
LJ           1.08228        0.301233        0.305012
LJ          -1.28778         1.36388      -0.0885156
LJ          -2.34614           1.566         2.30444
LJ           1.75805        -1.18659        0.907624
LJ         -0.823013        -2.10471         1.55445
LJ           2.33335       -0.410947         1.36556
LJ         0.0390251         1.76825        0.745863
LJ           1.79619       -0.445777        -1.87914
LJ          -2.06002        0.379523        -2.52643
LJ         -0.450138        0.664725        0.599345
LJ          -2.30964         2.13705        -1.63566
LJ           2.33751        -1.60792        -1.98628
LJ          -1.70862        -0.46811        0.887419
LJ           2.15963         0.71377        0.901387
LJ              -nan            -nan            -nan
LJ          -1.87507       0.0278349        -2.31312
LJ          -2.01364         1.78902        0.950481
LJ          -2.28402        -1.59352        -1.66192
LJ         -0.565524         2.30807       -0.572441
LJ          -1.41098         2.20525         2.29649
LJ           1.53127        0.448407       -0.885723
LJ          -2.45205        -2.01991        -2.25755
LJ           2.02778       -0.458504       -0.305025
LJ          0.879983          1.0468         1.13034
LJ          -1.97327         1.08742        0.319271
LJ              -nan            -nan            -nan
LJ              -nan            -nan            -nan
LJ        0.00440959       -0.215068       -0.786705
LJ          0.990284         1.93445         1.75501
LJ              -nan            -nan            -nan
LJ            1.9544       -0.549279        -1.87626
LJ          0.530331        -2.21352         2.12935
LJ         -0.209327       -0.250032      -0.0786073
LJ          -2.17083        -1.04945         1.64887
LJ          0.764525       -0.822042         1.11623
LJ          -1.17727         1.48359         -1.3719
LJ         -0.208379        -2.43813        -2.53947
LJ          -1.75735        -2.30195        0.399716
LJ          -1.16164          1.1405         2.51824
LJ          -2.04279       0.0124224       -0.277415
LJ         -0.030704         2.36234        -1.27213
LJ          -1.09722         2.26395        0.613779
LJ          -1.94395       -0.215688         2.46099
LJ          -2.29218         2.17284        -2.34957
LJ           1.15563        -1.75283        -2.31977
LJ           1.08977       -0.589417         2.27401
LJ           2.05476        -1.49212         1.01026
LJ           -1.1785         1.22246         2.01595
LJ         -0.154074        0.829251        0.808361
LJ           1.63111         2.39572       -0.407372
LJ          0.884198       0.0496156        -1.56947
LJ         -0.289352        -2.37251         1.76096
LJ              -nan            -nan            -nan
LJ         -0.257557         1.64691         1.49677
LJ           2.43848        -1.53401       -0.887894
LJ          -2.45576        -1.92389         2.09958
LJ         -0.801846         1.85461        -2.13778
LJ        -0.0132361         1.50344         2.01064
LJ          -1.60261           1.794         1.87882
LJ          -0.79899         2.49727         2.44511
LJ              -nan            -nan            -nan
LJ           1.40217         1.07098         1.49881
LJ           1.42703        0.235097         2.42839
LJ           1.48232         2.02831        -1.55276
LJ           1.06004         2.29663        -2.44523
LJ           0.42468       -0.345275       -0.989281
LJ              -nan            -nan            -nan
LJ         -0.450627        0.614317        -1.20873
LJ           1.39056         2.37588        -2.13028
LJ              -nan            -nan            -nan
