108
#Comment!
LJ           -1.0286         2.46897        -2.20295
LJ         -0.507239        0.206272         1.91011
LJ         -0.154183        -1.79491        0.341065
LJ          -1.66124         2.52149        -0.54383
LJ           2.03166        0.500279         2.55191
LJ           1.32509         2.40822        0.566182
LJ           2.32227        0.458913        -2.16698
LJ          0.279653         2.32127        0.380915
LJ         -0.332695        0.548431       0.0864604
LJ           0.31927         2.10816          0.7838
LJ              -nan            -nan            -nan
LJ           1.70662        -2.13444        0.893392
LJ         -0.315088        0.237452         2.49685
LJ              -nan            -nan            -nan
LJ          -1.56451        -1.26777         1.25621
LJ              -nan            -nan            -nan
LJ              -nan            -nan            -nan
LJ              -nan            -nan            -nan
LJ           0.30416        -1.73106         2.01482
LJ              -nan            -nan            -nan
LJ          0.781457         1.92044        -2.18512
LJ        -0.0679878        -1.78973        -2.32418
LJ          -2.52346         1.59065         2.37521
LJ          -1.73641        0.374759        -2.36669
LJ           1.56448        -1.25599       -0.900544
LJ           -1.7829       -0.281242       -0.150074
LJ           1.30372       -0.930856         2.05731
LJ          -1.50437       -0.139974        0.314701
LJ          0.610033       -0.637729        -1.67151
LJ           1.92283         1.79629        -1.79365
LJ              -nan            -nan            -nan
LJ           1.10109        -2.11344        -2.04085
LJ              -nan            -nan            -nan
LJ          -2.10361        0.326577         1.47789
LJ              -nan            -nan            -nan
LJ          -1.47686       -0.758072        -1.55965
LJ          -2.03756      -0.0455651        0.433368
LJ          0.914721         2.18822          -1.392
LJ          -1.97127        -2.18463       -0.911261
LJ           2.35308         0.84167       -0.563892
LJ          -1.62445        -2.47526        -1.72237
LJ          -2.38336      -0.0925303         1.93986
LJ           1.78276        -1.07327        -2.52485
LJ         -0.233076         1.76057        -1.75106
LJ          -1.42417        -2.08021       -0.711472
LJ           1.54926        -1.90716       0.0183765
LJ           1.26602         -1.3343         -2.3463
LJ          -1.62753        -1.60107        0.922354
LJ          0.626695         1.33223        -1.64653
LJ           2.36826       -0.141712        0.343901
LJ             1.938       -0.758209        0.289244
LJ          0.392923         1.07672        0.580656
LJ              -nan            -nan            -nan
LJ           1.51458        -2.02602         1.29018
LJ          -1.10251         1.23108        -2.10074
LJ         -0.400236         2.22654        0.207166
LJ          0.499689       -0.113182       -0.748023
LJ         -0.184203        -0.75601         1.09189
LJ           1.45646         1.12342         1.06652
LJ             1.941         1.07022        0.268971
LJ          -1.90916        -2.55151        -1.03971
LJ         -0.209304        -2.37669         1.05534
LJ         -0.344453        -1.96164       -0.205042
LJ           1.72571          1.3269          1.4759
LJ              -nan            -nan            -nan
LJ           1.70829         0.21011        -1.96483
LJ         0.0474554        0.527842        0.205496
LJ              -nan            -nan            -nan
LJ           2.19437        -0.10706         1.30183
LJ         -0.663349       0.0364011         1.19877
LJ         -0.523536          2.4318       0.0796634
LJ          -2.53435         2.20743        0.139396
LJ          -1.76862        0.111152        0.560537
LJ          -2.30561        -1.85184       -0.386758
LJ        -0.0272155        0.836662        -1.84116
LJ            1.3414        -2.07676         -1.6602
LJ          -1.99771         2.56052      -0.0649539
LJ           2.42024         2.03291        -2.52807
LJ        -0.0669313        -1.55301         1.81949
LJ          0.137343        -1.28372         1.70911
LJ          -1.77377        -2.02257        0.768265
LJ         0.0299459         -1.7679       0.0591369
LJ         0.0568406       -0.351138        -1.01126
LJ          -1.66423        0.608658        -1.58322
LJ          0.175792      0.00411416       -0.524742
LJ          0.496926         2.11513        -1.12561
LJ           1.13024         -1.5616       -0.160024
LJ           1.06342        -2.05989        0.314154
LJ           1.84732        0.498286        -2.49445
LJ           1.00838         1.76311        -1.55118
LJ              -nan            -nan            -nan
LJ           2.47616        -2.54053        -2.21092
LJ           2.17199        -2.52121        0.402474
LJ          -1.79449         1.88352         1.60194
LJ         -0.756034        -2.13399        -1.70884
LJ         -0.029406         1.28669       -0.737622
LJ           1.98226        0.706129         2.03593
LJ           2.00781        0.473665       -0.276294
LJ              -nan            -nan            -nan
LJ          -1.52162       -0.768665        0.178279
LJ         -0.857954        -2.09052         2.22654
LJ           1.34912       -0.150569        -2.38277
LJ         -0.898231        -1.47018       -0.847578
LJ          -1.85983         1.70721        -1.59609
LJ              -nan            -nan            -nan
LJ         -0.154572        -2.47526         2.27275
LJ          -2.42729        -1.64126        -1.94089
LJ              -nan            -nan            -nan
