108
#Comment!
LJ         -0.446002        -1.22829         1.50593
LJ           1.53598        -1.72139       -0.754817
LJ            1.2141       0.0513201         1.73529
LJ          0.390851        -1.80299        -2.48563
LJ        -0.0605457        0.801314       -0.117371
LJ           -1.9115       0.0944888         1.47501
LJ         -0.088228        -2.07028       -0.424286
LJ         0.0282584       -0.594923        -1.36275
LJ          -1.08475         2.45269        0.969634
LJ         -0.435999         1.41199       -0.330309
LJ              -nan            -nan            -nan
LJ           -1.8205      -0.0941874         1.22175
LJ           2.19118         1.46269        0.191067
LJ              -nan            -nan            -nan
LJ          -1.77545        -2.51644        -1.17554
LJ              -nan            -nan            -nan
LJ              -nan            -nan            -nan
LJ              -nan            -nan            -nan
LJ          -1.34815         2.42302     -0.00514459
LJ              -nan            -nan            -nan
LJ         -0.205891         -2.1854        -2.40665
LJ          -2.13934        -1.72171        -1.48175
LJ           1.63924         1.04827        -2.55855
LJ              -nan            -nan            -nan
LJ         -0.107478        0.570451       -0.471047
LJ            1.4201        -1.19231       -0.207898
LJ           2.00708         1.65947         1.98502
LJ           1.44914        -2.46657        -2.35928
LJ        -0.0528541        -1.99491         1.58878
LJ           2.34586         1.93081        -1.85979
LJ              -nan            -nan            -nan
LJ           1.71296         1.78623         1.07834
LJ              -nan            -nan            -nan
LJ          -1.09972        -1.85228        -1.13226
LJ              -nan            -nan            -nan
LJ          0.857094        -1.10528        0.822421
LJ          -1.25332       -0.894082       -0.824744
LJ          -2.50899         1.61962       -0.334425
LJ           1.87902         1.96032        -1.83845
LJ          -1.46757         1.74871          2.0921
LJ          0.487473        -2.20271         1.87603
LJ          -0.90071        0.666875         1.46915
LJ           1.80809         1.96101        -1.99816
LJ         -0.851342         1.20836         1.84533
LJ          -2.51074        0.329976        -2.48979
LJ           1.94844        -2.27987        -2.37365
LJ           2.38546        0.498203        0.143588
LJ          0.604961         1.01709         1.42042
LJ          -1.03713        -1.64312         1.41055
LJ          0.723246        -2.36413     0.000127879
LJ           1.19885         1.36799         1.75314
LJ          0.983357        -1.24623         1.85601
LJ              -nan            -nan            -nan
LJ         -0.161761        0.661377         -1.1157
LJ         -0.412411          1.5284        0.656332
LJ          0.185208       -0.158802         1.08846
LJ         -0.739543        -2.03696        0.616246
LJ          0.430434        0.672414       0.0656481
LJ          -2.18757         1.85557        0.437661
LJ          -1.74774       -0.828701        -1.26658
LJ           2.09132         1.43343        -0.40214
LJ          -2.13877       -0.270456         1.55346
LJ          -1.47654        -2.53736         1.30929
LJ              -nan            -nan            -nan
LJ              -nan            -nan            -nan
LJ          0.782349        0.902238         1.39095
LJ           2.20154         2.32507        -1.54365
LJ              -nan            -nan            -nan
LJ          -2.26154         1.41991       -0.220791
LJ         -0.368156        -2.10231          1.2975
LJ         -0.767833         2.24761       -0.501144
LJ          -0.75036        -1.84521        0.831045
LJ         -0.728779         2.44728        -2.11394
LJ            1.0562         2.31745       -0.259396
LJ         -0.277338         1.87455        -1.62103
LJ           1.36554        -1.80775       -0.644728
LJ           -2.0229        -1.12181        -0.89227
LJ           1.03201        -1.46202        -1.43866
LJ            2.3102       -0.770997       -0.674459
LJ          0.656378          1.4696         2.06309
LJ          0.509785       -0.131714         -1.8467
LJ          0.355357       -0.610928       -0.859013
LJ        -0.0766048        -1.20351          1.2069
LJ          -2.42947        -1.37103       -0.583035
LJ          0.232758       -0.578067        -1.55191
LJ           2.33218       -0.867555         2.07909
LJ          -1.95755        0.795825         1.37525
LJ         0.0710652        -0.67414        -1.92052
LJ          -1.12136        -2.25529      0.00748055
LJ           1.53725        -1.07546        -2.25461
LJ              -nan            -nan            -nan
LJ          -1.20373         1.23947       -0.692288
LJ          0.987817         2.55184       0.0223946
LJ         -0.802625       -0.427049         -1.5267
LJ          -1.40158        -1.14323       -0.721787
LJ          -2.41656        0.556925        -1.60369
LJ         -0.715899       0.0509512         1.73459
LJ          0.915401        0.922787        0.175849
LJ              -nan            -nan            -nan
LJ           1.62843       -0.471218         1.32778
LJ           1.64877       0.0510215         2.41844
LJ           1.32744        -1.93149       -0.569187
LJ          -1.63871        0.823715        -0.21742
LJ           1.29903         1.85839       -0.575225
LJ              -nan            -nan            -nan
LJ           0.35334       -0.493859        -1.09587
LJ           2.52876        0.625087       -0.331831
LJ              -nan            -nan            -nan
