108
#Comment!
LJ           -0.1981        0.412774         2.14395
LJ          -2.32481         -1.5083        0.781233
LJ         -0.153336        -2.19544        0.360408
LJ          -2.12945        -1.33877        -1.97014
LJ           2.30662         -1.6455           1.513
LJ         -0.216466         1.06218        0.567658
LJ         -0.961926          1.9997         1.22362
LJ          -2.02167         1.77974         1.23052
LJ          -2.10479       -0.121325         1.38914
LJ          0.340887        0.984645        -1.06189
LJ              -nan            -nan            -nan
LJ          0.715438       -0.312408         1.86681
LJ          -2.35758          1.4014         2.42429
LJ              -nan            -nan            -nan
LJ         -0.261173        -1.42703       -0.413837
LJ              -nan            -nan            -nan
LJ              -nan            -nan            -nan
LJ              -nan            -nan            -nan
LJ          0.663555       -0.691452         1.08484
LJ              -nan            -nan            -nan
LJ          0.855452         1.53244        0.214189
LJ           1.72894        -1.34697        0.630988
LJ         -0.560886       -0.125191        -2.13388
LJ          0.506511         2.06034         1.05834
LJ           1.74206         1.40462         2.24961
LJ          0.458506         1.45763        -1.98801
LJ           -0.2861        -2.51008         1.39178
LJ         -0.243499         1.45514       -0.574665
LJ          0.442197       0.0109109        0.695579
LJ           1.46149       -0.632749        -1.54881
LJ              -nan            -nan            -nan
LJ           0.79813         2.53308          0.6728
LJ              -nan            -nan            -nan
LJ          0.617263       -0.548701         0.19975
LJ              -nan            -nan            -nan
LJ          -2.19986        -2.09343        -1.07397
LJ           2.00492         2.18592          2.5138
LJ           1.89232        -1.06737        0.191261
LJ         -0.377648        -2.17699        0.632617
LJ          0.428747       -0.237808        0.642993
LJ          -1.73894       -0.229923        -1.72318
LJ          -2.23865        0.142731         1.55797
LJ            1.5461         1.62028       -0.672071
LJ          -2.08822        -1.07994         2.07508
LJ           1.00567        -1.99435        -1.96945
LJ           2.12583         2.54527         1.98473
LJ          -1.47128        -1.43011        -1.86464
LJ          -1.72544        -2.39729         1.77105
LJ          -1.00005         2.45806        -1.45463
LJ           2.38339         1.23758         2.05768
LJ          -1.32086        -1.48701         1.36122
LJ           0.73927         1.51299        -1.92166
LJ              -nan            -nan            -nan
LJ           2.28705        0.244027        0.671601
LJ           0.16094        -1.49026       -0.267304
LJ          0.844873        0.663509       -0.438387
LJ             1.122         -2.5138        -1.57981
LJ          -1.47452        -1.60302       -0.822227
LJ          -2.32761        -1.10808       -0.849624
LJ          0.451895        -2.33106       -0.521696
LJ         -0.137698        -1.42248        0.478874
LJ          -1.69597          2.5025         -2.2122
LJ           1.00752        -2.21226        -1.57862
LJ         -0.184548       -0.487317         2.18324
LJ              -nan            -nan            -nan
LJ         -0.191188        0.386863       -0.804953
LJ           2.44227        -1.17263          1.7386
LJ              -nan            -nan            -nan
LJ           1.59324        0.664349        -1.42505
LJ          -1.77821       -0.405453         -2.3514
LJ          -1.51949        0.163617         2.32294
LJ          0.272829        -2.22839        -1.95192
LJ         -0.150305        0.753629        -1.02809
LJ          -1.40593       -0.303092        -1.95991
LJ         -0.994569        -1.20875      -0.0499325
LJ           -1.3829         2.53298         0.13018
LJ           1.87604        0.610987        -0.96594
LJ          -1.73015        -1.61339       -0.511381
LJ          -1.36056        0.461835        -2.09173
LJ          -1.90801        -1.97016       -0.161179
LJ          -1.61903        -2.17314       -0.301502
LJ            2.0467         1.89655       -0.695632
LJ          -1.38936         1.74291      -0.0197977
LJ           2.08878         1.16584       -0.553161
LJ           1.29712         1.96696        0.366065
LJ          0.749441       -0.988868         2.45871
LJ          0.477048         1.51745       -0.217764
LJ         -0.765659         1.99013        -2.16196
LJ           -1.5065         -1.4912          1.4593
LJ          -0.32187        -2.18486        0.733088
LJ              -nan            -nan            -nan
LJ         -0.798872          1.1722       -0.185354
LJ          -2.17924       -0.707216        -2.02667
LJ           0.83681       -0.396359          1.8251
LJ           1.35823        -1.59696        0.287683
LJ           1.89746       -0.268164        0.480052
LJ          0.125582         1.41026        0.937638
LJ          -1.54736          -1.729        0.918131
LJ              -nan            -nan            -nan
LJ          0.929316       -0.450336       -0.813266
LJ         -0.292422         2.32084         1.41176
LJ          0.374032          1.4882       -0.339106
LJ        -0.0309931        -1.23982        -1.99956
LJ         -0.197285        0.145916         1.46866
LJ              -nan            -nan            -nan
LJ           1.77665        -1.33885        -2.30633
LJ          -2.32086        -0.74743        -1.62796
LJ              -nan            -nan            -nan
