108
#Comment!
LJ           1.34994        -2.29445        -1.98492
LJ           2.05787         2.10156        -1.40552
LJ          -2.39588        -2.52268       -0.738436
LJ         0.0490492       -0.506195         1.87011
LJ          -2.56035        0.653854        -1.73111
LJ          -0.14521         -2.4903         2.47646
LJ           1.77797        -1.93418        -2.46381
LJ          -1.51987        -1.30219        0.100714
LJ          0.859936        -1.70717        0.139827
LJ          0.652969        -2.05633         1.84356
LJ              -nan            -nan            -nan
LJ           1.15591        -1.44964        0.723624
LJ           2.06015        0.974979        0.170576
LJ          0.916251        0.307366         1.35708
LJ          0.168343        -1.67796        0.778514
LJ         -0.421432        -2.06532         1.30402
LJ          -1.60719        -0.46266        0.105803
LJ          -1.22377         1.47731       -0.518111
LJ            1.2032        0.817596        -2.39666
LJ           1.14205         1.01707         -1.4103
LJ           1.45161      -0.0671062        -1.49442
LJ           1.02313         0.47777       -0.261277
LJ           2.16705          2.5589        0.677384
LJ           1.27274        0.768031         0.83595
LJ           1.49263        -2.51055         1.02757
LJ         -0.781246        -2.02317       -0.127198
LJ         -0.260735        0.344029         -1.2349
LJ           1.67675        -2.55025         1.01306
LJ          -1.36317        0.671039        -1.51436
LJ           -0.3795       -0.632709        -1.62014
LJ           2.39132        0.926593      -0.0850822
LJ           1.31997       -0.463471         1.07102
LJ              -nan            -nan            -nan
LJ          0.515875        -1.09248         2.17052
LJ           2.18793        -1.37386         1.07199
LJ          -1.18443        -1.31466        -1.56745
LJ           1.11698        -1.27176        0.754455
LJ          0.852063        0.790478        -1.05702
LJ          0.011609        0.958035        0.214111
LJ           2.45704         1.66059       -0.594741
LJ          -1.63631          1.1928         1.69935
LJ           2.38063         2.46864         1.96854
LJ           1.14701       -0.702355        -1.87289
LJ         -0.676736       -0.856361        0.694151
LJ          0.427092        -1.67355        -1.21777
LJ          -1.97444        -2.21145       -0.958094
LJ          0.151316        -1.37116       -0.822384
LJ           2.01567       -0.991835         1.33046
LJ            2.4514        -0.19512        -2.21607
LJ          -1.02012       -0.878705        -2.52522
LJ           -1.5477       -0.992773        0.444576
LJ           2.28224         1.26941         2.45565
LJ           1.61084          1.8961        -1.48624
LJ           -2.2886         1.11422        -2.37222
LJ            2.4646       -0.633043        0.709964
LJ           1.92282        0.713656        -1.83992
LJ          -1.68829          1.5115      -0.0631005
LJ           -1.0959        0.466575         0.67757
LJ           2.47674         2.20689        0.781394
LJ         -0.773839         1.31125         1.31578
LJ           2.39679        -2.52893        0.887273
LJ          -1.74164       -0.658249        -1.73416
LJ           1.16301        -1.30571        -2.37742
LJ          -2.17776        -2.09184        -1.79938
LJ           1.48276         1.54153        -1.03863
LJ          0.180489       -0.933131       0.0735078
LJ         -0.978691        0.547731         2.03374
LJ          0.441722        0.427289         1.86063
LJ         -0.480351        0.276976        0.467832
LJ          -2.07849        -1.79161        -1.40709
LJ          -1.63533         2.48317         2.00828
LJ           2.33594        0.765625        -2.51562
LJ           1.99832        -1.53963         1.86503
LJ           1.58075       -0.020246         1.61829
LJ          0.993207        -2.12531        -1.01993
LJ           2.10504        0.200414        -2.48231
LJ          0.694213         1.84426        -1.36993
LJ           2.03215        -2.55062        -1.05996
LJ          -2.08922        -1.36877        0.857925
LJ           2.23476         1.81771         2.37967
LJ         -0.835938           0.125        -1.10938
LJ          -2.45364        0.024242        -1.07044
LJ         -0.506004         -2.4065       -0.744503
LJ           2.50497        -1.95259        -2.55974
LJ         -0.236796       -0.174004        0.865445
LJ           2.12366        -2.29806       -0.160651
LJ         -0.443636         1.18577         2.29183
LJ           2.18336        0.115352        -1.15293
LJ          -2.43894       -0.361412        0.216084
LJ           1.76622        -2.48452         1.30716
LJ           2.03285        -0.77148         1.08121
LJ          -2.51898       -0.328216        -1.28851
LJ           2.36802       -0.685156        -0.16581
LJ           1.57496         0.86977       -0.451015
LJ          0.125495        0.274854         -2.4301
LJ         -0.320162         1.01226        -0.27272
LJ       -0.00339344        0.465674         -1.8414
LJ           2.40803         1.97422         1.58483
LJ           2.28485        0.536758         2.54387
LJ          -0.41379         2.35232        0.925557
LJ          -1.60201        0.957134        -2.49249
LJ           2.51916      -0.0475918       -0.344599
LJ           1.14097         1.80194         2.00289
LJ          -1.04268         1.39999        -1.49262
LJ         -0.227461      -0.0327729        -1.27207
LJ          -1.23282         1.17341         1.99585
LJ         -0.485678       -0.462653        -2.38804
LJ          -2.12472        -2.32602        -2.55091
