108
#Comment!
LJ          -1.55322        0.377601         1.85237
LJ         -0.595553       -0.464605        0.877398
LJ          0.357607         1.74927         1.53346
LJ        -0.0704936         2.55749         -1.1496
LJ           1.72389        -1.84078       -0.166351
LJ           0.80678        -2.40172         1.70532
LJ          0.889947        0.563329        0.392656
LJ         -0.519527       -0.242119       -0.503869
LJ         -0.148255         2.20359       -0.135395
LJ           2.14781         1.53908        -1.96553
LJ              -nan            -nan            -nan
LJ          0.898102        -0.24504        -1.44061
LJ           1.81717         1.53074         2.40155
LJ          -2.24945        0.717987      -0.0355926
LJ           1.83237         0.30164         1.50742
LJ              -nan            -nan            -nan
LJ              -nan            -nan            -nan
LJ              -nan            -nan            -nan
LJ         -0.781326        0.791864        -1.24886
LJ              -nan            -nan            -nan
LJ           -1.1442       0.0210476        -1.39148
LJ           0.73969       -0.533882       -0.989152
LJ           0.56622        -0.38398        0.880894
LJ          -2.51586        -1.45479       -0.284783
LJ           2.24162        0.916965         0.83577
LJ          0.627636         2.04409         1.20483
LJ         -0.220571        -2.29009        0.949837
LJ          -1.95362        -1.74982         1.53391
LJ          -1.31414         1.75043        0.678682
LJ           1.92382        0.959843           2.139
LJ           1.79159        -2.30129       -0.841365
LJ           1.23357        -1.09661         1.25561
LJ              -nan            -nan            -nan
LJ          0.855246         1.79261        -1.01868
LJ              -nan            -nan            -nan
LJ          -2.36163         2.21757        -2.40666
LJ        -0.0227882        -2.33904         2.00907
LJ         -0.522651       -0.873429          1.1017
LJ            1.5336       -0.860431         2.05192
LJ          -1.50765        -1.44292          -0.299
LJ           1.69652        -1.72956       -0.541716
LJ         -0.171998         1.66818       -0.551451
LJ          -1.47501         2.53091         1.19796
LJ          -1.06174        -0.85746          2.3705
LJ           1.42334        -2.17876        -2.04754
LJ         -0.218689       -0.605719       -0.296305
LJ          0.513571        -2.56166       -0.980924
LJ           1.59811       -0.363378        -2.07992
LJ           1.45114        -1.36663        -2.37903
LJ          -2.50284       -0.478152         1.46823
LJ         -0.983728        -1.93364          1.1614
LJ          0.936564         0.15701         1.17379
LJ              -nan            -nan            -nan
LJ          -1.04684       -0.443308        0.539128
LJ         -0.153233         0.37222        -1.96056
LJ         -0.898314        0.755383         1.10894
LJ           2.01115        -1.94763        0.511007
LJ          -1.86298       0.0555895       -0.793448
LJ          0.840225         2.54866        -1.72141
LJ           1.80262         1.87084        0.191087
LJ          -2.23454        -2.54939        -2.00217
LJ          0.338884        -2.10334         1.92747
LJ          -2.08187        -2.46031        -1.10338
LJ          -1.64268        -1.44638       0.0427697
LJ          0.234617        -0.13449       -0.135568
LJ          0.927772        -1.16482        0.386662
LJ         -0.350319        -1.83225        -2.35174
LJ              -nan            -nan            -nan
LJ           1.41389       -0.271819         1.62767
LJ          -1.18885        -2.48558         1.18819
LJ         -0.316237       -0.782713        -1.40897
LJ          -2.45514        -1.42009        -1.80559
LJ          0.552529         2.01064       -0.338202
LJ          -0.48921       -0.226788       -0.681784
LJ         -0.545537         2.31503         -1.9761
LJ          -1.71808         1.71201      -0.0740535
LJ        -0.0389341       -0.371348        0.497584
LJ            1.4923        0.548411        -2.02574
LJ          -1.62215         -1.5917         2.33565
LJ          -2.04854        -1.90897        -2.44527
LJ           1.24054        -1.38715       -0.470696
LJ         -0.388351       -0.769626         2.02414
LJ          0.264023        -0.90217       -0.336632
LJ          0.786962         1.05555        -1.90795
LJ          0.640369         1.66565       -0.844054
LJ          -1.61911        -1.46438        -1.76952
LJ           2.04446         1.63133        -2.31539
LJ            1.1919       -0.694285       -0.924944
LJ          0.615989       -0.045044         2.46342
LJ          -1.85334       -0.732922       -0.922684
LJ              -nan            -nan            -nan
LJ          -1.57467        0.485675        0.340741
LJ          -2.02815          1.3331         1.39548
LJ           0.38809         1.11814        -2.07327
LJ           1.40238        -2.09212        -2.33618
LJ           1.22125         1.18665        -1.42486
LJ          -1.24878        0.539784       -0.915387
LJ          -1.34517        -1.92287          1.4467
LJ              -nan            -nan            -nan
LJ          0.995044         1.26428       -0.837206
LJ          0.600186         1.80212        -1.58031
LJ           2.47036         1.03872        -0.88165
LJ          -1.69954         2.15747         2.21546
LJ          -1.27543        0.998579         2.00481
LJ           1.15517       -0.739799        0.402269
LJ         -0.670481       -0.270176        -2.27642
LJ          -1.93871         1.46482         -1.7978
LJ              -nan            -nan            -nan
