108
#Comment!
LJ         -0.645387      -0.0612145         2.47515
LJ           2.43986         0.91154        -2.40127
LJ          0.509045           -2.21          0.6159
LJ         0.0092064       -0.938527        -0.92433
LJ          -1.33077         1.55483        -1.50281
LJ          0.467154         2.01135          1.5294
LJ           1.16433        -1.45776          2.2543
LJ          0.573631        -1.76165         2.47856
LJ         -0.451564         1.62727        -1.87751
LJ           1.31575         2.01635        0.136466
LJ              -nan            -nan            -nan
LJ          -0.86892        0.387918          1.1681
LJ          -1.97702        -1.67393        -1.95656
LJ              -nan            -nan            -nan
LJ          -2.04528        -2.23866         0.29952
LJ              -nan            -nan            -nan
LJ              -nan            -nan            -nan
LJ              -nan            -nan            -nan
LJ          -2.52341        -2.19295         1.29418
LJ              -nan            -nan            -nan
LJ          0.589185         1.45219          1.7126
LJ          -0.48875         2.36283        0.836663
LJ          -2.05052        -2.50156        -1.00191
LJ              -nan            -nan            -nan
LJ         -0.497402        -1.63396        -2.10563
LJ          -1.73913         1.57312        0.677504
LJ           2.22286      -0.0490626        0.548363
LJ           0.90228         1.77024       -0.688551
LJ           2.45398         2.01105         1.45623
LJ          -0.45932         2.32974         1.33192
LJ              -nan            -nan            -nan
LJ           1.44781        -1.61563       -0.465017
LJ              -nan            -nan            -nan
LJ           0.75175       0.0830779        0.452808
LJ              -nan            -nan            -nan
LJ           1.66059        0.867503         2.14353
LJ          -1.95076         -1.7165        -1.77799
LJ         -0.935839       -0.560653         2.23319
LJ           1.44522        -2.21794        -2.52055
LJ           1.45507         1.34744       -0.989429
LJ         -0.184065         1.97273        0.540144
LJ          0.705193          1.1495         2.24566
LJ          0.462967         1.76011        -2.27875
LJ          0.845694        -2.44182        -2.18747
LJ          -1.28074         1.80177       -0.217096
LJ          -1.77626         -2.1904        -2.34555
LJ           1.89343         1.12685        -2.39239
LJ           -2.4659         1.70564         1.16305
LJ          -2.49342         1.89305        -2.04442
LJ          -1.07515         1.12752        0.237517
LJ          0.145226       -0.147084        -2.30129
LJ            2.0704       -0.912932       -0.195356
LJ              -nan            -nan            -nan
LJ          -1.20957        -1.84233         1.71608
LJ          -1.55742        0.206641       -0.802224
LJ           2.24129        0.957591         2.34156
LJ          0.782459       -0.155753        -1.63414
LJ          0.474569        0.597869         2.10655
LJ           0.24907       -0.542853       -0.284101
LJ          0.372299         1.66843         1.39023
LJ          -2.03079         1.71895         2.19793
LJ          0.541603         0.29422        -2.52592
LJ            1.6806       -0.914965        -1.95531
LJ              -nan            -nan            -nan
LJ              -nan            -nan            -nan
LJ         -0.744547       -0.607333         1.11875
LJ         -0.788209        -1.23994     -0.00647002
LJ              -nan            -nan            -nan
LJ          -1.59191         -2.0116       0.0379629
LJ          0.421584         1.92303         2.03402
LJ          0.721623        -1.26539         2.37571
LJ          0.845337        -1.83934         1.38884
LJ           2.11531        -1.79277        -1.94705
LJ            1.2705        -2.13634         1.29768
LJ          -2.29054         2.54921        0.994611
LJ          0.586063       -0.484974        0.132652
LJ           2.20834         2.06026        -1.33753
LJ          -2.49926        0.642441        -2.35022
LJ           1.74356            1.24         1.16317
LJ           0.12236        -1.23517         1.42729
LJ          -1.89026         1.40124        0.450209
LJ           2.01123       -0.997665         2.16943
LJ         -0.237122         1.07442       -0.416539
LJ          0.432928         2.07515       -0.596791
LJ          0.644217         1.69367        -1.73088
LJ           2.30045        -2.38846      -0.0407034
LJ           1.67187       -0.482345          1.1552
LJ           2.16396        0.475132        -1.11156
LJ          -2.15249      -0.0988712       -0.974471
LJ           2.45265         -1.1844       0.0622464
LJ              -nan            -nan            -nan
LJ          -1.64247        0.412802       -0.264335
LJ          -1.57514           1.426         2.44917
LJ          -1.54227         1.57299      -0.0887903
LJ          0.553516        -1.15588      -0.0126548
LJ           1.20111          1.9929          1.9805
LJ           -2.5453          2.3492         2.03567
LJ           1.18441        -1.10579         1.15043
LJ              -nan            -nan            -nan
LJ         -0.253967        -1.74405        -1.60243
LJ         -0.769871         1.54955       -0.653046
LJ          -2.37014         2.34432        -2.12293
LJ          -1.49964        0.225327         1.26265
LJ           1.32938         1.14981         1.60113
LJ              -nan            -nan            -nan
LJ           1.95832        -1.95172        -1.54801
LJ          -1.79935         1.04357        0.506923
LJ              -nan            -nan            -nan
