108
#Comment!
LJ         -0.228312        -2.31135        -2.28517
LJ          -2.20815        0.124336       -0.729345
LJ           1.14291        -2.10505         1.40697
LJ        -0.0411631          2.4814         2.21336
LJ         -0.644117         2.49558         1.34758
LJ           1.85022       -0.444705        -1.37551
LJ           1.38043         1.72287          1.8389
LJ            1.9728        0.416043         2.54187
LJ          0.512112         1.95216        0.744643
LJ          0.301486        0.610218        -1.25795
LJ              -nan            -nan            -nan
LJ          -1.56472        0.227401       -0.413506
LJ          0.380344        -2.17882        0.798281
LJ           1.48089         1.90305        -2.04204
LJ          -1.63857        0.314991         1.04835
LJ          -1.38689        -2.32654       -0.518866
LJ          0.443179        -2.30783         2.03132
LJ          -2.08909         1.58589        -2.35943
LJ          -1.08302       0.0964524         1.87712
LJ          -1.98101       -0.406974        -2.37486
LJ           1.31022         1.34673        -1.61076
LJ         -0.269515        -1.97411      0.00395376
LJ         -0.303382       -0.677655       -0.704476
LJ            -1.555        -1.44866        0.798084
LJ           2.28728        -1.25449         1.96285
LJ          -1.60837        0.663404        0.670852
LJ          -1.73291        -1.73301        0.332759
LJ           2.43237         1.73898        -2.25695
LJ         -0.537854       -0.331606        -2.06307
LJ           -1.0824        0.260055          2.2678
LJ          0.629109        0.142145       -0.139322
LJ           1.50153       -0.482375        -1.78238
LJ              -nan            -nan            -nan
LJ          -1.13292         2.30398         1.95185
LJ          -2.47716         -2.5477        -1.04507
LJ           1.53996         1.04389         2.10844
LJ          -1.45384        0.562612         1.46769
LJ        -0.0373652         2.41813         2.54401
LJ         -0.843768         1.27556        -2.19924
LJ         -0.869761        0.342319        -1.87864
LJ         0.0165727        0.510276         2.34953
LJ         -0.337566        0.669665        0.705974
LJ          -1.73455     -0.00190571        -2.36899
LJ          0.426534         1.78515         1.21499
LJ          -2.37772       -0.157216        0.705349
LJ           1.02521        0.636292        -1.39577
LJ           1.45865        -1.25176         1.50261
LJ         -0.813979        0.532554         1.83098
LJ         -0.747326        0.523376         1.05935
LJ          -2.23353        -2.47246         2.48451
LJ           1.03211         1.23188         2.09399
LJ          -1.88733       -0.752141         -0.4182
LJ          0.563016        -2.45734         0.34875
LJ          0.147776        0.446865       -0.948988
LJ          -1.57783          1.0777         1.44747
LJ        -0.0443929        -2.12946        0.996672
LJ          -1.10405       -0.276976        0.571491
LJ          -2.44117        -1.55842        -2.15348
LJ            1.8305        0.497532         2.22457
LJ          -2.05673       -0.659208        0.928501
LJ           -1.0613        -1.78287         1.48416
LJ        -0.0793302        -1.64491      -0.0268995
LJ         -0.546106         1.63289        0.620605
LJ          -1.02468       -0.693616        0.865687
LJ          -0.52286        0.679454       -0.598665
LJ         -0.924552        -2.28077        -1.33847
LJ         -0.410372        0.942925        -1.12902
LJ           2.39899         1.16465       -0.578477
LJ        -0.0141033        0.421477       -0.176727
LJ         -0.994345         1.23774        -2.42117
LJ           2.50311        -2.22639        0.428714
LJ         -0.334865        0.374912        -1.81042
LJ          -1.61373        0.557637       -0.886941
LJ           2.19044         1.24981       -0.356128
LJ          -1.65984        0.713194       -0.433553
LJ           1.46224         -1.8414        -1.29181
LJ          -2.28745        0.857358      -0.0855835
LJ          0.768438         0.90492        0.572437
LJ         -0.265999        -0.62861         2.22104
LJ           1.94728       -0.552291         1.75261
LJ         -0.639253         1.17395       -0.790511
LJ          0.540624        0.775895       -0.434487
LJ          -1.78877        -1.79992         0.14785
LJ           1.79118        -1.44873       -0.579638
LJ           1.13389        -2.31441        -1.12646
LJ          -2.16068         1.68497       -0.578151
LJ           -1.8235         1.39243        -2.16438
LJ           1.02491         1.82401       -0.678769
LJ          0.519931        0.224281        0.882566
LJ           1.35782        -1.83365        0.781612
LJ           2.22251       -0.265148          0.1318
LJ         -0.139921         2.36172         2.21823
LJ         -0.882611       -0.539149       0.0876851
LJ           1.30098          1.1444        0.751145
LJ           2.39335         1.62738        -2.10672
LJ          -2.44178       -0.925666       -0.060626
LJ          -1.51014        0.811024        -1.18766
LJ           1.53935        -1.44396        -1.02766
LJ           1.21747        -1.05808         1.33515
LJ          -1.39291        -1.09597       0.0622691
LJ          -1.26932        -2.33824         2.46022
LJ          -2.13901        0.665753         1.48844
LJ          -2.37127        0.369457        -2.40508
LJ          -1.92062         1.38118        -2.37285
LJ          -1.91283        -2.20381       -0.826789
LJ          0.458269       -0.576265        -2.43421
LJ         0.0153847        -2.24032         1.07731
LJ           1.92205         2.08009        -2.13131
