108
#Comment!
LJ          0.899702       -0.628362         2.52046
LJ          -0.87578        -1.35504       -0.460865
LJ          0.571237         1.35783        -2.15176
LJ          -2.14261        0.519463       -0.169391
LJ          -2.16064        -1.76821       0.0781562
LJ         -0.371399         2.43955         1.49811
LJ           1.60748        -2.49795         1.51514
LJ         -0.944389        -1.79717        0.291067
LJ           1.26661        0.562912       -0.456207
LJ          -2.17822         2.27059        0.567637
LJ              -nan            -nan            -nan
LJ         0.0727876         1.85268        -0.52812
LJ          0.928651         2.55871         1.48387
LJ          0.579703       0.0510566       -0.811732
LJ           2.11851         1.57451         1.15447
LJ              -nan            -nan            -nan
LJ              -nan            -nan            -nan
LJ              -nan            -nan            -nan
LJ          -2.33394        0.467408         1.01879
LJ              -nan            -nan            -nan
LJ          0.473994         2.25734        0.356939
LJ           1.46806          0.1711        -0.57682
LJ           2.44591         1.47155        -2.43282
LJ          -1.67557        0.962018         -1.2211
LJ          -1.36154         0.23792        0.708669
LJ           1.21918         2.19136         1.89772
LJ           1.18345        -1.13911        -2.13295
LJ          -1.72088        0.299982        -1.88527
LJ           2.23804       -0.431836        -1.68227
LJ          0.917301       -0.643957        0.590682
LJ           1.84775         2.38681         1.70102
LJ          -2.41921        0.924572        0.399245
LJ              -nan            -nan            -nan
LJ          -2.10952         1.53942       -0.953177
LJ              -nan            -nan            -nan
LJ          -1.20638         2.24171         2.40877
LJ           1.43667         2.44906        -1.64842
LJ         -0.770033        -2.56029        -1.27294
LJ         -0.653728       0.0972448         2.37548
LJ         -0.492438        -2.51087        0.715808
LJ           1.74256        0.414217        -2.08233
LJ           1.00398        -1.31251         2.09599
LJ         -0.129499         2.44758        0.523454
LJ         -0.213863        -1.87629       -0.530697
LJ          -1.95074         2.14229       -0.282577
LJ          -2.34932       -0.954585         0.10527
LJ          0.514946       -0.653405        -1.40269
LJ          -1.14502        -1.48027         1.34148
LJ         -0.453493       -0.689018         2.51238
LJ       -0.00307316       -0.932913        -2.06907
LJ         -0.656561        0.507441         1.01898
LJ           -1.2709        -1.56387        0.411734
LJ              -nan            -nan            -nan
LJ           1.52004        -1.65726        -1.38913
LJ           1.38042        -2.31222        -1.10192
LJ         -0.231725         2.06598       -0.244239
LJ          -1.39858        -1.77123        0.353208
LJ           1.36058        0.651136       0.0370698
LJ          -2.26784         1.25197       -0.351125
LJ           1.26859        -2.49503         1.51637
LJ          0.563555        -2.54474       -0.341105
LJ          -2.53304         2.47892         2.35923
LJ          -2.38088        -1.69487        -1.51571
LJ         -0.683487       -0.795097        -1.00093
LJ          -1.88099         1.15534        -1.50702
LJ          -1.61376       -0.870906         2.08243
LJ          -2.56429        0.998932        -2.51433
LJ              -nan            -nan            -nan
LJ         -0.633681         1.80579          1.6223
LJ          -1.80691       -0.938294       -0.732308
LJ           2.34567       -0.517682        0.359036
LJ         -0.170296         2.44341        -2.25089
LJ          -2.20531       -0.165623         1.91922
LJ          0.321628         1.31649        0.365223
LJ          -1.41797         1.61549        -1.41681
LJ         -0.435347       -0.922361         1.42706
LJ           1.65435        -2.04011      -0.0642073
LJ        0.00934779        -1.36076         1.91725
LJ          -1.01607         1.64279        -1.16581
LJ        -0.0365651        -1.40599        -1.75488
LJ          -2.06747         1.52561        0.412521
LJ          -1.19804         1.71445       -0.743876
LJ           -1.1984         -1.9497        -1.94858
LJ           -1.1477         1.99575       -0.155886
LJ           1.54792          2.4284         2.54478
LJ           1.21432         1.66764         2.36471
LJ          -2.31075      -0.0557713         1.12469
LJ           2.47761         1.89849        -1.63464
LJ         -0.248369       -0.662362         1.62309
LJ           -2.4884        -2.55579        -1.43862
LJ              -nan            -nan            -nan
LJ          -2.08297         1.72932        -2.23814
LJ          -1.78027     0.000899542       -0.320177
LJ           1.98732         2.47128        0.625728
LJ          -1.81978         2.25968       -0.652705
LJ          0.987214        0.700997         1.05532
LJ         -0.066006         2.01642        -2.16297
LJ           1.77062        0.138997         1.47652
LJ              -nan            -nan            -nan
LJ            -2.435         1.61579        -2.53967
LJ         -0.723678        0.312258         -2.4812
LJ         -0.187975        0.729969        -1.76199
LJ           1.70641         0.84443         1.83516
LJ          -1.87756        -2.27633         1.06894
LJ           1.30024        0.910938         1.71613
LJ          0.569898        -1.48738        0.819779
LJ           1.67691        -1.48542        0.133907
LJ              -nan            -nan            -nan
