108
#Comment!
LJ         -0.603589         2.47896       0.0644788
LJ         -0.637966        -1.25573         2.27192
LJ         -0.832046         -1.3386       -0.801039
LJ          0.412629         2.32826       -0.602066
LJ           1.67042        -1.31746        0.719902
LJ           2.23473        -1.18432        -2.42362
LJ           1.95193          2.4445       -0.622572
LJ           1.74531        -0.28569         2.32399
LJ           1.74731        0.140431       -0.929411
LJ         -0.685079       -0.673249        0.775045
LJ              -nan            -nan            -nan
LJ           1.03991         1.65518        -1.61905
LJ           1.37228         1.41227       0.0180783
LJ              -nan            -nan            -nan
LJ           2.46194          1.8616        -2.27784
LJ              -nan            -nan            -nan
LJ              -nan            -nan            -nan
LJ              -nan            -nan            -nan
LJ          -2.49315       -0.978348         1.43956
LJ              -nan            -nan            -nan
LJ          0.097787       -0.653652        0.467839
LJ           2.01305        -2.41099        -1.05734
LJ          0.747233         1.72554        -2.50333
LJ              -nan            -nan            -nan
LJ          -2.36219         1.77878         1.32554
LJ          -2.10323       -0.926079         2.24088
LJ           2.49117          1.0953        0.217856
LJ          -1.93056         2.02429        0.320459
LJ         -0.722329        -1.27085       -0.548893
LJ         -0.589103        0.505965         2.32264
LJ              -nan            -nan            -nan
LJ           2.41093         1.58832        0.676444
LJ              -nan            -nan            -nan
LJ          0.841007         1.12398         2.51566
LJ              -nan            -nan            -nan
LJ          0.724886        -1.22139        0.980276
LJ          -1.55781       -0.111976         1.20132
LJ         0.0964884        -1.40056         1.91166
LJ         -0.558854        -1.94248       -0.598902
LJ           1.67562       -0.939616       -0.840324
LJ          0.487934        -1.79942        0.573477
LJ          0.750712        -0.36048        -1.15499
LJ          -1.00853       -0.121962       -0.572728
LJ           1.48532        0.579962         1.42419
LJ          0.284363        -1.68752       0.0614925
LJ           2.37338        -2.29383        -1.78319
LJ         -0.616071       -0.050819        0.802535
LJ         -0.816193         -1.1918          2.2618
LJ          -2.32631        -2.56374         1.22371
LJ          0.897814        0.578864         1.66849
LJ           1.36382        -1.74178        -2.20214
LJ           1.34376        -1.73374        0.605054
LJ              -nan            -nan            -nan
LJ         -0.344968        -1.04204         1.07524
LJ         -0.256319         2.49438       -0.330094
LJ           1.38314         1.41064        -2.36203
LJ          -1.41226        0.717314        -1.20728
LJ          0.188785         2.12397        -2.17058
LJ           1.20075         1.84724        -1.20358
LJ          0.312789       -0.904736        -1.41752
LJ          -1.12381         2.54946         1.45693
LJ           1.55347         1.19338       -0.795176
LJ          -1.64368         1.63859        -2.35915
LJ              -nan            -nan            -nan
LJ              -nan            -nan            -nan
LJ          -2.12329         1.95367         1.85162
LJ          -1.06341         1.12977        -1.99089
LJ              -nan            -nan            -nan
LJ           2.02421         -1.2844           1.214
LJ            1.6333         1.15873        -0.19076
LJ          0.654343        -1.43654        -2.53025
LJ         0.0742681        -1.10556        -2.01685
LJ          -1.92078       -0.667809        -2.20085
LJ          -1.87699        -1.22621         1.98064
LJ           1.42996         1.55396         -1.5482
LJ         -0.734985       -0.716983         -2.5572
LJ         -0.681416        -2.20669         2.37587
LJ         -0.697682         1.32806       0.0566597
LJ          -2.44299       0.0187743       -0.127408
LJ         -0.897089         1.95252         2.14587
LJ          -1.42356        -1.69299        -1.61819
LJ          -2.10205        0.727277        -1.65028
LJ          0.110655        0.627644         1.18104
LJ           2.22834       -0.922232       -0.305388
LJ          -2.41679       -0.456148       -0.442159
LJ          -1.59398       -0.870529         1.45356
LJ          -2.02133         1.15215        -1.07447
LJ          0.278525         2.05617      -0.0838553
LJ            2.4271        -1.38359        -1.40703
LJ         -0.135849        -1.50232        -2.49549
LJ              -nan            -nan            -nan
LJ           1.92587         1.27491       -0.287783
LJ          -2.33927         1.40051         1.60373
LJ          -1.38555        0.807009         2.38693
LJ          0.542859        -2.45785       -0.560754
LJ        -0.0159941        -2.24935       -0.513947
LJ           -1.7808       -0.833122        0.540305
LJ          0.675833         2.42678       -0.758243
LJ              -nan            -nan            -nan
LJ         0.0824483          2.2816         1.28682
LJ          0.512355       -0.771397        -1.38969
LJ         -0.512352         1.78976        0.578556
LJ           1.18473         0.21601         2.49616
LJ           1.84524         2.53724        -1.36609
LJ              -nan            -nan            -nan
LJ          0.912809         1.67299        0.848327
LJ           1.14988         1.58884          0.9584
LJ              -nan            -nan            -nan
