108
#Comment!
LJ          0.537923         1.26927         1.28974
LJ          0.248056       -0.811803         1.78362
LJ           1.10692        0.862085        -1.74798
LJ         -0.776778        0.683914       -0.945255
LJ          -2.04511         1.41742         2.14604
LJ          -2.42641        -1.37853        0.504336
LJ           1.23544         1.32417        -1.28378
LJ           -1.1441         2.17049         1.95216
LJ         0.0532333        -2.34903        -2.51386
LJ         -0.042024          1.6404        -1.92934
LJ              -nan            -nan            -nan
LJ            0.6367       -0.150032         1.81169
LJ         0.0457245        -1.55658       -0.751155
LJ              -nan            -nan            -nan
LJ         -0.810254        -2.56085        -1.56247
LJ              -nan            -nan            -nan
LJ              -nan            -nan            -nan
LJ              -nan            -nan            -nan
LJ            2.1585          2.2779         1.51908
LJ              -nan            -nan            -nan
LJ          0.160193       -0.242674         1.39086
LJ           2.10652         1.02667         2.34861
LJ          -1.12409        -1.36401         2.26098
LJ              -nan            -nan            -nan
LJ          0.217475        -2.20778        -2.03751
LJ          -1.84054        0.678478         1.22111
LJ           0.92585         2.21816        0.774872
LJ           1.00888         2.42572         1.41569
LJ          -1.15769       -0.165102        0.932847
LJ         0.0600943        0.773317        -2.03824
LJ              -nan            -nan            -nan
LJ          0.745407         1.27071          2.2609
LJ              -nan            -nan            -nan
LJ             2.103        -2.08544        0.235212
LJ              -nan            -nan            -nan
LJ          -2.51366       -0.298643        -1.46308
LJ          0.243304        0.846796       -0.919076
LJ          -2.47202       -0.315676      -0.0707324
LJ          -2.06591        -1.98203         2.14415
LJ          -2.48463         1.18955       0.0201196
LJ           1.42224       -0.336167        0.724556
LJ           1.12225        -2.49348        0.991685
LJ          -1.80988        -2.21387        -2.34941
LJ          -1.88478         1.45632        -2.25532
LJ         -0.241588         -2.0104       -0.756883
LJ         -0.644892         1.85169         1.17897
LJ           1.98148        -1.58144       -0.168978
LJ            1.3094         2.22214         1.00093
LJ          -1.42534         2.45308        -1.59609
LJ           2.55844        -1.35217        0.282065
LJ           2.31225         1.77409        -1.18339
LJ        -0.0532073        -1.00969        -1.86284
LJ              -nan            -nan            -nan
LJ          -1.64012        0.334461         2.14824
LJ          -0.72091      -0.0755273       -0.640146
LJ          0.901655       -0.673243       -0.490372
LJ         -0.267081         2.42252         1.04003
LJ           -1.3089          1.6569        -2.00275
LJ         -0.663884       -0.491635       -0.487738
LJ          -0.55395          2.1495         1.31113
LJ           2.53801       -0.556755      -0.0294211
LJ          0.561015        0.349073         1.14075
LJ          0.378518        -2.47096       -0.131581
LJ              -nan            -nan            -nan
LJ              -nan            -nan            -nan
LJ          0.494237        0.159464        0.453543
LJ          -1.64708      -0.0346779         1.21396
LJ              -nan            -nan            -nan
LJ          -2.07473         1.68237        0.986999
LJ           1.78225        0.232981         1.05846
LJ          0.422291         1.00452          0.8471
LJ           1.72768         1.60512       -0.961495
LJ          0.375799         2.25373        -2.43024
LJ           1.39554        0.377147        0.773941
LJ          -1.89718       -0.996638         1.21356
LJ         -0.589521      0.00813952        -1.22983
LJ           1.65282       -0.592861       -0.373629
LJ          -2.00209         1.94796        -1.96489
LJ          0.562559          1.2685       0.0420362
LJ           0.36887          -1.127       -0.431173
LJ         -0.629307        -2.05751         2.08989
LJ           1.37245       0.0938686        -1.26287
LJ          0.294773        -1.54479        -2.42385
LJ           1.25376        -2.49562        -1.47526
LJ          -2.46432        0.181439         2.39677
LJ         -0.486481         2.26792        -1.25474
LJ          0.732537       -0.920233         2.19639
LJ          -1.86439       -0.175602          1.6016
LJ          -1.29296        0.406365        -2.12756
LJ          -1.69672         1.54746        -2.44865
LJ              -nan            -nan            -nan
LJ          0.313419         1.00256       -0.625894
LJ          -1.79395         1.93877        -1.51793
LJ          -1.24461         2.10086       -0.790892
LJ           1.04777       -0.789153        0.429793
LJ         -0.710368        -1.01356         2.53822
LJ          0.494876        -1.12278        0.930114
LJ          -1.38228        0.118935        0.367075
LJ              -nan            -nan            -nan
LJ           1.15631        0.456485        -1.46243
LJ          0.517898        -1.74255        -1.01268
LJ         -0.317378         1.53046         2.10689
LJ          0.294289       -0.870414        -2.09148
LJ          -1.97308         -1.7996       -0.979498
LJ              -nan            -nan            -nan
LJ         -0.546256         1.71228        0.178788
LJ         -0.699902          -1.194        -1.78499
LJ              -nan            -nan            -nan
