108
#Comment!
LJ         -0.373501        0.038538         2.22558
LJ           2.18045         1.53939        -2.45396
LJ          -1.10527       -0.212768         1.00537
LJ         0.0281819        -1.56681         2.47901
LJ            1.3955         2.41959        -2.04571
LJ         -0.545107         2.10062         1.11211
LJ           1.48123       -0.438666          1.7464
LJ           2.41457        -1.86672         1.26688
LJ          0.597184       -0.229083        0.830455
LJ         -0.172463         2.18245        0.628804
LJ              -nan            -nan            -nan
LJ           1.63292         1.24732         -1.0925
LJ           1.53857        0.363938         1.01985
LJ              -nan            -nan            -nan
LJ         0.0310944         -0.3189        0.284054
LJ              -nan            -nan            -nan
LJ              -nan            -nan            -nan
LJ              -nan            -nan            -nan
LJ           -0.3126         2.25305        0.214797
LJ              -nan            -nan            -nan
LJ           2.40581       0.0703547         2.35961
LJ          -1.44232        -1.60181       -0.124573
LJ         -0.881854        0.987006      -0.0223983
LJ           -1.7102         2.31096          1.5048
LJ           1.32413        -1.57806        -2.13294
LJ          0.591749         1.37059        0.898347
LJ         -0.899141        -1.42328         1.81119
LJ           1.28777       -0.601496         1.81358
LJ           1.06754       -0.104695        -2.18041
LJ           1.36988         1.72185        0.927145
LJ              -nan            -nan            -nan
LJ         -0.998119         1.71282        -2.51004
LJ              -nan            -nan            -nan
LJ         -0.533756        -1.20361        -1.72619
LJ              -nan            -nan            -nan
LJ          -1.08455         1.27973        -1.08718
LJ         -0.608988         1.00552       -0.233837
LJ          0.204545         1.12547        -1.11649
LJ         -0.263915         1.55544        -1.11506
LJ          -1.19637        -1.76364       -0.464718
LJ         -0.804775      -0.0572229          0.9243
LJ          -2.08861        0.119456      -0.0296236
LJ           2.03204        0.489992        -1.34663
LJ           1.49281           1.711         2.00624
LJ         -0.505689         2.00451        0.287175
LJ           1.36753        -0.38884          1.0794
LJ           1.23661        -1.61393         1.57219
LJ           2.50634         2.35145       0.0517149
LJ          -2.04214         1.35064       -0.582744
LJ          0.522542          1.6588       0.0606921
LJ         -0.516196         1.11446         -2.3597
LJ           2.07284        0.866206       -0.318457
LJ              -nan            -nan            -nan
LJ           1.19317        -1.74585         2.02266
LJ          -1.58907         -1.3588         2.51744
LJ         -0.757597         1.62274       -0.375556
LJ            1.6909         2.48816         1.92168
LJ          -1.06862         1.41734        -2.46691
LJ           1.93878         1.15148        -1.05702
LJ         -0.672696        -2.11508        -1.93504
LJ          0.342651         1.93749        0.135408
LJ          0.295059          0.9474         1.03159
LJ           1.80766       -0.023498        0.367397
LJ           1.65345       -0.374223         1.69754
LJ              -nan            -nan            -nan
LJ          -2.35446       -0.802121         1.60158
LJ          -2.23988         2.35684        -2.16552
LJ              -nan            -nan            -nan
LJ           2.07857         2.23939        -1.72592
LJ          0.433281         2.07784        -2.39134
LJ          -2.46532         1.06606         1.72582
LJ            1.0628        -2.15327        -1.49349
LJ          -1.58665        -1.57215         1.70298
LJ          -1.75925        -2.03923        -1.14217
LJ          0.402651        -1.93342        0.375398
LJ          -2.12366          2.3796        0.590699
LJ           2.30778        0.256103        -1.76918
LJ          -1.54596        0.625374         1.57447
LJ           2.09956         1.09477       -0.888128
LJ          -1.34226         0.80132         -1.4751
LJ           -1.1211        -2.50549        -2.08527
LJ         0.0293958        -2.52811        -1.74891
LJ          0.190369        0.611605         1.36833
LJ          -1.10564        -2.15509          1.0426
LJ            1.1918        -2.07422         2.01834
LJ           2.36174     0.000805884       -0.649231
LJ           1.32225          -2.496      -0.0657286
LJ          -1.89645        -1.86157         2.31575
LJ           1.03357        -1.34062        0.485417
LJ         -0.860604         1.63484         1.34564
LJ              -nan            -nan            -nan
LJ           1.46265       -0.924046        -0.91762
LJ           2.30713         -1.3696      -0.0406504
LJ          0.478007           1.804       -0.814711
LJ           2.45934           1.529         1.76879
LJ          -1.09543         2.06707         2.38795
LJ          0.597328         1.23108         -1.9738
LJ         -0.123268        0.445606         1.83642
LJ              -nan            -nan            -nan
LJ           0.81763        0.926484         2.41366
LJ          0.744492        -1.55361         1.56748
LJ         -0.622647        -1.86401         -2.4271
LJ         -0.638929        -1.26111        -2.42196
LJ         -0.179135        -2.39607         1.24477
LJ              -nan            -nan            -nan
LJ         -0.542384          1.6563         1.53379
LJ           1.03406         -2.2335       -0.567576
LJ              -nan            -nan            -nan
