108
#Comment!
LJ         -0.261773         1.42181        0.229461
LJ           -2.5401         1.74961        -2.50517
LJ          -1.74749        -1.02506         1.50229
LJ         -0.710197         1.46405          1.4621
LJ           2.52466        0.738993         1.52382
LJ         -0.791755        0.485474        -1.01696
LJ          0.764242         1.92172         1.60566
LJ         -0.839612        -1.23983         -1.5155
LJ           1.59416        -1.31655        0.683768
LJ            1.0144        -2.44107       -0.616728
LJ              -nan            -nan            -nan
LJ        -0.0431396      -0.0248098         1.31295
LJ           -1.8835       -0.762252        0.463429
LJ         -0.722933      -0.0731349       -0.196002
LJ          0.768258         -1.0462         0.57094
LJ           1.21822         1.53054         1.74849
LJ              -nan            -nan            -nan
LJ              -nan            -nan            -nan
LJ          0.497164       -0.283342         1.57497
LJ              -nan            -nan            -nan
LJ         -0.215144         1.31023         2.11121
LJ           0.39834        -1.27417        -1.68661
LJ          -1.94798        0.499617       -0.361043
LJ         -0.285489         2.11135        0.984286
LJ        -0.0142351       -0.979273         2.05476
LJ           1.62959         1.91559        -1.94086
LJ          0.448061        -2.48502       -0.342645
LJ          0.798384         -2.2672        -1.74701
LJ           1.43098         2.18709       -0.256942
LJ          0.762784       -0.465246        -1.18721
LJ           -2.2011        0.577856        -1.91119
LJ          -1.15851        -1.37806         1.10272
LJ              -nan            -nan            -nan
LJ          -2.54112       -0.676165        0.228093
LJ              -nan            -nan            -nan
LJ           1.86288         1.99348         2.03296
LJ          -1.98848         -1.0289        -1.39409
LJ          0.495477        -2.10123        -2.50593
LJ           1.88585        0.547963        -0.28032
LJ          -1.32768      -0.0435074         -0.8054
LJ            1.2345        -1.30464        0.710096
LJ          0.443719        -1.43012        -2.11387
LJ            2.4188        -2.47479         1.27851
LJ         0.0616844        0.730131        -0.12616
LJ          0.134822        -1.57441        0.170744
LJ           2.35799        -0.14739        0.472253
LJ        -0.0288583        -2.37127         1.30819
LJ            1.9919        -1.94579       -0.542463
LJ          0.318387         2.50282        0.410756
LJ          -1.20549        0.663318        0.553003
LJ         -0.644162        0.445637       -0.252939
LJ         0.0659026        -2.15208        -2.21418
LJ              -nan            -nan            -nan
LJ          -1.67029         1.79655         -1.8539
LJ           0.49412        -1.75065        -1.69565
LJ            1.3638         2.25304         1.16584
LJ         -0.721345         1.52659       -0.530152
LJ          -1.28325        -1.08662        0.712566
LJ          -1.12869        -2.52136        0.408074
LJ           1.45465       0.0113622         0.76289
LJ          0.867757        0.726604        0.723618
LJ          0.143567        -1.07297         1.85934
LJ           2.01196      0.00367571        -1.43106
LJ          0.362939       -0.436144         1.74558
LJ          0.818002        -1.39379          1.2311
LJ          -0.77011         1.11174       -0.254481
LJ         -0.597923        0.631565        -2.33914
LJ              -nan            -nan            -nan
LJ           1.94718        0.636704        0.432479
LJ         -0.207158        0.315704        0.462261
LJ           1.55867        -2.17745        0.247966
LJ          -1.24182        -1.01649         1.61162
LJ           2.50966        -2.21272         1.30242
LJ         -0.810125       -0.983778         1.45682
LJ           1.08527        0.769884          1.2062
LJ          0.936808        0.967615         1.20672
LJ          0.213728        -1.42792        0.518627
LJ           1.02568       -0.960063       -0.426684
LJ            2.4517          2.4722          2.3829
LJ          -2.23149        0.768121        -1.49101
LJ         -0.213679       -0.617581      -0.0993832
LJ         -0.642814         1.88522        -2.03783
LJ          -1.92673        0.121007         1.34865
LJ           1.50012        -2.18992        -2.26315
LJ          -2.27108         1.38645        0.854066
LJ           0.62978         1.57127       -0.935682
LJ          -1.08439        0.417017       -0.308935
LJ          -1.88952        -1.42667         2.33927
LJ          -2.10318        -1.33947        -1.54774
LJ          -1.37622         2.49869        0.517733
LJ              -nan            -nan            -nan
LJ          0.907902         1.65534       -0.809213
LJ           1.88108         1.93204         1.46102
LJ          -1.38296        -1.70235            1.81
LJ         -0.427453       -0.597817        -1.12079
LJ         -0.289047         2.22409        -0.59929
LJ          0.390791         1.79639       -0.926395
LJ           1.22222        -1.21277        0.858633
LJ          0.901889         2.19815       -0.249981
LJ          0.412661          2.1897         1.17094
LJ           1.34541        0.140787        -1.06728
LJ          -1.73986       -0.330429        -2.10139
LJ            1.1725         2.30701        0.315527
LJ          -1.75536         1.95471        -2.52921
LJ         0.0345443         1.18978          2.2896
LJ          -1.86387        -1.68843         1.79652
LJ          -2.50368        -1.69845        -1.00146
LJ              -nan            -nan            -nan
