108
#Comment!
LJ          0.781699        -1.56105       -0.742006
LJ          -1.74685       -0.503445        -1.42392
LJ         -0.318138         1.48512         2.23142
LJ          -0.93954       -0.153113        -1.12728
LJ           0.60926       -0.134869        -1.51811
LJ           1.41572         2.34843        -2.51045
LJ          -2.28511         1.30256        0.905309
LJ          -2.35589        0.305487        -2.35776
LJ           0.36125       -0.237273       -0.397998
LJ          -1.43747         0.75537      -0.0599812
LJ              -nan            -nan            -nan
LJ           1.90795        -1.64353          1.6616
LJ           1.11409         2.31108          2.1963
LJ              -nan            -nan            -nan
LJ           1.54174         2.32612         1.89332
LJ              -nan            -nan            -nan
LJ              -nan            -nan            -nan
LJ              -nan            -nan            -nan
LJ          0.621338         1.60944        0.727373
LJ              -nan            -nan            -nan
LJ         -0.388603         0.52373        0.928628
LJ           1.42025        0.860518         2.38566
LJ         -0.193795        -1.36807       -0.594699
LJ              -nan            -nan            -nan
LJ          0.828004        -2.52901        -1.05838
LJ          0.835364       -0.758701        -1.69422
LJ         -0.905147       0.0148861         2.03527
LJ         -0.136443         1.26361        -1.30615
LJ         -0.713885          2.0091        -1.55849
LJ           1.84474        0.558768         1.23311
LJ              -nan            -nan            -nan
LJ           1.97501        -1.64833        -1.85982
LJ              -nan            -nan            -nan
LJ         -0.849812        -0.79693       -0.184715
LJ              -nan            -nan            -nan
LJ         -0.443939        0.632124        -1.30757
LJ           1.31124       -0.620177        0.629834
LJ           0.45495          1.6805        -1.65683
LJ           2.30337       -0.886766       -0.480912
LJ          -1.69264       -0.181737         2.29169
LJ            2.1719        -2.52812         1.70003
LJ          -0.42453       -0.731983         1.09101
LJ          -2.27933       -0.158277        -0.81158
LJ          -1.51168        -2.56452        0.383691
LJ        -0.0659973         1.32437        -2.42584
LJ           1.55308         1.59707      -0.0219979
LJ          0.703766       -0.686024         2.17118
LJ           2.25788       -0.580877        0.458467
LJ           -1.7736        0.373377         1.90339
LJ           2.30228         0.14596         1.77043
LJ           1.55341        0.573891        0.299958
LJ          0.758987       -0.954099        -1.22113
LJ              -nan            -nan            -nan
LJ         -0.576375        0.985387         2.00693
LJ           1.93325        0.972863        0.484157
LJ           1.72165        -2.17444         1.38627
LJ           2.17801       -0.655712       -0.829945
LJ          -2.15713         2.53292        -1.69483
LJ           1.93369         1.23281         0.01204
LJ          -2.08864        -1.16246        0.881165
LJ           2.51455        -1.29648        0.554202
LJ           1.30456        0.872271      -0.0155856
LJ          -1.50781        -1.59512        -1.29244
LJ              -nan            -nan            -nan
LJ              -nan            -nan            -nan
LJ          -2.39712       -0.598568        0.263977
LJ           -2.0378        -1.49546         1.61764
LJ              -nan            -nan            -nan
LJ         -0.682655         1.16044        0.867778
LJ           1.81078        0.869831        0.578458
LJ          0.594787      -0.0921144         1.57641
LJ          0.271222       -0.394312        -1.83573
LJ         0.0161522        -0.66943        0.707251
LJ           2.35315        0.165169        0.573879
LJ          0.339826        -1.35243        -2.01267
LJ          0.599655        -2.42345       -0.794241
LJ          -1.34849        -2.52828      -0.0946232
LJ           1.95461        -0.74243         2.22542
LJ           2.38779       -0.283172       -0.295224
LJ           2.15546        0.138538       -0.396782
LJ          0.664666        -1.74323      -0.0799189
LJ           1.43996        0.863627       0.0904143
LJ          -1.42304        -1.89743         1.18229
LJ         -0.263354        -1.44939         1.06564
LJ         -0.627675       0.0345183         2.01472
LJ            2.1749         1.08141        -1.39106
LJ          -1.88703        -1.51973         1.15095
LJ           -2.3005        -2.20232        -1.65811
LJ          -2.50508          2.1327         2.54583
LJ        -0.0725407        -1.59626        0.459202
LJ              -nan            -nan            -nan
LJ           -1.8914        0.669274          -0.992
LJ         -0.907501        -2.29831        0.783777
LJ           2.41548         -1.1491          1.7734
LJ           1.53174        -1.66839         -2.1537
LJ           1.56208         1.57734       0.0476289
LJ         -0.491407         1.40661       -0.574883
LJ          0.155475        -2.06657         1.07912
LJ              -nan            -nan            -nan
LJ          0.225352        0.657446         2.48772
LJ          -1.14651        -1.93779         1.69258
LJ          0.149909       -0.663702        -1.07806
LJ          -1.24382        -1.70005         1.92851
LJ          0.948425         2.19184         1.50281
LJ              -nan            -nan            -nan
LJ          0.208976         2.34046        -1.37321
LJ           1.39034       -0.566559        0.808243
LJ              -nan            -nan            -nan
