108
#Comment!
LJ           2.08457        -1.71625       -0.921401
LJ           1.44388         1.10904         2.17286
LJ          -2.10717         -2.1873        0.968524
LJ           1.87339         -1.4644      -0.0418361
LJ          -2.51059         1.52266         1.39795
LJ         -0.421087       -0.132261         1.95773
LJ          0.948013        -0.80076        -1.61896
LJ           1.82756        -2.51046        0.976263
LJ            2.5431         2.14076        -0.84076
LJ          -2.42307         1.72419         1.98558
LJ              -nan            -nan            -nan
LJ           2.02026        -1.78352        -2.25083
LJ           0.14563      -0.0429371         2.14142
LJ              -nan            -nan            -nan
LJ          0.366952       -0.590418       -0.766606
LJ              -nan            -nan            -nan
LJ              -nan            -nan            -nan
LJ              -nan            -nan            -nan
LJ         -0.102609         1.65956       -0.213729
LJ              -nan            -nan            -nan
LJ          0.649405        -2.10108        -2.17626
LJ          0.789567        -1.14254         2.14847
LJ           1.88378         1.81721         0.12035
LJ           1.80114         1.31389         2.33149
LJ            2.0238        0.456886        -1.91717
LJ         -0.346091       -0.930712        -1.48752
LJ            1.6536        -1.87622         1.37514
LJ           2.11486        -0.12177      -0.0492142
LJ          -1.15779        -2.21591         1.08522
LJ         -0.116084          1.5393        -2.49104
LJ              -nan            -nan            -nan
LJ           -2.3714        -0.98803        -1.87057
LJ              -nan            -nan            -nan
LJ          0.152076         1.37164        -1.50598
LJ              -nan            -nan            -nan
LJ           1.46179        -2.42075        -1.57581
LJ          -2.06199        0.804962       -0.642424
LJ           2.07134        -0.79944        0.597974
LJ          -1.76497         1.98985         1.33766
LJ          0.159969        -0.11202         2.03183
LJ          0.162599        -1.37186         0.97105
LJ           1.21693        -2.13802        -2.49313
LJ           -1.8189         1.69325         1.17986
LJ           2.23843         1.48731         1.46506
LJ         -0.292985        0.991021         2.23626
LJ          0.949844        -2.39713        -1.77276
LJ         -0.607347        -1.38866       -0.176172
LJ          -1.19707       -0.973628       -0.363916
LJ          -1.31355         2.29888       -0.934009
LJ           0.95384        -1.97398        -2.07596
LJ           2.11157       -0.446237        0.729106
LJ          -1.23327        -2.31103       -0.643535
LJ              -nan            -nan            -nan
LJ        0.00466533        -1.14518         1.03174
LJ          -2.44162        -2.35672         2.26534
LJ         -0.066973         1.19815         2.13397
LJ          0.195726        -1.87412         -1.7895
LJ           2.37319       -0.239282         -1.2211
LJ           2.36534        0.406615       -0.795561
LJ          0.340615         2.49604       -0.156034
LJ          0.481479         1.90783         2.30773
LJ            2.5085         -1.7512         1.86668
LJ          -1.24319        -1.35499        -1.05621
LJ          -1.24732         2.27721       0.0429678
LJ              -nan            -nan            -nan
LJ          -1.17088       -0.359705        0.580673
LJ         -0.393593         1.45847        -2.46997
LJ              -nan            -nan            -nan
LJ          -1.47737        -2.11866        0.711469
LJ          0.180714       -0.816998       -0.449349
LJ         0.0135598         2.17871        0.573222
LJ         -0.520766         -1.1754      0.00653881
LJ           2.11047         1.73426        0.646689
LJ          -1.46573        -1.93391         1.84687
LJ         -0.130219        0.539883        -1.87203
LJ          -1.72743        -1.01975       -0.101463
LJ          -1.80496        0.451623         2.38766
LJ          -1.98716         2.06106          0.3036
LJ            1.0332        0.622904       -0.933283
LJ          -1.64056        -1.15243         2.47832
LJ           2.49067         1.60386        -2.41197
LJ         -0.983963        -2.08851        0.274843
LJ          -2.43112       -0.770734        0.438681
LJ          -0.95888        0.647492         1.70562
LJ         -0.662473        -1.33687        -1.95586
LJ          0.648616         1.19017       -0.894189
LJ         0.0954724       -0.182372       -0.442534
LJ           2.23527         2.16006         1.53124
LJ          -2.09526        -1.28815        0.752365
LJ          -1.25669        -1.70131         -1.8959
LJ              -nan            -nan            -nan
LJ           1.17597        -1.98225         1.95774
LJ         -0.226265       -0.269515         1.50619
LJ          0.645303        -1.42811        -2.03253
LJ           1.74292         1.66734         2.03168
LJ          -1.98163         2.17217        -2.52071
LJ          -1.15424        -2.35536        0.944541
LJ          0.669891         1.41742         1.83291
LJ              -nan            -nan            -nan
LJ          -1.71986         1.96388         1.31952
LJ           1.37938         2.40193        -1.76077
LJ           1.78201        -2.32064        -1.40576
LJ          -2.20087        0.184663       -0.875437
LJ          -1.50496        -1.21056         1.45698
LJ              -nan            -nan            -nan
LJ          0.532288          2.5427       -0.243414
LJ         -0.132499      -0.0823911        0.335778
LJ              -nan            -nan            -nan
