108
#Comment!
LJ           -1.8384       -0.723172       -0.686939
LJ        -0.0427149         1.40091        0.228546
LJ         -0.457654       0.0745335       -0.195484
LJ           1.14426       -0.122254         1.94817
LJ            1.4602         1.07949       -0.402088
LJ         0.0852379        0.762327        0.309167
LJ         -0.161468        0.862899         -1.5471
LJ          0.606781       -0.573734        0.811834
LJ          -1.06718         2.09286         2.11974
LJ           1.43511         2.49124         1.49579
LJ              -nan            -nan            -nan
LJ         0.0409409       -0.328677      -0.0250348
LJ         0.0254496         0.58257        -1.27135
LJ           1.68409        -0.19164         1.01646
LJ           2.49323        0.195233       -0.368729
LJ           2.00685        -2.18995       -0.673804
LJ           1.27934        0.527706         1.50012
LJ          0.825885       -0.423843        0.254561
LJ         -0.707783        0.344921        -1.12162
LJ          -1.46632        -1.49201         2.22404
LJ          0.413739        0.774493        -2.44118
LJ           1.97942        0.029957       -0.858248
LJ          -2.35423        -1.71154        -0.61937
LJ           1.94291       -0.528339         1.28048
LJ          -1.05368        -2.48221        -1.13197
LJ           1.74417       -0.676629         1.45136
LJ           1.67411      -0.0415318         1.71206
LJ           1.36402        0.193618        -2.53911
LJ         -0.903404          1.2048        -1.40272
LJ          -1.70425       0.0671225         -2.4979
LJ          0.238725         1.05367        -1.56567
LJ           1.49219        -1.49102         2.52557
LJ              -nan            -nan            -nan
LJ          -0.47699        0.677402        -1.19437
LJ          -2.46951          2.3578         1.12838
LJ          -2.38295        -1.18519         1.49032
LJ         -0.135461      -0.0291586        -1.34702
LJ          -1.41786         -2.0972         2.48956
LJ         -0.239182        0.520273         1.49394
LJ          0.438171        -1.18675        0.527668
LJ         -0.348123        0.642656        0.886105
LJ           -1.7801       -0.199968         2.38763
LJ          0.807326        0.840465        -2.42234
LJ          -1.85765        -1.62866        -1.55315
LJ          0.291173       -0.684987        -1.52693
LJ           1.79282         1.31939         1.36198
LJ           -1.5043        0.947078        -1.64981
LJ         -0.180165        0.171934        -1.72073
LJ           1.13602         2.53344        -0.14607
LJ          -0.27721         1.86468       -0.455757
LJ          -1.63465        0.178646        -1.25412
LJ           2.46434         2.15995        0.197117
LJ           1.81632        -1.73084        -1.70482
LJ          -1.64332        -2.03249       -0.195057
LJ          0.379558        -1.00052        0.220287
LJ           1.70783       -0.532017        -1.28141
LJ           2.44901       -0.215921        -2.14811
LJ          -2.45778         1.10643        0.177768
LJ          -1.28836        0.286483         1.00675
LJ         -0.873595        -2.16684        0.156449
LJ        -0.0816387        -1.73882       0.0781364
LJ        -0.0834305         0.91826         -1.4715
LJ           1.17347       -0.343245         2.35442
LJ           2.10267       -0.329513         1.22662
LJ          -1.58078        -1.82883       -0.209593
LJ         -0.855967        -1.43195        -2.49194
LJ         -0.435151        -1.23331        -2.21395
LJ           2.46301        0.219597        0.423181
LJ           2.06584        0.415653       0.0294031
LJ           2.32877        -2.16197        -1.16965
LJ           1.20306         2.13413       0.0421545
LJ         -0.324087         1.56257         1.54737
LJ           2.09994        0.978165        -1.40258
LJ           2.34192       -0.873284       -0.866749
LJ           1.16555     -0.00118616         2.07669
LJ           1.80465         1.91161         1.56711
LJ           2.14547        0.727147        -1.53727
LJ           2.19444        0.693113       -0.629148
LJ          -0.27644        -1.60327         -1.3815
LJ          -1.74425         1.10298      -0.0115186
LJ          0.826675      -0.0248132         1.65847
LJ         -0.690395        -1.85642         1.21157
LJ          -1.89688         1.02202        -2.48585
LJ          -1.54897         1.73117      -0.0718936
LJ          -1.30952        -1.62497         1.80893
LJ         -0.244976       -0.720544        -1.85774
LJ          -2.23455        -2.37233        -1.41835
LJ          0.261369         2.31875        0.125326
LJ           1.73127       -0.171513         2.21003
LJ       -0.00523115        0.526434        -2.05033
LJ          -1.21375       -0.371976        -1.57087
LJ          0.692241        0.488976         1.70129
LJ           -1.6294        0.757447         1.81646
LJ           1.62612        0.627966        -1.50162
LJ         -0.298546        -2.38728        -1.82405
LJ           1.24267        0.140632         1.85835
LJ          -2.40242        0.931436        0.273766
LJ          -1.86956        0.967546        -1.54068
LJ           2.32854        -2.47829       -0.714857
LJ             1.233         1.07492        -1.98912
LJ         -0.840058        -0.15003        -1.48442
LJ          -2.45829         1.59792         -1.1085
LJ          -1.77495         2.24787       -0.780156
LJ           0.17049         1.48724          1.6985
LJ          -1.45075         1.87015        0.363501
LJ         0.0403568        0.482807        0.223211
LJ          -1.13129       -0.862068          2.0905
LJ          -1.60838         1.66716       -0.775235
