108
#Comment!
LJ           1.63501        0.964027         1.43997
LJ         -0.998407         2.50733         1.94885
LJ           1.48607        0.389631         2.16131
LJ         -0.760101         -0.4437          2.2442
LJ         -0.650984         2.29382        -1.42503
LJ           2.07545        0.432943        -1.44815
LJ          -2.13028         1.99996        -1.65813
LJ          0.684058         2.01229          2.2716
LJ         -0.999481         2.14272        -1.95953
LJ            1.8811         1.23221         0.80197
LJ              -nan            -nan            -nan
LJ          -1.37434        0.308357       -0.349216
LJ        0.00583044        -2.22252        -0.44938
LJ          -2.00624        -2.07209       -0.503484
LJ          0.983391        -1.32039         2.21129
LJ           1.95911        -1.84736        0.798654
LJ         -0.327917         1.03151        -2.27044
LJ          0.891595        -2.03913        0.115597
LJ          -2.32001          1.1633        -1.85045
LJ          -1.91847         1.63913       -0.157346
LJ          -1.99899        0.900157       -0.212573
LJ           1.18295        -2.06395        -2.55828
LJ            1.4643        -2.05349        -2.05619
LJ           1.70158         1.08889         2.50518
LJ          -1.78382        0.762982        -2.35951
LJ         -0.111356         2.47129         2.16821
LJ          -2.28305      -0.0841856       -0.948929
LJ           2.07344         0.11632       -0.157938
LJ           2.15338         1.06534      -0.0971055
LJ          -1.89078        -1.92685         2.49246
LJ           2.31341         1.11552        -1.53066
LJ          -2.10553        -1.14168         1.90446
LJ              -nan            -nan            -nan
LJ          -2.17274        0.429208       -0.122646
LJ           2.04131       0.0537271        -1.14553
LJ          0.250635         -1.0111        0.780848
LJ          -2.19243        -2.19294         2.03332
LJ          -1.62786        0.554743        0.385073
LJ         -0.925546       -0.580717        -1.48378
LJ           2.14323         1.27784       -0.709942
LJ       -0.00856767         1.47334       -0.613947
LJ          -1.64094       -0.933027         1.99546
LJ         -0.622918        -2.27204        0.863504
LJ           0.43953        0.516251         2.10058
LJ          -1.28123        0.483372        0.613679
LJ            1.5518        0.435521         1.80656
LJ          -1.21924         2.37386        -1.19479
LJ           1.01807       -0.132452       -0.973695
LJ         -0.604444         -1.5137         2.37739
LJ             2.073       -0.982784        0.961433
LJ          -2.49414         2.10108       -0.985327
LJ         -0.781006        0.647371        -1.29191
LJ           2.07836         1.34592         1.21413
LJ          -1.97577        0.735517     -0.00775264
LJ          -2.19517        0.105877       -0.946625
LJ          0.415134         0.40991        0.699276
LJ           1.70707        -1.80113        -2.21831
LJ          -1.84195         2.38279         1.26968
LJ          -1.54328        -1.12331          2.5274
LJ          -1.12125        -1.11645        -1.21864
LJ          -1.82497        -1.05452         1.99953
LJ           2.56244        -1.61463        0.613726
LJ           1.56908        -1.78006        -0.42081
LJ            2.0943         1.32946          1.9665
LJ         -0.123622        -2.46829        -2.14719
LJ           2.18958       -0.664261        -2.09539
LJ           1.32319         0.51744         2.19733
LJ           1.39651         2.35444        -1.02853
LJ          -1.41127         1.77301         2.42203
LJ          0.294298         1.19654          1.4328
LJ          -0.45039        0.536649         1.89734
LJ           1.11847        -2.24199        -1.16043
LJ           1.88832         1.09511        0.399581
LJ          -1.89716         1.26565       -0.202636
LJ          -2.05613         -1.9129        -1.55799
LJ          0.416981        -1.70444        -1.02681
LJ          0.367823        -1.89845       -0.597094
LJ          0.461386       -0.066817         -1.5512
LJ          -0.62925        -1.42482        0.128781
LJ          -1.28622         1.80447        -1.18359
LJ            1.1911        -1.57873         0.37248
LJ         -0.244873         1.41842         2.39389
LJ           1.91642         1.70098         2.05733
LJ          -1.53395        -1.86901         0.88728
LJ           1.30348       -0.168585         1.28758
LJ           1.97925         -2.2692         1.49017
LJ           1.55329        -2.14784        -1.95339
LJ           0.86817        -1.35184        -2.51878
LJ           2.04237        -2.04369        -2.40187
LJ          0.177785        -2.37519          -1.421
LJ          0.213548         0.86159        0.355056
LJ         -0.686905         0.71497        -2.45068
LJ         -0.236278        0.360457        -2.49365
LJ           1.31381         2.52397         1.23028
LJ            0.5982        0.308873         1.50686
LJ           -1.5413       -0.182857         1.19499
LJ          0.616492         1.72221       0.0342726
LJ           2.30986        0.402392        0.695348
LJ           1.35798        -0.40889         2.42029
LJ           1.42829         2.03928         1.19151
LJ          -2.35242         2.28242        0.821893
LJ           1.17112         1.87219        -2.26147
LJ          0.763355        -1.17859        -2.18488
LJ          -1.32462        0.785932        -1.25095
LJ          -1.24028      -0.0332485        -1.96118
LJ          0.945069         1.47102         1.56512
LJ           0.24348         1.81305        -1.06645
LJ          -2.34583        -1.42118        0.765854
