108
#Comment!
LJ           -1.2754        -1.93603         1.67078
LJ        -0.0566358        -2.51551        -1.89984
LJ          -1.74694         1.25554       -0.422275
LJ           0.76408         1.86227        -2.51144
LJ          -1.53695        -1.50013         1.43908
LJ         -0.248557          1.9094         1.53079
LJ          -2.40889         1.86104       -0.108434
LJ          0.482603       -0.844778         0.18027
LJ          -1.80829         2.53512        -1.03552
LJ           2.09857       0.0212112       -0.758015
LJ              -nan            -nan            -nan
LJ          -1.47946          1.4359        -1.45759
LJ          0.455689        -1.24928        -2.39143
LJ              -nan            -nan            -nan
LJ         -0.598121        -1.56545       -0.168325
LJ              -nan            -nan            -nan
LJ              -nan            -nan            -nan
LJ              -nan            -nan            -nan
LJ         0.0357171        -1.49012         2.01708
LJ              -nan            -nan            -nan
LJ         -0.288556         1.50158         1.20922
LJ           2.00222        -2.34842        -1.48743
LJ           2.55466     -0.00854178        -1.78077
LJ           -1.8072         1.79936        -1.11228
LJ         -0.981628       -0.373824         1.68142
LJ          -1.81159        -2.10686         2.07485
LJ           1.84968       0.0831248         1.01361
LJ            0.7979        -1.08084          0.6728
LJ          0.088212       -0.386348         1.14287
LJ         -0.741884        0.550302       -0.102097
LJ              -nan            -nan            -nan
LJ           -1.0834         0.68661        -1.18862
LJ              -nan            -nan            -nan
LJ          -1.77978        -1.12257         1.72623
LJ              -nan            -nan            -nan
LJ            1.4473        0.289259       -0.100534
LJ           1.97102        0.249597         2.49227
LJ         -0.278183         2.30666         1.88156
LJ          -1.44133        0.373893          2.2339
LJ          0.251426        -0.63098       -0.697418
LJ           1.72343        0.710691        -1.29538
LJ          0.462943        0.788566        0.949711
LJ          0.272583         2.48078         1.67404
LJ          0.285207          1.6866        -2.53048
LJ            2.0026       -0.531563        0.318601
LJ          -1.88387         1.47517         0.28474
LJ          0.303308        -2.29506         2.15445
LJ         -0.717732        0.569871        0.864075
LJ         -0.101434       -0.501724         1.02588
LJ         -0.477493        0.390991         2.46675
LJ          -2.39599         1.86386        -2.24735
LJ           1.20513      0.00571147        0.337103
LJ              -nan            -nan            -nan
LJ       -0.00113179         2.15961         2.43241
LJ           1.96423          1.3809         1.68064
LJ          -1.69595         1.12314        0.352605
LJ          -1.47555        -1.05504        0.478047
LJ          0.102565        0.787958         2.02652
LJ          0.273302        -1.40782       -0.279048
LJ          -2.42125         2.48736        0.579528
LJ          0.718954        0.823313        -2.40032
LJ          -1.88482          2.2192        -1.97354
LJ         -0.473909         1.76673       -0.140926
LJ         -0.983292        0.402066        -2.43725
LJ              -nan            -nan            -nan
LJ          -0.99105       -0.296013         2.35764
LJ           2.37209        0.760088        0.258024
LJ              -nan            -nan            -nan
LJ          -2.22957         1.58269        0.415954
LJ          -2.05009       -0.767202         2.20242
LJ         -0.328691         1.07223        0.298782
LJ           1.60966        -1.69676         1.77784
LJ           1.11832         1.53951         1.06682
LJ         -0.547448         1.09667         -1.9333
LJ          0.699404       -0.139589        -2.27358
LJ          0.561962        -2.44551        0.798799
LJ           2.17869          1.7741        0.273755
LJ           2.08822        0.696374        -2.19091
LJ          0.160866        0.307092        -1.31383
LJ          -1.98735        0.544074       -0.950232
LJ          0.522105         1.52594         1.58077
LJ         -0.454984       -0.178509         2.33475
LJ          -1.72391       -0.493486        -2.03187
LJ          -1.84914         0.94834        0.885358
LJ           1.91247          2.2417         2.50305
LJ          -1.48634        0.456124         0.57452
LJ         -0.735539         2.33662        -1.12145
LJ          -0.57854        0.388161         1.19253
LJ          -1.16196        0.827964        -1.15728
LJ          -2.41161         1.65464        0.923438
LJ              -nan            -nan            -nan
LJ           1.11002       -0.385447        -1.56213
LJ           -2.0896       -0.129058        -2.35064
LJ          -1.93303        0.207591        -2.44438
LJ          0.970173         1.86444        -1.21586
LJ          -1.66734        -2.20724        -1.88744
LJ          -1.75331         1.18086       -0.877674
LJ          -0.55685        0.448747         1.35036
LJ              -nan            -nan            -nan
LJ           1.85748        -1.44363         1.08502
LJ           0.11981       -0.208917         0.47624
LJ          -2.29057       -0.103765        0.455226
LJ         0.0937195        0.337101        -1.93633
LJ          -1.63395        -1.85211       -0.663537
LJ              -nan            -nan            -nan
LJ          0.794123      -0.0535964        0.328229
LJ         -0.185502         1.56945        0.191327
LJ              -nan            -nan            -nan
