108
#Comment!
LJ           1.57408       -0.331999         1.98056
LJ           2.33006       -0.108929       -0.393213
LJ          -1.88305          0.8013       -0.536456
LJ           2.46284       -0.990562         1.26545
LJ         -0.335402         1.30423         1.60697
LJ          0.620794         1.38438        -1.69192
LJ            1.3773       0.0853176        0.660852
LJ         -0.550456        0.478264         2.00962
LJ         -0.878341         0.61289       0.0116064
LJ          -1.61108        0.285975        -0.65506
LJ              -nan            -nan            -nan
LJ          0.318301        0.231859        0.299396
LJ           -1.8703         2.47169        -1.38378
LJ         0.0671814        -2.45071          1.2129
LJ          -1.31845         2.30365       -0.052292
LJ         -0.587872        -1.44892       -0.894167
LJ           1.45646        -1.10745         -1.9717
LJ        -0.0670073         2.49272       -0.918171
LJ          0.556304       -0.929065        0.653288
LJ           -1.2846       -0.233945        -2.40673
LJ          0.893197         2.20585       -0.270175
LJ          0.790356         2.53183        0.248997
LJ           -1.8787          1.7332        0.190469
LJ         -0.663663         -1.6725          1.4921
LJ          -2.43378        0.234651         1.40423
LJ           2.35166         1.66514         1.30839
LJ          0.378824         0.11711       -0.632796
LJ           -1.0626        0.215853    -0.000551206
LJ          0.639116        0.880941         2.27482
LJ           2.35842        -1.23186          -1.267
LJ         -0.627716       -0.803213         -1.6702
LJ           2.05396      -0.0521681         2.24904
LJ              -nan            -nan            -nan
LJ           2.38281       -0.814417        -1.89045
LJ           2.18341         2.07485         2.06444
LJ          -2.33812        0.876201       -0.553194
LJ           1.34154        -1.23249         2.24375
LJ          -1.24226        0.655791       -0.534738
LJ          -1.57935        -1.18732       0.0829849
LJ           0.55908        0.827528         1.59185
LJ           1.81892         1.43009         1.88178
LJ           1.82481        -1.41773        -2.33026
LJ          -1.58832         1.08539        -2.04126
LJ          -1.77312         1.22531         -2.0797
LJ          0.518187        -1.85756         2.38255
LJ         -0.694327       -0.441092         2.42395
LJ         -0.163879         2.04966         2.20189
LJ           1.41815        -1.72309        0.408334
LJ          -2.33932       -0.828732        -0.41827
LJ           2.10335         1.39685         1.49879
LJ           1.53902       0.0226509        0.809402
LJ          -1.97992       0.0120944       -0.306972
LJ           0.95728         2.33213       -0.686402
LJ         -0.224802       0.0876566       -0.759177
LJ          0.983498        0.886173        -1.76905
LJ            -2.391          1.6638         2.46201
LJ          -2.21435       -0.318527         2.04012
LJ           1.93244        -1.32448         1.93162
LJ          -2.26817         1.81554       -0.615972
LJ          0.149229        -1.92057         1.45113
LJ           2.09105        0.369144        -2.06381
LJ          0.132215        -1.90384         2.27497
LJ           2.20992       -0.511929         2.05488
LJ          0.934052          -2.547        -2.24369
LJ        -0.0915845        -1.42085        -1.18713
LJ         -0.920131        0.505821         1.29212
LJ        -0.0183725        -1.52198         2.43312
LJ         -0.358549        -1.60635        0.356968
LJ         -0.105678       -0.734351         1.97329
LJ          0.064347       -0.774175        -1.53497
LJ            -1.887        0.456167         2.14802
LJ          -2.19308        -1.78904        0.294732
LJ          -0.32179        -1.43655        -0.55462
LJ           2.26752        0.196904         2.32195
LJ          -1.01562        -1.09859         1.05941
LJ           2.01107        -1.22313         -1.6801
LJ           2.05947           2.003         2.18041
LJ           1.31615        0.442197        -1.52637
LJ          -1.31383        0.180902        -1.96035
LJ          -1.29494        0.930153       -0.150013
LJ          0.729039         2.48555         1.84287
LJ          0.284682       -0.427982           0.662
LJ          -2.23183       -0.359031        -2.26137
LJ          -1.97311        -2.54235        0.896294
LJ           1.02216         2.10609        -2.15028
LJ           2.09631         1.66587         2.52258
LJ          -2.29036        0.753714        0.424993
LJ          -1.18352         1.35571       -0.817226
LJ         -0.164156        -2.44995         -1.1984
LJ          -1.16316        0.370595        0.215548
LJ      -0.000487202        0.572238        -1.65003
LJ          -1.31543        -1.68059        -1.47819
LJ        -0.0323839         2.46014       -0.474352
LJ           2.56041         1.21212       -0.342539
LJ          -2.29906        0.367175        0.340354
LJ           1.40638        -2.25419        0.431597
LJ          -2.33515        -2.19225         0.20692
LJ           1.96054        0.938665       0.0339441
LJ          -2.13854         2.27475        -1.13731
LJ          -1.25515         1.71544        -2.54774
LJ          -1.86805        0.199183          0.3997
LJ            -2.207        -2.51014         -1.1952
LJ         -0.703196          -2.235       -0.825086
LJ          -2.18461        0.312087       -0.241776
LJ           1.34129       -0.653183        -1.55168
LJ         -0.948839         2.07322         1.76465
LJ           0.65324         0.66047        0.594038
LJ         -0.153148        0.181996        -1.33343
