108
#Comment!
LJ          -2.32151        -1.06804         2.55205
LJ           1.34112          1.2103         -1.8224
LJ          0.730564       -0.446861          1.1883
LJ          -2.32359       -0.610899        0.944201
LJ          -0.15762        -1.97413       -0.429586
LJ          -2.28159        -1.28303        0.872173
LJ          -1.26497        0.788962         1.10245
LJ          -1.33619       -0.525488        -1.40612
LJ          -1.95159        0.636568         1.81072
LJ           1.75157        -2.41819       -0.594619
LJ              -nan            -nan            -nan
LJ           -1.0609        0.980372          1.3534
LJ           1.47331        0.627013        -1.70311
LJ          -1.80352         1.98575        -1.79357
LJ         -0.366144       -0.815091        -1.88191
LJ           1.23302         2.53553        -2.08179
LJ           2.43195        0.491689         1.26558
LJ           0.29469        0.643634        -2.05601
LJ           1.25078       -0.039995         1.46616
LJ          -1.82748         2.14233         1.36767
LJ          -1.22551        -2.07057        0.532307
LJ           1.08409          2.3921      -0.0989542
LJ         -0.387904         -2.0874         1.48504
LJ          -2.24086         2.50653        -1.16772
LJ          -2.08592       -0.963317        -2.05985
LJ         -0.387505       -0.844253         2.38216
LJ          0.957667     0.000772337         1.10254
LJ           -1.1968        -1.76632        0.846935
LJ         0.0135856        -1.02671        -1.69832
LJ          0.259109        -2.03312        0.652281
LJ         -0.379389         1.57229         1.00794
LJ           2.00432        -1.98727        -1.07826
LJ              -nan            -nan            -nan
LJ           1.65385        -1.53283          1.5929
LJ              -nan            -nan            -nan
LJ           1.90088        -2.42152        -1.98471
LJ          -1.67724        -2.24885        -1.83998
LJ          -1.86448         2.06732        0.137595
LJ           2.35449        -1.58586       -0.815961
LJ         -0.664941         1.05446        0.340811
LJ          -1.27066        0.496482        -1.07338
LJ           1.89807        -1.92548        0.200497
LJ             2.019        -1.68602        0.122742
LJ          0.317806        -1.79035        -1.21449
LJ          -1.70596        -1.36796        -1.50912
LJ          0.684487         1.12499        -1.69682
LJ           -1.9302         2.46339        0.207245
LJ         -0.143441        -2.36659         1.00213
LJ          0.796962         -1.1501        -1.22794
LJ           1.64017        -2.43014        -1.49804
LJ           1.21478        -2.03936       -0.781663
LJ           1.98284       -0.532031        -1.05855
LJ          -1.24971       -0.624715        -2.18181
LJ           2.25035        0.752399        0.452465
LJ          0.359551       -0.639883        -1.34041
LJ          -1.42335         1.68143        -2.12709
LJ           1.65264        -1.79965        -2.45758
LJ          -2.55924        -1.53325         2.53492
LJ           2.12417       -0.473044         -0.9829
LJ           -2.3194        0.401943         1.28962
LJ           -1.1457        -2.45406        0.711837
LJ          -1.76823       -0.923788        0.302858
LJ         -0.202475         1.65466        -1.47684
LJ         -0.462296       -0.644437         1.01338
LJ           1.75977       -0.298696       -0.251232
LJ          0.172479         -2.5612        -2.50777
LJ          -1.37556         1.01183         1.56143
LJ              -nan            -nan            -nan
LJ         -0.319953         2.34929       -0.925602
LJ           2.01139         1.94551         2.01118
LJ          -2.11744        -2.15363       -0.175548
LJ          -0.76622        -1.29983         2.04619
LJ           2.19562       -0.986776        0.131116
LJ           2.20964         1.06353         2.33421
LJ           1.81985         1.23356      -0.0638401
LJ          0.901665       -0.949405       -0.433705
LJ           1.47058          1.3997        0.866708
LJ          0.441067         1.84661         1.52262
LJ         -0.568957        -2.11532       0.0400328
LJ          -2.03734        -1.87562        0.773694
LJ          -2.08009        0.238793         1.41374
LJ         -0.482034         1.58192         2.30266
LJ          -1.34149         2.08526         -1.4432
LJ          -1.90071       -0.050159       -0.350078
LJ           2.28387        -2.37099         2.56226
LJ           1.83819       -0.860072         1.97785
LJ          0.482207       -0.782955        -1.13684
LJ          -2.48136       -0.065245        -1.68723
LJ          -1.55888        -1.42344       -0.279457
LJ            -1.715        0.152311         2.36466
LJ           2.51191        -1.25925         1.97988
LJ          0.658865        -1.98489        0.419893
LJ         0.0271317       -0.125539         2.19418
LJ          -1.72708        -1.77944         1.40197
LJ          -1.92875        0.853702        -2.33526
LJ           1.26328      -0.0241742         2.44681
LJ          -2.15001        -1.15249        0.180165
LJ          -1.09806         -2.3666        0.493995
LJ           2.49185         2.35915        0.477581
LJ           1.35029      -0.0860596         1.63014
LJ           1.10417        -1.29586       -0.274582
LJ           2.01814        -0.77654       0.0211694
LJ          0.210544       -0.461432       -0.336688
LJ          -1.20239        0.505878        0.313564
LJ          -1.28759         1.89735       -0.281394
LJ          -1.73608        -1.58176        0.361314
LJ           1.90622         2.40143         -2.5493
LJ           1.79845         0.19821         1.43243
