108
#Comment!
LJ           1.97141        -1.11919        -0.68222
LJ          0.747706       -0.437823        0.301857
LJ          -1.82588        -2.15219        -1.40523
LJ          0.176315         -2.2735        0.915285
LJ          -2.17471         2.32596        0.576999
LJ          0.273386       -0.295526          0.9541
LJ          -1.76265         0.12187        -1.45825
LJ         -0.373908       -0.468409        0.989987
LJ         -0.253657        0.632712        0.867751
LJ           0.75537         2.11494       -0.169089
LJ              -nan            -nan            -nan
LJ         -0.409261       -0.748426      0.00911886
LJ           2.45857        0.502154        -0.48142
LJ          -2.36741         1.28045         -1.1609
LJ          -2.36086       -0.985527        -2.11369
LJ           1.40369         1.01676         1.77523
LJ              -nan            -nan            -nan
LJ              -nan            -nan            -nan
LJ           1.64956        -1.57173        -1.67172
LJ              -nan            -nan            -nan
LJ          -1.83428       -0.200338          1.6415
LJ          0.693969        -2.25664         1.88412
LJ          -2.26784          2.5158        0.682612
LJ          -1.46462         1.87378         2.40922
LJ          0.477756         1.88882        -2.39715
LJ          0.115634         1.77638         1.53008
LJ          0.671343        -2.28012       -0.984705
LJ           1.57043          1.5642        -1.52175
LJ          0.647728         2.29221       -0.385991
LJ            1.7181        -2.50007        -1.30173
LJ         -0.691611        -2.05314         -1.5134
LJ           1.61393         -1.0118        -2.39666
LJ              -nan            -nan            -nan
LJ           2.09258        -2.42088       -0.242532
LJ              -nan            -nan            -nan
LJ          -2.00339       -0.207932        -2.41481
LJ         -0.928999        -2.13002         1.00318
LJ           1.44946        -1.95024         1.45977
LJ         -0.212291       -0.638093        0.337926
LJ          -2.38523        -1.86389       -0.201956
LJ          0.975445        -1.83357         1.07434
LJ         -0.410319        0.859446        0.447587
LJ         -0.355209        -2.35875        -2.33269
LJ         -0.548679         1.72784         -2.3702
LJ          -0.73591        0.915464       -0.706323
LJ         0.0704135        -1.42471         -1.5833
LJ           1.54833         2.37865        -1.24759
LJ          0.959538       -0.937284        0.462796
LJ           1.04487        0.982398        -1.50939
LJ          -2.26703        0.376954        -1.06887
LJ           1.28586        -1.31598         1.09611
LJ         -0.812471         2.25683        0.761758
LJ              -nan            -nan            -nan
LJ          0.496157        -2.15668        0.241893
LJ           1.50834        -2.31816        0.506952
LJ           2.13707          1.4565        -2.44384
LJ          0.293136         1.63102       -0.917342
LJ          -1.85144       -0.395889         1.06355
LJ         -0.159795         1.87649       -0.204937
LJ           2.06651         1.31203           0.545
LJ          -1.30203         2.51695       -0.480418
LJ          -0.21541         2.40105        -2.11471
LJ         0.0485603         2.33607         1.16064
LJ           1.02261        0.499626        -1.79208
LJ          -1.88789        0.375729        -1.39489
LJ         -0.475946       -0.932143         2.44466
LJ          -1.41861        -0.31536       -0.557222
LJ              -nan            -nan            -nan
LJ          -1.21877         -1.0008        -1.31523
LJ            2.3838      -0.0696542        -2.34206
LJ         -0.935208        -1.45593         1.02241
LJ          0.382083        -1.80112         1.23037
LJ           2.48703        -2.32299        -1.91677
LJ          -1.30094         1.82416       -0.338153
LJ         -0.200019      -0.0752143         2.24125
LJ           1.71422       -0.205843        -1.76561
LJ           1.12622       -0.968771        0.968024
LJ        -0.0756021       -0.995069         2.21339
LJ          -2.52628        -1.73288        -1.27191
LJ           2.02602       -0.186459        -1.94225
LJ          0.758284        -2.16086        0.325248
LJ           1.28361         1.53155        -1.10468
LJ           1.07096       -0.781828         1.81669
LJ          -1.19082        -1.58456        0.413103
LJ           1.26897        -2.52793       -0.576301
LJ           2.35316        0.649161        -1.54862
LJ          -2.56121        0.134218      -0.0782099
LJ           1.05786       -0.952197        0.805558
LJ          0.693573         2.54439        -1.66708
LJ            1.6407       -0.640839          2.3964
LJ              -nan            -nan            -nan
LJ          -1.36505       -0.102979        0.377553
LJ          0.678517        -2.10664        0.602198
LJ           2.40802        0.614277        0.944261
LJ           1.19161       -0.813686        -1.62616
LJ         -0.190347        -2.50449        -1.01425
LJ           2.38449         1.44425       -0.174594
LJ          -2.09671        -2.47704       -0.610169
LJ           1.45506         2.31578       0.0574131
LJ           1.25049        -1.88938        -1.87017
LJ          -1.29282        -1.82079        0.911844
LJ         -0.834977         2.19855         1.62616
LJ          0.701795        0.249534        -1.57307
LJ          -1.23062       -0.885397        -1.17741
LJ          0.102705        0.575139         1.55982
LJ          0.931722         -2.3648         -1.9661
LJ          -2.11266       -0.308998         1.71199
LJ              -nan            -nan            -nan
