108
#Comment!
LJ           1.95767        -2.00797       -0.793237
LJ          -2.08444        -1.59187         2.22945
LJ            2.0219        -1.93913          1.6063
LJ          -1.44378        -1.62427         1.22541
LJ          0.190982        -1.66627        0.741804
LJ           -2.0772        0.286781          1.6938
LJ          -1.76493        -2.18952       -0.252699
LJ          -1.77259       -0.864725        0.151143
LJ           2.19898       -0.402163          1.2513
LJ          -1.50065        -1.77015        -1.90827
LJ              -nan            -nan            -nan
LJ          -1.99492       -0.843062         2.49795
LJ          -2.11464        -1.60405         0.65063
LJ          -1.19622       0.0929964         2.21561
LJ           1.12428         2.43025          2.3168
LJ           2.07074        -2.27326       -0.175337
LJ         -0.502656        -2.37229        0.237451
LJ         -0.148137        -1.12037        -2.41566
LJ          -2.13047         1.42374         2.49216
LJ         -0.537424       -0.730185       -0.451647
LJ           1.10698        -2.27651         2.37223
LJ          0.569487         1.18673        -1.81076
LJ          0.205636         2.53645        -1.81412
LJ           1.63957        0.191698       -0.579809
LJ         -0.748336         0.39675         2.48448
LJ          -1.07451         1.62479         1.91356
LJ            2.1116         1.39169        -1.64819
LJ         -0.085137       -0.591124         2.47018
LJ          -1.00113         2.23024        0.509698
LJ         -0.208251        -2.33805         1.14789
LJ          0.117196         -1.8419        -2.36799
LJ          -1.52821         -1.6187         2.44922
LJ              -nan            -nan            -nan
LJ           1.53276        0.151677       -0.283137
LJ           1.12669         1.48368        0.380988
LJ        -0.0750049        -2.30629        -1.27303
LJ           2.30277        -2.32188       -0.771708
LJ          -1.23178         2.13732        0.451852
LJ          -1.56431       -0.796378        -2.32068
LJ           1.52052         1.27758        -2.43601
LJ          0.880108       -0.605349       -0.392083
LJ         0.0688579       -0.697433        -1.20801
LJ         -0.449722       -0.588969        0.326037
LJ           2.48489         1.37065        -1.44546
LJ           -1.4024         2.28647        0.620201
LJ         -0.274681        -1.19071        -2.13719
LJ           0.89313      -0.0635537       -0.750238
LJ          -1.43699         0.95161           1.967
LJ          -1.13942         -1.8913        -2.04965
LJ          -1.29977         1.86709         -2.2001
LJ          -1.02203         1.46158       -0.824115
LJ          -1.19136       -0.578488        -0.39345
LJ          0.103553       -0.357361         -1.2602
LJ          -1.63361        0.560436         1.22853
LJ         -0.376225         1.19544        -1.24909
LJ          -1.69398       -0.032553       -0.160933
LJ            1.0658       -0.280002        -1.73556
LJ          0.703125        -1.66944        -1.93118
LJ           1.34111        0.375878        0.413474
LJ          0.710216        -1.91565        0.831077
LJ         -0.342237         -1.9985        0.306812
LJ           -0.2171       -0.730997         2.35466
LJ           1.49997        0.343119       -0.880023
LJ        -0.0700986         1.74785          -1.679
LJ           1.67327         1.01994       -0.697802
LJ          -1.40211        0.314949         -1.5926
LJ         -0.166161          1.0888        -2.55977
LJ           -2.1543         1.01801         1.18877
LJ           2.27831       -0.606111        0.369988
LJ           1.67497        -1.16888        0.831644
LJ           1.37038         1.71845        0.394781
LJ           1.56159        0.640771        0.654627
LJ         0.0155525        -1.99205       -0.697478
LJ           1.44356         -1.9151        -1.11832
LJ          -1.00434        -1.02359        -1.16888
LJ           0.75801        0.275476         2.44255
LJ          0.287807        -1.74138        -1.34455
LJ          -1.20798         1.42955        -1.05482
LJ          0.112237          1.7737        0.445578
LJ           0.79375        0.286915         2.15658
LJ           1.57656        0.810281        0.205701
LJ          -1.96609        0.954872        -1.98201
LJ          0.897553        -2.40183       -0.877332
LJ            1.0895        0.163423          2.5643
LJ         -0.741933        0.303974        -1.47169
LJ          -1.09374        -1.37281        0.900194
LJ           1.78265        0.752031        -1.55382
LJ          0.865642        -1.21746      -0.0123398
LJ          -2.21491        0.854124         2.53627
LJ         -0.944634          1.3785         2.16882
LJ        -0.0336612         1.13025       0.0435599
LJ         -0.069613         1.27786         0.94457
LJ          -2.01104        -2.56225        0.992976
LJ           2.42826        -1.95405         1.89855
LJ           1.88428        0.960657        -1.77087
LJ           2.18659         1.63631        -1.81328
LJ           1.61416        -1.88196        -1.30582
LJ         -0.529156        -1.56232        -2.33068
LJ          -1.52631         1.37726         1.63527
LJ            1.6963         1.56936        -2.36055
LJ           2.34179        -1.18663        0.656678
LJ          0.930146         1.71792         1.19089
LJ           2.24129        0.433109        -1.31211
LJ         -0.810141        0.895339         1.51189
LJ           1.45338         2.48686        -1.26141
LJ           2.04188        -2.26414      0.00119739
LJ           1.88379        -0.29567         2.08425
LJ          -1.34197        0.264049         1.63641
