108
#Comment!
LJ          -1.79644        -1.00854        -1.99734
LJ          -1.17917        0.380766         1.44119
LJ         -0.363052         1.92819        -1.69718
LJ          0.788968         2.14032       -0.232424
LJ          -2.50706         1.03622        -2.19808
LJ           -2.2358       -0.303101        0.532323
LJ         0.0595982         -1.4881          -1.432
LJ         -0.611395        0.838851         2.05725
LJ           2.52116        -1.52575       -0.945891
LJ          -1.97763        0.618666        -2.19927
LJ              -nan            -nan            -nan
LJ          -2.19824        -2.45043       -0.167778
LJ           1.28575         2.55846        -1.98018
LJ           1.77035         -2.0526        -0.81464
LJ         -0.347146         2.31444         -2.0521
LJ              -nan            -nan            -nan
LJ              -nan            -nan            -nan
LJ              -nan            -nan            -nan
LJ          -1.72564        -1.40654        -1.42455
LJ              -nan            -nan            -nan
LJ           2.16611       -0.405075        0.228808
LJ         -0.587383         1.49202         2.06296
LJ           1.96359        -0.82876         0.39309
LJ          -2.00546        0.596932        0.475374
LJ           1.87664        -1.71505      -0.0969016
LJ           1.54869          1.1842         1.09934
LJ           0.98811         1.11982         2.27568
LJ           1.10117         1.90289        -1.05316
LJ          -1.94171       -0.063032         2.11695
LJ        -0.0742025        -1.17559        -1.58049
LJ          -2.22385         1.83532        0.150614
LJ           1.42639       -0.100246       -0.625115
LJ              -nan            -nan            -nan
LJ          -1.01625        -1.57264       -0.369974
LJ              -nan            -nan            -nan
LJ         -0.303299         1.95908        0.389621
LJ         -0.205801         2.56249         1.03809
LJ          -1.27841         0.60472       -0.874207
LJ           1.66946       -0.622352        -1.97953
LJ         -0.652761         1.59806       -0.637202
LJ           2.52608       -0.326839        0.661457
LJ         -0.710211        -1.12786        0.302319
LJ           -2.3511         -1.9011        0.649297
LJ         -0.435414        -2.38985         2.12087
LJ           2.03094         1.21502        -1.92623
LJ          -1.54584         1.21112         1.22419
LJ         -0.795037        -1.32747         2.29922
LJ          -2.03581       -0.473624       -0.113884
LJ          0.924065      -0.0236522         1.51891
LJ          0.513483       -0.860546         1.05128
LJ         -0.297797        -1.12004        0.866382
LJ          -1.52407        -2.31682        0.583921
LJ              -nan            -nan            -nan
LJ           1.18714        -1.07029        -1.03213
LJ          -1.91011        0.516615         -2.1571
LJ          -1.61063        -1.34318       -0.308038
LJ           1.71288        -2.11239       -0.701375
LJ           1.33131         2.33302         1.69609
LJ           1.53904         2.40989        -1.67912
LJ         -0.420749        -1.34037         1.03309
LJ          0.349894       -0.568388         1.98422
LJ         -0.169218         2.41116       -0.522126
LJ           1.19219         1.13467       0.0605373
LJ           1.53947        0.707209        0.359133
LJ          -2.24419        -1.23529         1.66156
LJ          0.581297       -0.848078          1.3051
LJ         0.0424461        -1.47496        -2.40083
LJ              -nan            -nan            -nan
LJ         -0.326473        0.365934        -1.49919
LJ         -0.878107        0.145693        -1.38748
LJ           1.98239        -2.27926        0.797152
LJ          -2.53202         1.27367         2.43567
LJ          0.852846       -0.889997         1.35548
LJ          -1.82436        -2.54357        -2.29232
LJ         0.0837111         1.56989        -2.28082
LJ          0.420897        0.440383         2.27713
LJ           1.09074       -0.264499       -0.318529
LJ          0.208045        -2.49609        -2.03161
LJ        -0.0434158        0.409053       -0.576579
LJ           1.30928     -0.00808572        0.936682
LJ         -0.155124         1.00923         -2.0222
LJ          -2.54703      -0.0864435         1.92054
LJ          0.281442         1.49355          2.1109
LJ          0.818424        -2.28739        0.507452
LJ           2.43963       -0.492227         1.90623
LJ           1.52417        -1.79892         1.49284
LJ          -1.71762        -2.07359        -2.08572
LJ           2.34801        -1.58728        0.958881
LJ           2.32396        -1.97985         2.45924
LJ          -2.24916        0.902529         1.28402
LJ              -nan            -nan            -nan
LJ         -0.476274         1.47036        0.164175
LJ         -0.104408        -2.18572       -0.224772
LJ           1.05975         2.43125      -0.0199102
LJ           1.47323         1.86796         1.81561
LJ          -1.73092        0.241787       -0.332769
LJ          -0.54615        -2.24595         1.37098
LJ          0.848715        -2.55221       -0.671656
LJ              -nan            -nan            -nan
LJ          -1.25033        -1.46323        0.491544
LJ          -1.43193        0.226724         1.77567
LJ          0.573151         2.35518         1.53605
LJ           1.93942         1.47715        -1.88629
LJ           1.92256         1.95439        -2.46056
LJ           2.50415        0.118577          1.5221
LJ          -2.03023         1.49902        -2.23393
LJ         -0.604019        -2.42797        0.432814
LJ              -nan            -nan            -nan
