108
#Comment!
LJ          0.447652        0.913679         1.65111
LJ          -1.79257         -1.0202        0.820237
LJ           2.38017        0.927524        -2.55877
LJ          0.191501        0.948136       0.0662461
LJ         0.0299955         1.31328         2.55928
LJ           1.71062         2.47267         2.17066
LJ         -0.685634         1.98787        0.685756
LJ          -1.55743        -0.37796         0.89339
LJ           2.48915        -1.10767         1.34073
LJ           0.46506         2.30959       -0.160558
LJ              -nan            -nan            -nan
LJ          -1.20243       -0.741874       0.0563611
LJ          0.794404         2.42896          1.7309
LJ         -0.586088         1.99501         1.65774
LJ           2.17185      -0.0700556        0.350549
LJ           0.30562          1.8315        0.996056
LJ              -nan            -nan            -nan
LJ              -nan            -nan            -nan
LJ          0.807509          -0.386        -1.96945
LJ              -nan            -nan            -nan
LJ         -0.367778        0.801178        -1.50142
LJ         -0.574216         1.32937         2.48223
LJ          -1.61219        -0.35618       -0.135126
LJ         -0.123158        -1.19055        -2.27621
LJ         0.0678001       -0.305374        0.820066
LJ          0.646226       -0.632487        0.456275
LJ           1.40711       -0.494569         1.48428
LJ           1.96211        -2.06425         1.16729
LJ         -0.982228         1.96119          2.5144
LJ         -0.353582       -0.534452        -0.45604
LJ           -0.1754        -2.36896       -0.838674
LJ         -0.146918        -1.32136         1.22861
LJ              -nan            -nan            -nan
LJ           0.87599        -2.36099         1.62106
LJ              -nan            -nan            -nan
LJ           1.69357       -0.691901       -0.783875
LJ          -1.79389         0.43105        -1.01407
LJ           1.77539         1.99137        0.404565
LJ           -2.0238        -2.43058        0.433862
LJ         -0.961244       -0.539666        -2.16988
LJ         -0.222514        -2.31739         2.46253
LJ          0.602203        -1.98006       -0.724867
LJ          0.640338        0.903814          1.2041
LJ           1.84132       -0.692252         0.72239
LJ         -0.746289         2.46826         1.74618
LJ           2.21226         1.44784         1.11942
LJ           1.70503         1.56521      -0.0235206
LJ          -0.94911        0.303838         1.52038
LJ           1.42491        -2.14015        -1.42467
LJ          0.570667       -0.193758        0.597384
LJ         -0.397124       0.0950125         1.52942
LJ           2.28715         -1.4352       -0.880144
LJ              -nan            -nan            -nan
LJ         -0.176888         2.46479        -2.51908
LJ          0.555614        -2.21787        -2.41032
LJ         -0.144587         2.54074        0.967731
LJ         -0.509768         -1.9723        -2.47882
LJ           2.48984         1.94752        -2.54594
LJ           0.46077       -0.806706         -1.5376
LJ           0.66799         1.54177          2.2057
LJ         -0.743443        -2.24157         1.80071
LJ          0.277156        0.701497         1.20024
LJ          -1.21971         1.65251         1.53812
LJ           1.02156       -0.680981        0.489161
LJ         -0.539507        0.103015         1.88643
LJ          -2.23442         2.10074        0.479538
LJ          0.880425         2.56165       -0.746852
LJ              -nan            -nan            -nan
LJ         -0.534437       -0.280226        -2.43473
LJ          -2.33061        -1.43249         2.52323
LJ            2.2414        -1.02608         1.43523
LJ          -1.31545         1.40731        0.999386
LJ          -1.38685       0.0656837        -1.02264
LJ          0.572783         1.35119        -1.25724
LJ          -1.85539         -1.9135         -1.8211
LJ         0.0238611         1.72945         2.19806
LJ           1.50156       -0.896962        -2.09058
LJ          0.908793      -0.0973085        0.776179
LJ           1.89194        0.639499       -0.611705
LJ            -1.317        -2.20686         1.17126
LJ          0.363293        0.798896        -0.24411
LJ          -1.29543        -1.56536        -1.59166
LJ          -1.55773        0.374414        -1.77829
LJ          -1.68692        -1.89101        -1.98179
LJ         -0.319406      0.00569516         1.34151
LJ         -0.579412         2.27315       -0.131597
LJ          -2.28052          1.0567        -1.56845
LJ          -1.77948        0.357553        -1.34983
LJ          -1.03616        -1.00931         1.30375
LJ           1.63141        -1.62248        -2.53763
LJ              -nan            -nan            -nan
LJ           2.33484         1.56687        -1.89452
LJ          0.614082        -2.02119        -1.87589
LJ          0.273553         2.45827        0.500377
LJ          -2.12257         1.59699        -2.22593
LJ          0.545999         2.37377       -0.720789
LJ         -0.630951        -1.79135       -0.356165
LJ          -2.19619       -0.277506         -1.8687
LJ           2.16001        -2.41174        0.390376
LJ         -0.550246       -0.786511        0.550129
LJ         -0.914055        0.971507         1.99679
LJ         0.0683499           0.444         -1.9276
LJ         -0.180836           1.917       -0.492764
LJ          -2.30406       -0.235435         1.38243
LJ          -2.08769        -0.69787         0.41454
LJ        -0.0843969      -0.0809199       -0.927797
LJ          0.666196        0.999248          1.1907
LJ              -nan            -nan            -nan
