108
#Comment!
LJ           1.56013        -1.37386       -0.401797
LJ          -1.31276       -0.528031         2.51309
LJ           1.13536        -1.58997        0.511833
LJ           1.64201         0.31887       -0.968525
LJ          0.658748        -2.02101        -2.53353
LJ         -0.396503        -1.46238      -0.0323906
LJ          -1.13138         2.07947        0.466368
LJ          -2.16553         2.40121        0.219424
LJ           2.24446       -0.468742         1.27346
LJ        -0.0323253          1.6691        0.746777
LJ              -nan            -nan            -nan
LJ          -1.99867       0.0616259       -0.787227
LJ           1.04326        -1.84396       -0.775515
LJ          0.443401         -1.6168        0.714656
LJ          0.516108         1.42515       -0.375598
LJ          -1.15209        -2.55708       -0.306484
LJ              -nan            -nan            -nan
LJ              -nan            -nan            -nan
LJ           2.53191        0.865865       -0.603942
LJ              -nan            -nan            -nan
LJ           2.46033         -2.0651        -1.39274
LJ          0.504055        -2.03155         1.55969
LJ          0.392362         1.42665        -0.17608
LJ          0.696849      -0.0573676         1.33875
LJ           -1.7876        -1.29512         1.83424
LJ         -0.242078        -2.52661        -2.32951
LJ          0.129113         1.04985         2.46501
LJ          0.207492        -1.04803       -0.409554
LJ        -0.0558048       0.0821366          2.4311
LJ          -1.74072       -0.133035          2.0636
LJ          -2.34722        0.993939         -1.2041
LJ           1.73925        -1.83176       -0.960853
LJ              -nan            -nan            -nan
LJ           1.81693        -2.26126        0.912309
LJ              -nan            -nan            -nan
LJ          0.819001       -0.568142       -0.670568
LJ         -0.926178         2.22103        0.743413
LJ           2.19238         -2.1149         2.53026
LJ           2.19253         2.07665        -2.20493
LJ          0.144763        -1.72091        -2.50731
LJ           2.47759       -0.874375       -0.644816
LJ          0.285501        -0.97506        -1.29682
LJ         -0.262447       -0.131722        -2.11588
LJ          -1.94721       -0.487083         1.03422
LJ           2.30891       -0.862746        0.134184
LJ          -1.81769        0.158925        -1.50263
LJ          -2.17555        -1.86167        0.443465
LJ         -0.232006       -0.131543          1.6061
LJ          -1.58354         1.03617        0.398448
LJ           2.36096         1.72184          2.0853
LJ        -0.0950831       -0.936844        -1.21313
LJ          0.403391         1.89568        -2.34719
LJ              -nan            -nan            -nan
LJ           2.33496         1.83682         1.38028
LJ         -0.787379         1.97084         1.16711
LJ         -0.789579         2.12971        0.797718
LJ          -1.69153        0.518822        -1.90834
LJ          -1.92396         1.28714        0.595345
LJ           2.28718        -2.46263         1.00066
LJ          0.441353        -1.90262        -2.04128
LJ          0.579256         1.28176       -0.363475
LJ          -2.28311       -0.723386        -1.85466
LJ           1.69667         1.26309        -2.10592
LJ           1.34519         2.54657        -2.53853
LJ         -0.574306         2.13405        -1.46824
LJ          -1.91048         1.68636         2.19497
LJ          -1.41102       -0.732557         0.16624
LJ              -nan            -nan            -nan
LJ           1.88739         1.75644     -0.00612106
LJ          -1.46002         2.23726        0.244491
LJ          0.999493        0.119326        0.227588
LJ           2.33172         1.42213       -0.245622
LJ          0.712896          1.0552        0.594473
LJ          -2.49107        0.774665       -0.286135
LJ          -1.44116         1.01795         1.83955
LJ           2.49675        -1.87296        -2.31088
LJ           -2.1603         2.24088       -0.929296
LJ         -0.989731         1.38529       -0.600993
LJ          -2.13659        0.492214        -1.89979
LJ           1.81207       -0.341577         1.53193
LJ         -0.750832         1.17565        0.503066
LJ          0.984332        0.712977        -2.29887
LJ          -1.37151         1.74262        -1.64027
LJ          0.381563        0.560661         1.04577
LJ          -2.50491        0.891816        -1.87965
LJ           1.11965         2.05605        0.441529
LJ           1.22841       0.0519524        0.491618
LJ          -1.92713        -1.75143        0.900485
LJ          0.971286         1.23369        0.330959
LJ          -1.02708        0.605066       -0.606554
LJ              -nan            -nan            -nan
LJ          0.685861        -1.28959        -0.86442
LJ           1.63001         1.20138       -0.525475
LJ          -0.35186         1.17829         -1.3921
LJ          -1.21371        0.211908        0.597915
LJ        -0.0377837        0.971388          2.3799
LJ          -2.50775         2.25121        -2.22024
LJ          -2.18137        0.780795        0.808662
LJ         -0.992292        -2.51443        -2.20811
LJ          -1.47361         1.52203        0.168442
LJ           1.07814        -2.29248           2.118
LJ          -0.62622        -2.24137        -1.24592
LJ          -2.39316       -0.996928        0.164649
LJ         -0.627532       -0.900421         1.95062
LJ         -0.305398         2.43086         1.46833
LJ          0.815026       -0.231374        0.166158
LJ          0.359855         1.24719         1.48264
LJ              -nan            -nan            -nan
