108
#Comment!
LJ           1.56576        0.737412         2.08532
LJ         -0.390684        0.980355        0.783762
LJ           1.55723        0.770039        0.413097
LJ           2.34074         2.51933       -0.810926
LJ          0.165609       0.0285738        -2.36428
LJ         -0.328845        -1.59536       -0.929989
LJ            1.5796         2.06716         1.08083
LJ           1.75725        -1.36996        -2.42857
LJ          -1.74754       -0.065106        0.189414
LJ           1.34308        0.814297         1.82239
LJ              -nan            -nan            -nan
LJ          -1.82934        0.142363         1.30791
LJ            0.6104       -0.829956         1.27544
LJ              -nan            -nan            -nan
LJ           1.22924        -1.65466       -0.023159
LJ              -nan            -nan            -nan
LJ              -nan            -nan            -nan
LJ              -nan            -nan            -nan
LJ          -1.96753       -0.709718         1.15215
LJ              -nan            -nan            -nan
LJ           1.26697        0.385803         1.73975
LJ          0.858613        -1.80443        -1.49991
LJ          -1.27383       -0.188575       -0.347377
LJ              -nan            -nan            -nan
LJ          0.749245         2.52758        -1.53355
LJ          -0.81349        -1.20783         1.33403
LJ           -2.3266        0.078976         2.27584
LJ          -1.77443         1.73472        -1.77238
LJ          -2.24895         1.46718        -2.11329
LJ         -0.278949       -0.600797        0.878797
LJ              -nan            -nan            -nan
LJ           1.91964        0.189581         1.11468
LJ              -nan            -nan            -nan
LJ          0.516394        0.328041           2.143
LJ              -nan            -nan            -nan
LJ           2.13637        -1.36132         2.43996
LJ          -1.80421       -0.150467       -0.916703
LJ           2.38692         1.66064       -0.231814
LJ          0.467105        0.645874        -1.49511
LJ          -0.27882       -0.655867        -1.42596
LJ        -0.0160487        -1.53296         2.30605
LJ         -0.125019         2.43881        0.393154
LJ           2.14114       -0.533102       -0.729199
LJ         -0.410815         1.79324        -1.88159
LJ           2.21914       0.0862559        -2.09826
LJ          -2.01851       -0.215197         1.06785
LJ          -2.14596        0.117033         2.12935
LJ          -1.21209        0.061725         -0.7116
LJ          0.948139         2.39009        0.968988
LJ          0.919464         2.41084        0.297161
LJ          -2.25972       0.0573798       -0.722908
LJ           1.04307         2.02308        0.802584
LJ              -nan            -nan            -nan
LJ           2.10624        -1.01127       -0.488757
LJ          0.284368         -1.8101        -2.36016
LJ          -1.65976         2.29478       -0.909764
LJ          -1.57611         1.17129        0.822391
LJ           -2.5377       -0.839742        0.331222
LJ          0.259078        -1.41362         1.61968
LJ         -0.849436     -0.00326802         1.02771
LJ         -0.800179         1.81775        -1.21537
LJ           -2.4754        -2.32478        0.745786
LJ           1.94723        -2.01405          1.1418
LJ              -nan            -nan            -nan
LJ              -nan            -nan            -nan
LJ          0.426255        -1.08875          1.1557
LJ           2.15462        -2.45681        -1.22487
LJ              -nan            -nan            -nan
LJ          -0.99907        -1.16626       -0.442192
LJ         -0.284303        -1.03776           1.003
LJ         -0.560831        -1.65775         1.06301
LJ           1.85248         1.52726         1.53246
LJ           2.21096        -0.67265         1.92918
LJ          0.461943          2.4408          1.1872
LJ          0.151875         1.51138         1.37726
LJ          0.648964        -1.25036        0.603943
LJ         -0.549617        -2.52921       -0.388207
LJ          -1.00957       -0.853015         2.46526
LJ           2.42185        0.391049       -0.700935
LJ           1.20923        0.434661        -1.63748
LJ        -0.0319356         1.79817       -0.317458
LJ           1.60726       -0.594699       -0.842174
LJ            2.4355         1.69187         2.27891
LJ          -2.15869        -1.14911        -0.80389
LJ            1.0069         1.10936          1.9223
LJ          0.633589        -2.16538       -0.799808
LJ         -0.586383        0.187422        -0.88879
LJ           1.26325        -0.33542        -2.18823
LJ          -1.91035         2.16357       -0.291679
LJ           2.21949        -2.12777          1.8147
LJ              -nan            -nan            -nan
LJ          -2.37904         2.00754         1.87115
LJ         -0.295773       -0.342484        -1.58332
LJ          -1.90876       -0.302982        -1.42956
LJ            -0.688          0.4012       -0.248092
LJ           1.27842        0.389353        -2.53535
LJ         -0.542946         0.77687        -1.84311
LJ           1.44664        -2.41053         -2.5061
LJ              -nan            -nan            -nan
LJ           1.87953         1.30554       -0.700161
LJ          -1.48036         1.65382        0.739466
LJ           2.48297       -0.189033         1.30318
LJ          -0.90453       -0.969851         -1.0397
LJ          0.732533        -1.61457          1.0809
LJ              -nan            -nan            -nan
LJ           1.96538       0.0948256         2.51677
LJ          -2.09938        -1.50277         1.76846
LJ              -nan            -nan            -nan
