108
#Comment!
LJ         -0.671982         1.56205        0.214564
LJ           1.51974        -1.94948        -1.52542
LJ           1.86703       -0.615965        -1.10661
LJ           1.40906         0.19655       -0.292478
LJ          -1.64064        -2.33373         0.90077
LJ          0.332807        0.891256         2.52585
LJ          0.625924         0.11362         -2.3183
LJ          -1.50664         1.19393        -1.52551
LJ          0.127356        -1.53294       -0.136078
LJ           1.27491        -2.19388        0.114986
LJ           1.00813        0.361137        -1.21612
LJ           -1.6815       -0.487573        -1.13944
LJ           0.56136         0.29186       -0.245384
LJ          0.569375       -0.524451        0.284609
LJ           1.26057         1.06333         -0.3395
LJ          -1.34685        -2.31333        0.769628
LJ           1.73633        0.443176       -0.686525
LJ         -0.926422         2.49919       -0.483439
LJ          -1.46851       -0.480912         2.04401
LJ          -2.30539       -0.954481         2.37622
LJ           1.43222        -1.03178        0.374182
LJ          -1.16754       0.0916419        -2.06954
LJ         0.0782056          2.3984         -2.3018
LJ          -1.71777        -1.09658       -0.320857
LJ          -1.36373         0.63776         1.88159
LJ           1.63007         1.01029         2.02969
LJ           1.09983        -1.55931         1.13906
LJ          -2.09517         1.17971         1.26578
LJ         0.0377685         2.50799        -1.77085
LJ          -1.41828        -2.22449        -1.10272
LJ           1.32282         0.91567        0.710878
LJ          -1.23931         2.53571          1.4833
LJ          0.707122         2.40753        0.702876
LJ         -0.323952        0.201052        -2.15292
LJ           2.36362        -1.10322        -1.57546
LJ          0.926073        -2.38668          0.7379
LJ         -0.467612        -2.01051      -0.0428715
LJ           1.94235         1.78021       -0.473922
LJ           2.24715        -1.99446         1.17901
LJ          -1.08474         1.51682        -1.91932
LJ           1.50256         1.87046        -1.23467
LJ          0.160558        -2.30479        -2.43642
LJ          -1.68906         -2.4497         1.77043
LJ           1.14263         2.09459         1.51427
LJ          0.232364         1.66991      -0.0268773
LJ           1.12125        0.981411        0.588546
LJ          0.114973       -0.921751        -1.50219
LJ           1.92526         1.72988         2.15354
LJ          0.391928        0.754171        -2.45017
LJ          -1.70875         1.13641         2.06704
LJ         -0.297982        -1.99357         2.20531
LJ           1.29424         0.59267        -1.78465
LJ           1.60172        0.161886         2.55784
LJ         -0.640433         1.84814        0.866651
LJ          0.934703        0.663524        0.171702
LJ          0.984517        0.329124        -1.78736
LJ          0.343914        -1.79971        -0.64604
LJ           1.38959       -0.340741         2.16573
LJ          -1.76373        0.714965        -2.41016
LJ           2.24221        -2.32709       -0.180421
LJ         -0.878274         1.29514       -0.709238
LJ          -1.48299        -2.06538        -2.02601
LJ           -1.4931         1.09622          2.1617
LJ          -2.41902        -1.25191        -2.06145
LJ         -0.802215        -1.29427        -1.49676
LJ           1.18476        -1.86768        -2.26636
LJ          -1.71944       -0.232903         1.26147
LJ           1.08081        0.609217        -2.12706
LJ         -0.784773         2.25112         1.07569
LJ         -0.761288       -0.367867        -2.45241
LJ          0.799896         2.54101        -1.86388
LJ         -0.522468         1.79859        0.553181
LJ         -0.159721        -1.12277        -1.34097
LJ          -1.42671        -1.41702         2.56102
LJ          -1.81092         1.18365       -0.735062
LJ            1.6042        -2.43064        0.748687
LJ          0.203746        0.190632      -0.0931224
LJ          -1.65864        0.531111         2.24559
LJ           1.12717         2.45691        -1.53607
LJ           1.90176         -2.5424       -0.915004
LJ           1.19325      -0.0562821        0.425989
LJ          -1.40743        -2.52861        -1.10192
LJ          -0.83129         2.54717        -1.82617
LJ          0.971979       -0.456565       -0.310208
LJ         -0.594466        -2.15253         1.96088
LJ           2.41592        -1.11007         1.09063
LJ           1.72748         2.03919         1.26067
LJ          -2.51401       -0.871101        0.954226
LJ          0.974456        -1.69989          1.9614
LJ          -1.67822       -0.843814         1.69264
LJ          0.833611       -0.265154       -0.944003
LJ           2.16551         1.55523         1.47831
LJ          0.225056        -2.27456         1.61056
LJ           2.55489        0.956056       -0.569715
LJ           2.54402        -2.12874           1.643
LJ           1.07698         1.12913         1.10871
LJ          -1.55422         1.66924         2.23993
LJ          -2.32058       0.0430894         2.52535
LJ           -2.0995        0.824811        0.452103
LJ        -0.0763271         1.67138         -1.3652
LJ          -2.10358        -2.28323        0.858743
LJ         0.0512238        -2.43775        -1.03151
LJ           2.47863        -2.43638        -1.78692
LJ           2.32226         1.16716       -0.950634
LJ            1.3167        -1.96394          1.8213
LJ           1.72761       -0.474393        -1.84685
LJ          -1.59247        -1.95348         2.30507
LJ          -2.51258         1.29794        -2.23885
