108
#Comment!
LJ          0.162564        -1.24882       -0.348819
LJ           1.39333         1.12924       -0.958856
LJ           1.84487         1.21782         2.35403
LJ           1.99845       -0.880555        -2.11628
LJ           1.08757       -0.140727        -1.79534
LJ           1.56046        0.109617        0.109557
LJ          -1.16352        -2.56133         1.10139
LJ         -0.703483        -2.24351        -1.07248
LJ           1.86415         1.50723        0.954213
LJ          0.475146        -1.56591       -0.639047
LJ              -nan            -nan            -nan
LJ          -2.07796          1.5875        -1.14231
LJ           1.25782        -1.33278        0.518426
LJ          -1.61588      -0.0217576       -0.978855
LJ          0.135047        0.560695        0.458387
LJ           1.69795       -0.621022        -2.18876
LJ          -1.96067       -0.215424       -0.278606
LJ         -0.327922         1.94995        0.398286
LJ          -1.08229        -1.01492        -1.55088
LJ          -1.56916        -2.50508         1.31415
LJ            2.0135         1.55489         1.86494
LJ           2.51964        -2.13021        -1.39669
LJ          -1.72532       -0.165902       -0.357445
LJ         -0.258742         2.16363        0.187017
LJ           1.08547        0.519407        0.475497
LJ          0.313983       -0.458656        -2.26798
LJ         -0.356652         1.28225         1.70673
LJ          -1.07428       -0.827644        -1.52941
LJ          -1.94956         1.78184       -0.393477
LJ         -0.997811         1.51366        -1.84575
LJ           1.52869        -1.59763        0.954194
LJ          0.223278         0.49884        0.770163
LJ              -nan            -nan            -nan
LJ          -1.57158       -0.853408         1.46204
LJ         -0.438462          -2.471        -2.52589
LJ           2.46041        -2.25372         1.16419
LJ          -2.40994         0.45908        -1.84442
LJ          -1.01006          1.7084       -0.485884
LJ           1.90091        -1.44242       -0.424978
LJ           1.54364       -0.385458       0.0888485
LJ           1.39152        0.318965       -0.932752
LJ            0.8872        0.502078        0.327375
LJ          0.218773       -0.870271         1.48975
LJ                 2        -2.46875         1.28125
LJ          0.327751        0.411874        -1.48482
LJ         -0.876463        0.408189        0.991738
LJ        -0.0852377         1.69777         1.97854
LJ          -2.41888        -1.63241        0.670489
LJ          0.721754         0.13234        0.789463
LJ          -1.16802         2.08928        0.805789
LJ           1.25705          1.8109       -0.606336
LJ        -0.0242251       -0.531404         1.13801
LJ          0.942021      -0.0459756        -2.07305
LJ          -1.11475        -2.15388       -0.386125
LJ           0.30164        -1.06001        -1.43831
LJ          -1.16461        -2.47033         2.41425
LJ           -2.1971       0.0605243       -0.384966
LJ          0.512329         1.04211        -2.48436
LJ         -0.675448       -0.163552        0.405496
LJ           2.11819        -1.02568        0.325103
LJ          0.972671         0.62673        -2.50948
LJ          0.557407        0.200039        0.605846
LJ           1.69072         -2.2304         -1.5344
LJ           2.31599       -0.920949        -2.40997
LJ         -0.231955        0.704344         1.34423
LJ         -0.431668         2.18426        0.998179
LJ          0.475944         2.11809         1.50389
LJ          0.501228        -2.43785        0.856994
LJ           1.10409        -1.21544        -2.15445
LJ             1.287        -1.03272       -0.716775
LJ          0.842342       -0.914548        0.348384
LJ           2.39102        -1.57447        0.884365
LJ         -0.220163         1.80693        -1.85476
LJ           2.21349         1.59654        0.286437
LJ           2.37836         1.49534         1.36374
LJ          -1.28829         1.92582       -0.530974
LJ           1.62497        -1.66915       -0.363941
LJ          -2.50818       -0.262354        0.978587
LJ          0.796538        -1.28835        0.991945
LJ          -2.53166        0.277297        -1.62796
LJ          0.147635         1.15424        -1.46182
LJ           -2.4154        -2.03448        -1.62074
LJ           -1.8125         -0.9375         2.34375
LJ           1.03248        -1.27974          2.0164
LJ           -2.2781        -1.66849       -0.632547
LJ          -2.24659        -2.12869        -0.27966
LJ            1.8749       -0.757084        -1.08391
LJ           1.50944        0.442274         1.73519
LJ          -1.30456         0.95114         1.84137
LJ         -0.483149         1.75566         0.37897
LJ           1.83955         2.47206          2.4085
LJ          -1.12701        0.842333         2.17555
LJ           2.27889        0.151058        0.719818
LJ          -2.31872        -1.89667         2.09806
LJ         -0.669108      -0.0594842         -2.3692
LJ          -2.54036       -0.313844         0.55724
LJ          0.950968        -2.13638        0.298325
LJ          -1.55949        -2.10871       -0.887913
LJ         -0.563721         1.59534         2.42359
LJ          -0.23732        -1.99853        -1.57506
LJ         0.0361058        -1.18406         1.00747
LJ         -0.268686        0.788484       -0.685027
LJ           1.24155         1.74424         1.26477
LJ           1.72498       -0.342745     -0.00572616
LJ           2.05529      -0.0267053         1.18954
LJ        -0.0522284        -1.73275        -1.39289
LJ           2.09862        -1.83886        -2.31051
LJ          0.276956       -0.115261         1.28956
