108
#Comment!
LJ           0.01969        -2.21818         1.90176
LJ          0.736243         2.17422         2.45275
LJ           1.63139        0.174877       -0.285095
LJ        -0.0561397       -0.068094        -1.37858
LJ           1.25457        -1.98737          -1.721
LJ           1.44942       -0.558464        -1.70283
LJ         -0.720497         1.59481        0.583587
LJ          0.635324        -1.53306         1.77051
LJ        -0.0185837        0.726475       -0.600451
LJ          -1.21229        -1.79902         0.73918
LJ              -nan            -nan            -nan
LJ          0.476174          1.9218         1.46396
LJ           0.45905         2.04049         2.21146
LJ              -nan            -nan            -nan
LJ         -0.823035         1.97223        -1.50365
LJ              -nan            -nan            -nan
LJ              -nan            -nan            -nan
LJ              -nan            -nan            -nan
LJ          -1.48364       -0.797017        -2.16382
LJ              -nan            -nan            -nan
LJ          -1.14416         1.56814        -0.28424
LJ          -1.15497       -0.868556        0.940542
LJ           2.02227        -2.39216        -2.19201
LJ          -2.14096        -2.28029         1.60792
LJ           1.30343       -0.205738        -1.90187
LJ           1.02193        0.745858       -0.860601
LJ         -0.624364         1.27709         1.47241
LJ         -0.506323        0.944407        -1.40707
LJ           2.39166        0.026412         1.62758
LJ        -0.0100545         1.72162        0.111915
LJ              -nan            -nan            -nan
LJ          -2.26659         1.01656        -0.18809
LJ              -nan            -nan            -nan
LJ          0.964905        0.540382         1.59719
LJ              -nan            -nan            -nan
LJ           1.58052        0.862622        0.951434
LJ           1.94504        0.154739       -0.747427
LJ          -2.42788        -1.87234         2.44928
LJ           2.45864        -2.37294         1.25832
LJ          -2.54457         2.46472        -1.33631
LJ          -1.83881      -0.0174297         1.11719
LJ           2.42253        0.419188        -1.21654
LJ          0.769469        -2.17664         1.85233
LJ         -0.419585        -0.65002        -1.94777
LJ          -1.59851       -0.205066        -2.01221
LJ           2.49089        -1.29371        -1.40155
LJ           2.41628       -0.326259         1.28557
LJ          0.614181        -1.12332        -1.52172
LJ          -2.47585         1.44167        -1.02722
LJ          0.289559        -1.59557         1.28243
LJ           2.09164       -0.238189        -1.13339
LJ          -2.50953        0.431498          1.0726
LJ              -nan            -nan            -nan
LJ         -0.432884         1.27898          -1.675
LJ          -1.14637        -2.38316        -1.46389
LJ          0.452878         1.91671         1.52608
LJ          0.898024        -1.79112        0.148455
LJ          -1.88151        -1.79583        -1.37822
LJ          -1.97311       -0.142426        -1.45349
LJ          -1.95478         2.02636         1.10016
LJ          0.894842        0.191775         -2.0998
LJ          -1.03637        0.590762        -1.26451
LJ          -1.66937       -0.859517        -2.09697
LJ           1.77076         1.27272       -0.361079
LJ              -nan            -nan            -nan
LJ           2.30436        -1.37565        0.833138
LJ           1.32445        0.749781        -1.36796
LJ              -nan            -nan            -nan
LJ          -1.02151          1.1015        0.437054
LJ          -2.34333        -1.42743         1.62415
LJ           1.64594        0.269333       -0.893688
LJ           2.29334         1.21338        -1.09738
LJ           0.62828        0.671602         2.46205
LJ         -0.756667        -2.10878        0.830324
LJ          -2.27172         2.25857        -1.14784
LJ         -0.469877          1.4524       -0.294725
LJ           2.00156        0.339041         1.42232
LJ           1.04493        -2.38108         1.40633
LJ          0.684216         1.40704        -1.84396
LJ          -1.69058          1.9636        -2.47443
LJ           1.44679         1.23741        -1.97967
LJ           2.47554       -0.608498         -2.2742
LJ          -1.45964       -0.165808       -0.465501
LJ          0.165675        0.982645      -0.0614413
LJ          -1.84443         1.37297        -2.02675
LJ         -0.401725        -0.43268        0.886437
LJ          -1.52269        -1.38043         1.20781
LJ          0.327424         1.07886       -0.902522
LJ          -1.83219        0.260542         2.17904
LJ           1.62112         1.15813        -1.16551
LJ              -nan            -nan            -nan
LJ           0.86961          1.1761        -1.45158
LJ           1.63359         2.44655         1.33649
LJ          -2.47489        -0.93585         -1.5557
LJ           1.03615        -2.53964        -0.21926
LJ           -2.4702        -1.18985        -1.42222
LJ            -1.045         2.14423         0.51625
LJ          0.463007        0.739671         1.28129
LJ              -nan            -nan            -nan
LJ           2.38019       -0.487276      -0.0415313
LJ          0.924368         2.28066         1.93566
LJ          0.684255         2.13044          1.8502
LJ          0.594217        -1.86941        0.387892
LJ           1.75337       -0.681708        0.471489
LJ              -nan            -nan            -nan
LJ          -1.09534      -0.0790385          1.0056
LJ           1.99217         2.15855       0.0274215
LJ              -nan            -nan            -nan
