108
#Comment!
LJ         -0.332101        0.308472        -2.50802
LJ          -2.04742       -0.742972         2.51365
LJ           2.35777         2.36764        -1.29741
LJ          -1.64181       -0.814058         2.32108
LJ         -0.692152        -1.99587        -1.32536
LJ          -1.92358       0.0235002        -1.94052
LJ          0.503512      -0.0357218        0.939799
LJ          -1.07198        -0.96609         1.58553
LJ           1.30986        -1.32394        0.869783
LJ           2.42525        -1.69177         1.39543
LJ              -nan            -nan            -nan
LJ           2.28509         1.00934         2.32443
LJ         -0.121239       0.0422896        -1.23486
LJ              -nan            -nan            -nan
LJ           1.32573        -1.96172         1.47511
LJ              -nan            -nan            -nan
LJ              -nan            -nan            -nan
LJ              -nan            -nan            -nan
LJ           0.70695        -1.52582         2.39606
LJ              -nan            -nan            -nan
LJ          -1.81717        -2.55477         2.46894
LJ          0.256879         2.34697        -1.60041
LJ          0.135335      -0.0516799        -2.33173
LJ           2.00901        0.993402        -1.25559
LJ          -2.45988         1.76746       -0.752785
LJ          -1.22205        -1.54041         2.02041
LJ          0.648115        -1.84088         1.01544
LJ          -2.54012        -1.18564         0.20487
LJ         -0.630727         1.64528        -1.00002
LJ          0.231528         1.52609         1.03823
LJ              -nan            -nan            -nan
LJ         -0.516615         1.67479        0.612755
LJ              -nan            -nan            -nan
LJ           1.98699         2.17261        -1.37336
LJ              -nan            -nan            -nan
LJ           1.56465        0.504301        -2.45608
LJ          -1.95122         2.23759         1.83664
LJ           1.89169        -1.47254        0.182703
LJ         -0.712116         2.44332          1.3067
LJ           1.68985         1.46019        -1.46481
LJ           1.50885         2.10725         1.05558
LJ           1.74795        0.862251        -1.17376
LJ          -2.52723        0.437813        -1.87651
LJ          -2.42848        0.837444         1.92066
LJ         -0.584211       -0.860353        0.592791
LJ           1.66735       -0.412837         2.19597
LJ           1.72032        -2.29319        0.712902
LJ           2.23368         2.48454         1.24658
LJ          -2.52802       -0.455901        0.470946
LJ          0.773546       -0.718071         2.38735
LJ             1.638       -0.972295       -0.564623
LJ         -0.400563       -0.286029        0.474899
LJ              -nan            -nan            -nan
LJ           2.13521        0.755713        0.608949
LJ            -1.512        -2.33105        0.194101
LJ           1.92736        0.183984        -2.22792
LJ          -1.25265        -2.00743         -0.2048
LJ          -1.50011        -1.29024         -1.8294
LJ           1.55299        -1.30938        -2.24219
LJ          -1.62651         1.36212       -0.013731
LJ          0.826798        -1.43341         2.53395
LJ           2.44508        -1.72587         2.05752
LJ           1.07398         1.86123         1.80734
LJ           2.53129       -0.555972        -2.53255
LJ              -nan            -nan            -nan
LJ          0.167868        0.663187         1.07611
LJ           2.22446        -1.47321         1.59217
LJ              -nan            -nan            -nan
LJ          0.528655        -2.38378       -0.799904
LJ          -1.93037         2.27469        -2.18444
LJ           1.59124         2.19844        0.940388
LJ           1.62455        -1.50086        0.136811
LJ           1.16709         2.52236        0.129621
LJ           0.92746         1.11825        0.717493
LJ          -1.16841       -0.786499         1.73594
LJ          0.427186       -0.514054         -1.6112
LJ          -1.58854        0.197211        -1.98501
LJ          -0.39206         2.52346       -0.337425
LJ          0.601228        -1.51284          1.8418
LJ           -2.4062        0.635093         2.03123
LJ          -1.56307        -1.39507        -2.35144
LJ          -1.16246       -0.417696        0.118402
LJ            1.1571        -1.95023         1.15572
LJ          -1.42983        0.215589         2.16141
LJ           2.20623       -0.170646        -1.59581
LJ          0.131387         1.15446        0.938835
LJ           1.77854         2.04529         -1.0525
LJ         -0.593212          1.2538         0.96637
LJ           1.30458       -0.339187        0.904165
LJ          -1.25232         -2.3809         1.88736
LJ              -nan            -nan            -nan
LJ        -0.0246572        0.331475        -0.30006
LJ         -0.744327         1.55526         1.52222
LJ           2.33715       -0.625204       -0.590379
LJ         -0.927595        -1.49905         1.58406
LJ         -0.589538       -0.385181        0.451503
LJ           -2.4013       0.0125662         1.32347
LJ           2.46158         2.20327         1.14384
LJ              -nan            -nan            -nan
LJ           -1.3473        -1.46335        -2.34678
LJ           -2.4136        -2.05734       -0.320675
LJ         -0.930275         -2.0927       -0.276059
LJ           1.22877        -2.05865        -1.16651
LJ          -1.41363         1.95068       -0.196883
LJ              -nan            -nan            -nan
LJ           1.52439         1.86579         1.36526
LJ          0.244749        0.920374       -0.447834
LJ              -nan            -nan            -nan
