108
#Comment!
LJ          -2.28447       -0.115476       -0.830734
LJ         -0.092472        -1.43055          2.1787
LJ          0.756241       -0.160229         2.28715
LJ          -1.09867         1.43765         2.06727
LJ          -1.91808        -1.30995         1.27553
LJ          0.329652         1.44572        0.419184
LJ          0.244511         -2.3884        -1.14633
LJ        -0.0904022        -1.84475        -1.19914
LJ          -0.92105        0.272339         1.75699
LJ           2.38886         1.71902        -2.34208
LJ              -nan            -nan            -nan
LJ         -0.420091       -0.424051        -1.83489
LJ           1.77695        0.482496        -1.86296
LJ         -0.278643          1.6978        0.106462
LJ         -0.679931        0.919931        0.590241
LJ          0.533603        -2.32185         1.94625
LJ          0.711755         -0.9361         1.66107
LJ          -1.75999        0.641379         -1.5684
LJ        -0.0100691       -0.533651       -0.392976
LJ           1.33812       -0.150446          2.1678
LJ          0.374839       -0.851816         1.45092
LJ          -0.76344        -1.65005       -0.904241
LJ          -0.92372         1.90046        0.465509
LJ           -2.0024        0.584365         1.79446
LJ          0.454818       -0.641319         1.52151
LJ           1.09805         1.06971        0.088503
LJ          0.463526       -0.929821         2.43546
LJ           1.21878       0.0297736       -0.372282
LJ           1.77631         1.55161         1.11298
LJ          -1.65445        -2.28596        -0.47778
LJ             1.076       -0.756023        -2.48023
LJ           1.95463         1.70092        -2.02873
LJ              -nan            -nan            -nan
LJ          -1.01995          2.4023         2.21165
LJ           0.97424       -0.182999         0.69972
LJ          -0.74382         2.51651        -1.66218
LJ         -0.530616        -2.16126        -2.24052
LJ          0.800152         2.14233        -2.49547
LJ         -0.134918        -2.39877         1.38144
LJ          -2.52176        -1.47196          -1.956
LJ          -1.33312         1.13066        0.557128
LJ          0.178606         -1.1832        0.462126
LJ         -0.765839       -0.821368        -0.93764
LJ         -0.441064        -1.42274         -0.3137
LJ          0.765513       -0.168578       -0.724596
LJ         -0.167214       -0.216931        -1.24019
LJ          -1.77077        0.788679        -1.79004
LJ         -0.292662        -1.10281         2.05306
LJ           1.60811        -0.72761        -1.94578
LJ         -0.683924        0.375989       -0.241992
LJ           1.71485        -2.28831        0.918619
LJ          -2.50628        -1.01978        0.976535
LJ         -0.183898        0.547513         2.04596
LJ          -1.13815       -0.349302       -0.664501
LJ         -0.662718        0.323525         1.83732
LJ          -1.84031         1.33289        0.723037
LJ         -0.515421        -1.36401        -2.25081
LJ           1.48437         2.15198        -1.20861
LJ         -0.708702        0.996532         1.94737
LJ          -1.70059        -1.64598       -0.744931
LJ          -1.88875         1.95336         1.46611
LJ          0.285447       -0.259927       -0.288379
LJ          0.482492         1.08951        0.771906
LJ           1.44386         -2.1197         1.09011
LJ          0.248731         1.39776        0.262075
LJ           1.68511        -2.44896         1.46908
LJ       -0.00267433        -1.74085        0.347568
LJ          -1.52725        0.439593        -1.82563
LJ          -2.09761        0.533088        -1.09023
LJ            1.1495        0.566261        -1.63982
LJ          -2.24811         2.22785        -1.78194
LJ           2.16517       -0.534484        0.228175
LJ           1.72617        -1.75519         2.52633
LJ           2.08206         -2.1508        -1.73607
LJ           1.65634         1.59851        -1.05275
LJ         -0.132318        -1.12794       -0.910184
LJ           1.06167        -1.81011         1.24875
LJ         0.0776338       -0.293311        0.768234
LJ          -2.00996        0.915421        0.776231
LJ           0.68464        -2.47652         2.10822
LJ          0.508207       0.0684594        -1.91202
LJ           2.48853          1.2534          2.0674
LJ          0.664599         0.45364         2.21751
LJ          -1.23065         1.00283        -1.67351
LJ           2.13749        0.199025       -0.157747
LJ         -0.191733       0.0334111         2.15007
LJ           2.00617       -0.402763        -1.52456
LJ          -1.96248        0.115541       -0.790235
LJ          -2.03974       -0.121475       -0.791482
LJ           1.15432         1.99449          2.2223
LJ           1.67736          2.4079        0.826171
LJ        -0.0256739         1.40051        0.305585
LJ          -2.42299       -0.546056        0.658731
LJ           2.07288        0.352742       -0.125604
LJ         -0.581784        -1.84593       -0.535162
LJ          -1.11813       -0.875983        0.376231
LJ         -0.443267       -0.382665        -2.35065
LJ          -2.08156         1.28828       -0.338233
LJ           2.00342         1.76169        -0.94843
LJ           1.99385         1.47628         1.93681
LJ          0.254822           2.433         1.88842
LJ           2.46942       -0.483424       -0.935551
LJ           1.29709         1.54051         1.58332
LJ        -0.0669537        0.865659       -0.723916
LJ          -2.45587       -0.188957         0.76464
LJ           -1.1867        0.374842        0.384246
LJ          -2.52362       -0.532844        -1.08604
LJ           1.87373        -1.75142        -0.48492
