108
#Comment!
LJ          -1.38004        -1.25194        0.347762
LJ           2.27837        -1.59344        -1.60697
LJ          -2.34642       -0.575361        -2.25284
LJ          0.903626         1.93984        -1.49092
LJ          -1.32405        0.737402         2.27256
LJ          0.392925       -0.238845         1.87125
LJ          -1.80881         2.09887        0.170536
LJ         -0.569186        -1.99445         1.58459
LJ             2.336        0.395182          1.7536
LJ           1.25423       -0.661835         2.16135
LJ              -nan            -nan            -nan
LJ         -0.720924        -2.38804       -0.420103
LJ           -2.0314        -1.93738        0.598792
LJ              -nan            -nan            -nan
LJ          -1.30432          2.1001         1.29858
LJ              -nan            -nan            -nan
LJ              -nan            -nan            -nan
LJ              -nan            -nan            -nan
LJ           2.44576        0.112458         -2.5026
LJ              -nan            -nan            -nan
LJ          -1.38462      -0.0848358        0.775426
LJ        -0.0802624        -2.13184        -1.96245
LJ         -0.660552         1.50083         2.16065
LJ          -1.95922        -2.52491         1.53125
LJ          -0.56263         -2.0403         1.52132
LJ         -0.206492       -0.462556        -1.74524
LJ          -2.14633       0.0299171        -1.06547
LJ           1.53472        0.334713        0.100502
LJ           1.73759        -1.82143        -1.80902
LJ           1.12185      -0.0727322         1.58611
LJ              -nan            -nan            -nan
LJ           1.75648         2.43299         1.35326
LJ              -nan            -nan            -nan
LJ           1.35085       -0.995339        0.138768
LJ              -nan            -nan            -nan
LJ            1.0452        0.458092        -2.15333
LJ          -2.14712        -1.09055        -2.20698
LJ         0.0887205        -1.34206         2.04464
LJ         -0.232706        -2.17364         1.85637
LJ           1.74108       -0.612942        0.540002
LJ         -0.352622        -2.33573         1.24034
LJ        -0.0487714        -2.08204         -2.4678
LJ          -2.16094       -0.616249         1.92273
LJ           1.35742         1.23741       -0.132357
LJ          0.250277        -2.20269         1.35012
LJ         -0.203012        -1.84516         2.02879
LJ          -2.43568         1.79715         1.64313
LJ         -0.459338       -0.900047         2.15175
LJ         -0.522225         1.18239         1.64937
LJ         -0.241687        0.745787        0.977684
LJ          0.320141        -2.45535         2.45694
LJ           1.97965        0.859114        -1.06093
LJ              -nan            -nan            -nan
LJ          -2.45162         1.69252         0.98168
LJ          -2.14701        0.330017        0.778081
LJ          0.299328       -0.722373         2.40383
LJ        -0.0452564        -1.92326        0.481364
LJ           1.53119         1.70458         2.48972
LJ          0.513067         1.15792         -2.3561
LJ           2.25255         1.48954        -1.12961
LJ         -0.458234        0.395999       0.0735287
LJ           2.49807       -0.113601         1.62519
LJ          -2.29264         2.37251         1.88311
LJ          -2.51435         1.79339         1.65227
LJ              -nan            -nan            -nan
LJ          -2.23687         1.14855        -2.07158
LJ          -1.92418        -1.11677         2.44488
LJ              -nan            -nan            -nan
LJ          -1.15655        0.403228         -1.1889
LJ             1.412          0.2627        -1.36043
LJ         -0.991929        -1.26566        -2.50219
LJ           1.03273       -0.356914       -0.230759
LJ         -0.482155       -0.663997          1.4277
LJ           1.26607        -2.35322         1.34378
LJ         -0.116912       -0.321006     -0.00113549
LJ           1.71093         1.53306       -0.457017
LJ           2.05145        0.937267        -1.79148
LJ           2.06937       -0.494546         0.50777
LJ          -1.70774         1.45487        -2.35465
LJ           1.90812        0.274578         1.97411
LJ           2.11649         1.09132       -0.187779
LJ          0.875985         -1.4302       -0.652599
LJ         -0.712844       0.0783559        0.464667
LJ            1.2435         -1.1898        -1.96869
LJ         -0.758545        0.484372        -1.87071
LJ         -0.733742        -1.21552         2.24571
LJ           1.96839        -2.05414         1.99753
LJ          -2.34534        -2.19316       -0.837045
LJ         -0.314362         2.39076       -0.490653
LJ           1.11699       -0.844959        -1.11369
LJ              -nan            -nan            -nan
LJ          -2.43122        -1.97399        -1.19623
LJ          0.672098       -0.645193        -1.48224
LJ           2.52485         2.13852        -2.09299
LJ           1.52537         0.48074        -1.57052
LJ           1.06896       -0.995071        -2.28198
LJ         -0.972398        -1.36659         -1.6239
LJ           1.60149        -2.05061        0.511836
LJ              -nan            -nan            -nan
LJ          -2.05524        -1.76021        0.316512
LJ           2.07335        -2.51812       -0.515141
LJ         -0.627257     -0.00398634          0.9269
LJ           1.47107         1.72658         1.06789
LJ           2.00909        -0.66085        -1.91831
LJ              -nan            -nan            -nan
LJ             2.562         2.03419         2.46784
LJ           2.53765         1.60276         2.14145
LJ              -nan            -nan            -nan
