108
#Comment!
LJ         -0.607751        -1.72192       0.0037826
LJ         -0.597102        -2.10618        -1.88513
LJ            1.6743        -1.89987       -0.878519
LJ           1.02704        -1.20835         2.45765
LJ           1.73659         1.34787        -1.00159
LJ          -2.01656       -0.832112        -2.34504
LJ          -1.99041      -0.0734643         1.72283
LJ          -1.70213        -1.99944       -0.228049
LJ          0.203725        -1.25825         2.41841
LJ           1.28866       -0.141817         1.06548
LJ              -nan            -nan            -nan
LJ           1.29747        -1.16828        -2.46711
LJ          0.912238       0.0668651         1.08369
LJ           2.44909        -2.51548        -1.54354
LJ           2.46614          -2.209         2.05414
LJ         -0.125431         1.58667       -0.492665
LJ              -nan            -nan            -nan
LJ              -nan            -nan            -nan
LJ           1.11225         1.75818         1.54306
LJ              -nan            -nan            -nan
LJ          0.355685         1.95787       -0.389509
LJ         -0.286943        0.812175       -0.358295
LJ          -1.94138        -2.12041        0.263798
LJ         -0.172575         1.36595       0.0724048
LJ          0.987536       0.0712742       -0.819669
LJ            1.8849        0.322966        -1.39384
LJ           2.48773         -2.2927        -1.42134
LJ           2.30636        -1.45569         1.08672
LJ          -2.05724        0.460851        0.935805
LJ          -1.00533       -0.785534       -0.132327
LJ          -0.16446        -1.20013       -0.310845
LJ          0.870391       0.0394748         1.82467
LJ              -nan            -nan            -nan
LJ         -0.648649       -0.669311         1.23272
LJ              -nan            -nan            -nan
LJ          0.186213       -0.826232        -2.20836
LJ          -2.18376       -0.431644       -0.354139
LJ          -2.52528        -2.27501       -0.858126
LJ         -0.726654       -0.944191         2.40761
LJ          0.358337        0.902321       -0.100928
LJ         -0.861584       -0.144729         2.02473
LJ         -0.669076        -1.76507        -1.05694
LJ           1.10135        -1.33535        -1.94752
LJ          0.374632        0.257334         0.63442
LJ          -2.34214       -0.810948        0.719816
LJ           2.47993        -1.15666         1.94479
LJ          -2.31741         1.19971        -2.37329
LJ          0.361328        0.795755         1.79307
LJ         0.0302403         2.16588        -2.07095
LJ          0.850301       0.0761171         2.35167
LJ          0.966197        0.208482       -0.804097
LJ         -0.760513        0.920433         1.00645
LJ              -nan            -nan            -nan
LJ           1.54206        0.378189        -1.46436
LJ         -0.974646       -0.166945        0.581569
LJ         -0.516724        -2.48161         -2.1522
LJ           2.43674      -0.0208447       -0.305516
LJ          -2.29486         1.91202         1.34085
LJ          -1.47112         2.54803          2.0397
LJ          0.705451        -0.17359        -1.99024
LJ          -1.83609        0.559788       -0.775689
LJ          -0.92923         1.50914       -0.581472
LJ           2.53568       -0.144699         2.46019
LJ          -1.78999       -0.507612        -1.35802
LJ          0.656893        0.649057       0.0478732
LJ          -1.71584         1.19469         1.84307
LJ           1.58892         -2.5362          1.6444
LJ              -nan            -nan            -nan
LJ          -1.88642         2.01987        0.897908
LJ          0.879574         1.65555         1.59887
LJ         -0.997382        -1.34624         1.09625
LJ           2.37224      -0.0633469         2.38504
LJ          0.300912        0.933164         2.10597
LJ          -2.08049        -2.11057       -0.815778
LJ          -1.95168         1.95839         -1.9599
LJ         -0.124889         2.05694         2.02353
LJ           2.11936      -0.0418056        -1.31906
LJ         -0.251286        -1.22457      -0.0678911
LJ          0.152152       -0.178333         1.53771
LJ          -1.49887         2.33245         1.84071
LJ           1.49029         2.07833        -2.56068
LJ           0.55609         2.42444       -0.517086
LJ          -1.90805      -0.0178064       0.0503321
LJ          0.138674         1.89592        -1.16427
LJ          -1.89416       -0.394736         -1.2753
LJ          -1.97682        -2.52832         0.60568
LJ          0.760974         1.48193        -1.88567
LJ          0.538701        0.894854         1.30752
LJ        -0.0182628     -0.00214248         1.10308
LJ         -0.326502       -0.792968         1.95061
LJ              -nan            -nan            -nan
LJ         -0.655884        0.747181        -1.62555
LJ          -2.49198       -0.200151        -2.22154
LJ          0.245432        0.491092        -1.95536
LJ          -2.31516        -1.10919       -0.302466
LJ           2.46268         2.53111        -2.33037
LJ           0.73381         1.93342         1.86258
LJ          0.926418         -1.3292       -0.844243
LJ          0.342521       -0.978124      0.00630521
LJ          -1.89113       -0.590643         1.52159
LJ          -1.55073        -2.07963         1.18474
LJ            2.3877        0.874835       0.0295671
LJ           -1.8806        -1.98338       -0.264539
LJ           2.24946        0.491633         2.05029
LJ           2.38108       -0.918208        -1.12135
LJ          -1.21942           1.055         1.22546
LJ           1.06308        -1.91175        -2.07551
LJ              -nan            -nan            -nan
