108
#Comment!
LJ          -1.45493        -1.67268        0.488946
LJ           1.39267        -0.55544        -1.57585
LJ           1.39547       -0.315922         1.91977
LJ           1.10555        0.401748        -2.13669
LJ          -1.87706       -0.132743        -1.31832
LJ         -0.841299       -0.612895         0.28702
LJ          0.777676        0.505623        -1.74267
LJ           1.83181         1.59863         1.85706
LJ          -1.49158       -0.692119        0.659684
LJ        -0.0837383        0.358443       -0.244709
LJ              -nan            -nan            -nan
LJ           2.47298        0.172535        -0.56386
LJ          -1.34699       -0.782367        -1.62747
LJ           1.35329        -1.59311         2.52651
LJ         -0.618182       -0.720192        -1.45634
LJ          -1.10833       -0.856349         1.90955
LJ              -nan            -nan            -nan
LJ              -nan            -nan            -nan
LJ           1.84615        -1.80251         -2.1439
LJ              -nan            -nan            -nan
LJ          -1.52346         1.40973        0.517517
LJ          -2.16106        0.369866        -1.12336
LJ          -1.06348        -2.19909         1.46034
LJ           2.06832        -1.24151        -1.58774
LJ         -0.509462          1.1719         2.11448
LJ          -1.06028         2.02003        0.123457
LJ           2.34861         2.31611        -1.43815
LJ          -1.52783         2.25091        0.850827
LJ           2.35821        0.682564         1.55819
LJ          -2.06664       -0.692783         2.50646
LJ           2.28617         1.56758       -0.495221
LJ         -0.587439       -0.184254       -0.370515
LJ              -nan            -nan            -nan
LJ          -1.94351       -0.997096        -1.28545
LJ              -nan            -nan            -nan
LJ          -1.74285         1.51994        -1.08068
LJ          -1.89146        -1.08388        -1.08549
LJ           1.47609          1.7213         1.02913
LJ          0.358693       -0.589258       0.0296174
LJ          -1.23629       -0.996982          0.8162
LJ         -0.166136        -1.16788         1.28845
LJ          0.093193        0.818758         2.52225
LJ         -0.600756         1.55228        -1.56782
LJ         -0.419723        -2.44744         2.01404
LJ          -2.30495         1.39301         1.23633
LJ           1.97686       -0.144611       -0.939487
LJ          0.200471          1.0359        0.456566
LJ           2.38407         1.49183        -0.17868
LJ          0.759127        0.765404         1.40655
LJ          0.914524         2.02769         1.27468
LJ          -1.18462         2.53102        0.255543
LJ        -0.0199757        -1.55187        -2.09737
LJ              -nan            -nan            -nan
LJ          0.169447          1.7966        -2.34709
LJ         0.0302508        -2.45812        0.364434
LJ          -1.58409       -0.916608        0.786368
LJ          0.389966         -2.2075         1.14633
LJ          -2.18165         1.18582       -0.846954
LJ          -2.33178         1.22607         1.74288
LJ          -2.41509        -2.34109        -1.45247
LJ          -1.05928        -2.06497       -0.466759
LJ           2.29923         1.69484         1.81269
LJ          -2.03125        -1.51996         2.28437
LJ         -0.828709         1.72682        -1.29086
LJ           1.44826         1.02611        -1.00488
LJ          -2.52006       -0.815551       -0.728391
LJ          -1.13513         2.03214        0.641004
LJ              -nan            -nan            -nan
LJ           -2.2765        -1.33188         1.01678
LJ         -0.559171        0.625527        -2.36691
LJ           1.77344         1.72734        -1.96336
LJ          -1.39434         1.23527        -0.45348
LJ         -0.293048         1.93793       -0.366721
LJ           1.44249        0.718012         1.42343
LJ          -2.01042        -1.85524         2.22023
LJ          0.322025        0.195425         2.19905
LJ            2.1956         2.27511       -0.925982
LJ         -0.682568       0.0222087       -0.707481
LJ           1.46603        -1.28114        -1.18669
LJ          0.280977       -0.213512       -0.894507
LJ           1.29622        0.398508        -1.82092
LJ         -0.627326        -1.93525        0.261341
LJ          0.147821        -2.08033         1.63543
LJ          -1.49105         2.46149      0.00682049
LJ          -2.40352        -2.13323        -1.83321
LJ        -0.0270224        -1.12068       -0.832748
LJ          0.227106      -0.0928842       -0.587669
LJ           1.01752         1.14081         1.95522
LJ           1.50058        0.208596       -0.582121
LJ        0.00313073         1.83498         2.51588
LJ              -nan            -nan            -nan
LJ         -0.309528        0.731684         1.16046
LJ          0.913549        -2.08441        -2.33627
LJ         -0.179582         2.49448         1.72823
LJ           -2.4571        0.773321         2.51789
LJ           2.33029        -2.03845        0.143359
LJ         0.0677719         2.51844         2.15338
LJ          -2.49373        -1.36781       -0.988805
LJ           1.74257       -0.558444        0.178135
LJ          0.840123        0.681148        -2.17744
LJ           1.59712         2.49469         2.25219
LJ          0.214909        0.514122       -0.380536
LJ         -0.641631         1.52705         1.95806
LJ         -0.919639         1.05045        -2.15409
LJ          0.706243         2.11158         2.47753
LJ          -2.21502          -1.566         1.31655
LJ          -0.93128       -0.692214        -2.47082
LJ              -nan            -nan            -nan
