108
#Comment!
LJ           1.29778         1.14487        -2.21417
LJ          -1.12833        -2.49362        0.760352
LJ            1.2209       -0.390813        -1.59485
LJ           1.94215        -2.45024        -1.12247
LJ          0.914308        -2.16659        0.191952
LJ          -1.67072       -0.698981       -0.940595
LJ          0.431529       -0.843176         2.55025
LJ          -2.06271        0.791533          1.2024
LJ         -0.559109        -1.14216         1.06631
LJ          -1.07301          1.6683       -0.675535
LJ              -nan            -nan            -nan
LJ         -0.592272        -2.42438          1.5283
LJ          -1.63613        -1.44139        -2.31777
LJ         -0.653692        0.202112        0.790345
LJ          -2.10681         2.55662        -1.26218
LJ           1.77426        -1.65472       -0.190823
LJ        0.00670867        0.157985       -0.842859
LJ         -0.202818        -2.26307        0.814972
LJ          -2.44195         2.06388         0.62303
LJ          -1.35543        -1.65884        -1.35791
LJ         -0.299235        -0.37071       -0.424413
LJ           1.22013         2.41935       -0.992645
LJ         0.0237572        -1.79411          1.9859
LJ         -0.775363        -1.73299         2.21875
LJ         -0.916804        -1.15994        0.282307
LJ           2.01803         -2.0342        -1.49743
LJ         -0.652397       -0.556408       -0.541246
LJ          0.631032       -0.345516        0.215475
LJ         -0.405811         -1.7539       -0.139048
LJ           1.20082        0.550423         1.58302
LJ           1.25784         1.96041       -0.803403
LJ          -2.08275        -1.34869         2.41666
LJ              -nan            -nan            -nan
LJ         -0.255357        -1.59135       -0.388672
LJ          0.737448         1.40835        0.514623
LJ          -0.63086        -1.21068         0.53127
LJ          -2.09853         1.65892          1.6457
LJ          0.819802        0.900495       -0.265844
LJ          -1.75402        -1.76662         2.10166
LJ          -2.11461         2.13241         1.57739
LJ          -2.53621      -0.0311814        -2.17285
LJ          0.506128        0.741533        -2.00723
LJ          0.450246        -1.82391        -2.43051
LJ          -2.19911       -0.667624         1.73098
LJ          -1.24636         1.94663         1.11418
LJ            2.1064        -1.09156        -2.19566
LJ           1.39351        -1.95394         1.56977
LJ         -0.593178        -1.26126       -0.372856
LJ           1.50891       -0.605221        -1.24538
LJ          -2.04009        -2.40515       -0.296219
LJ           2.51888         1.28327       -0.335811
LJ           2.13178         -2.0288        -0.10412
LJ           2.15207        -2.00903         0.67679
LJ          -2.33376       -0.256162        0.479693
LJ           1.19912         1.69266         1.26452
LJ           2.20977         2.22415         1.77655
LJ         -0.319375        0.178291           2.225
LJ           2.18675         2.17126          1.2499
LJ           1.80369        -2.01577        -1.85364
LJ           1.55731         1.53619         1.63562
LJ          -2.32663        -1.92815        -2.52977
LJ           2.23218         1.64372        -0.66036
LJ          -1.04349        -1.78847        -2.55724
LJ           -2.3565         1.73046       -0.287819
LJ          -1.33275           -1.98       -0.676017
LJ          -1.83434         1.59973         1.38505
LJ         -0.166704       -0.782875        -2.52881
LJ           1.79894       -0.944049       0.0634101
LJ         -0.876136        -1.51983      -0.0976511
LJ          -1.80155         1.43683        -2.20729
LJ           1.48848        -0.87051         1.97976
LJ          -2.02216       -0.839427       -0.121359
LJ          -2.09268        -0.49303       -0.288831
LJ           1.57076        -0.13389       -0.597194
LJ         -0.294704        0.804396         1.50143
LJ          -2.10028         1.84667       -0.188988
LJ          -2.54904        -1.02588       -0.342473
LJ          0.359675        -1.77992         1.19207
LJ         -0.669187         1.06139         1.87302
LJ          0.878211         2.32457        -2.46415
LJ           2.44105       -0.230868        0.259537
LJ         -0.933634         1.35995         2.52942
LJ          -1.90781        -1.80934        -1.30037
LJ          0.781434         1.68387         1.59141
LJ           1.66421       -0.604432        0.033208
LJ           2.30379       -0.974078         2.19564
LJ           1.48904        -2.55563         1.34687
LJ         -0.266168         2.38705         1.43434
LJ          0.665539       -0.577789        -1.76221
LJ          -1.04293         1.54841         1.04578
LJ          -1.57971        0.878386         1.02795
LJ          -2.02736       -0.283505         2.47219
LJ          -1.99058         2.05214       0.0820577
LJ         -0.723905         1.57912         1.01763
LJ          0.533674         1.55034         1.94569
LJ          -1.24061        -1.96547       -0.487232
LJ           1.05388         2.23376        0.631367
LJ         -0.863817         1.74126        -1.43167
LJ          -2.21786        -2.45699        -1.94106
LJ         -0.411016        0.795585        -1.21803
LJ         0.0927404         2.46913          -0.841
LJ         -0.633391        -2.12049          2.4522
LJ          -1.35354         1.08612      -0.0465673
LJ          -2.06385        -1.25635        -0.93033
LJ           2.05121        0.570257        -1.51765
LJ           1.78339        -0.97529       -0.282649
LJ           1.87862         2.07834         1.48794
LJ          0.288289        0.791626         2.28653
