108
#Comment!
LJ          -1.40333        -1.74348        0.119485
LJ          0.478351       -0.744573         2.34429
LJ         -0.201963         1.59883        0.452208
LJ        -0.0661165       -0.289456         1.77995
LJ           2.00783         2.14684        0.769515
LJ          -2.44018        -2.20631         2.20472
LJ          0.819488       -0.785402         0.97191
LJ          -1.80998         -1.8441        -1.47175
LJ         -0.745622       -0.439626       -0.379499
LJ          0.787491         1.34038        0.956809
LJ              -nan            -nan            -nan
LJ          -1.62068       -0.103337       -0.876279
LJ          -1.17603         -1.2846        0.518923
LJ              -nan            -nan            -nan
LJ          -1.41609       -0.904544         1.48272
LJ              -nan            -nan            -nan
LJ              -nan            -nan            -nan
LJ              -nan            -nan            -nan
LJ            2.0797         1.14487        -2.27008
LJ              -nan            -nan            -nan
LJ          -1.27306       -0.121981        0.859812
LJ         -0.490818        0.460029         0.79036
LJ           1.69845        -2.54764         1.23429
LJ              -nan            -nan            -nan
LJ          0.469335         1.93194        0.320753
LJ           2.52109         2.41548        -1.07158
LJ          0.961823          -1.739        -1.14799
LJ          -1.83338        -2.06986         1.17222
LJ           1.28214         -1.9093        0.301296
LJ           1.09766         1.75218        -2.32008
LJ              -nan            -nan            -nan
LJ         -0.575569         2.08287        -1.32273
LJ              -nan            -nan            -nan
LJ         -0.673648         1.36735        0.693635
LJ              -nan            -nan            -nan
LJ          0.657887       -0.871785         0.51748
LJ          0.456865        -1.94994        0.355385
LJ            1.9324         2.15063        -1.97755
LJ         -0.959807         1.21316         1.80971
LJ          -1.99313        -1.31162         1.03399
LJ          -2.03236         1.11715        -2.45574
LJ         -0.115233        -2.22477        -1.26659
LJ           1.48963         2.51617        -2.40287
LJ          0.579271       -0.707149        -1.92484
LJ          -2.54561         -1.6136        -1.45961
LJ         -0.230157         1.94561         2.39082
LJ          -2.46992       0.0921689        0.118631
LJ           1.06383        -1.35904       -0.289137
LJ           2.22011         2.55976         1.23996
LJ          0.148177       -0.613006        -1.21028
LJ          -1.79657         1.45195        -2.36294
LJ          0.920176       -0.173703         1.37507
LJ              -nan            -nan            -nan
LJ           1.23613        -2.52136         1.41397
LJ           1.97502       -0.109225        -1.10174
LJ        0.00458024        -1.09634       -0.952119
LJ          -2.33102        -1.73353         1.44875
LJ          -2.34189       -0.969717         1.52707
LJ        -0.0321302         1.59121        -1.21088
LJ           1.44645       -0.966809       -0.696685
LJ        -0.0994736        -1.93122      -0.0530823
LJ          -2.34357         1.12566         1.20689
LJ           2.40234        0.594301        0.480745
LJ              -nan            -nan            -nan
LJ              -nan            -nan            -nan
LJ        -0.0349833        0.497344        -2.45358
LJ          0.423724        -1.64308         2.27992
LJ              -nan            -nan            -nan
LJ          -1.13651       -0.166789       -0.298069
LJ          0.571151       -0.374237        0.410079
LJ           1.01463        -1.27619        -1.97689
LJ         0.0903358          -1.874        -1.28821
LJ           1.74819       -0.570121        -1.33503
LJ           1.38841        0.109211       -0.830515
LJ           2.50096       -0.735586      -0.0368354
LJ          -2.55489        0.820005         1.22396
LJ          -1.54962         1.90506        0.488141
LJ         -0.992424        -1.78096        -2.29877
LJ         -0.457598         2.52743         2.31307
LJ         -0.977487        -2.13184         1.31675
LJ           0.55597         1.77674        -2.35508
LJ          0.980962         -1.1593         1.06519
LJ          0.431348        0.717348        -1.80349
LJ          -1.04931       -0.927705       -0.297904
LJ          -0.34798        0.329214         2.15017
LJ          -1.02661        -1.20086       -0.243699
LJ           1.24078       -0.802565       -0.980031
LJ         -0.680595      -0.0524567       -0.528387
LJ          -1.94428        0.894401         0.94417
LJ         -0.184395       -0.560824        0.743388
LJ              -nan            -nan            -nan
LJ          0.762714        -1.00898        -1.03956
LJ          -1.20727        0.988424        -1.76989
LJ          0.519657        -1.83503       -0.396094
LJ          -1.02372         1.02016         1.84307
LJ          -0.75346         -2.2209        -1.40093
LJ           2.21417        -1.94262        0.774842
LJ          -1.00366       -0.781683        -0.51025
LJ              -nan            -nan            -nan
LJ          0.119993         1.33453        0.421337
LJ         -0.705326        0.682657        -2.43193
LJ         -0.319676        0.706351        -1.09941
LJ         -0.263659       -0.296923         1.95563
LJ           2.08325         2.36673       -0.595424
LJ              -nan            -nan            -nan
LJ          -1.44093        -1.64437        -1.28729
LJ          0.675024        -1.77397         2.46599
LJ              -nan            -nan            -nan
