108
#Comment!
LJ          -2.00604        -1.94539         1.34064
LJ           1.09382         1.82519        -1.50644
LJ          -2.10838        0.516826         0.84519
LJ           1.01519       -0.642492         1.78113
LJ         -0.232264        -1.16186         1.87407
LJ         -0.866593       -0.317153        -1.56639
LJ           2.07947         2.14534         1.55955
LJ         -0.495041        -2.37596        0.991701
LJ            -0.932        -1.19764        -2.16509
LJ         -0.503238        0.619887         1.27411
LJ              -nan            -nan            -nan
LJ          -0.96371        -1.46393         0.14568
LJ         -0.647743        -2.24275      -0.0157666
LJ              -nan            -nan            -nan
LJ           1.45924        0.473544          1.9644
LJ              -nan            -nan            -nan
LJ              -nan            -nan            -nan
LJ              -nan            -nan            -nan
LJ          0.156995         -1.5289        0.977481
LJ              -nan            -nan            -nan
LJ          -2.25078        0.376727         2.44154
LJ          0.976262         1.43845       -0.658617
LJ           2.10445       -0.193024        -2.43174
LJ              -nan            -nan            -nan
LJ           1.47755         -1.0645       -0.413854
LJ         -0.988304        -1.51812       -0.912916
LJ          -0.56481         1.81927         2.11361
LJ          0.613286         -1.2583        0.127493
LJ           1.38658       -0.711277        -0.97812
LJ           1.96363         -2.2144       -0.678537
LJ              -nan            -nan            -nan
LJ          -2.16325          2.1978         2.38789
LJ              -nan            -nan            -nan
LJ           2.24926         2.11309        -1.50658
LJ              -nan            -nan            -nan
LJ            2.4584        0.400735        -2.11397
LJ          -1.66049        -2.00072        -1.61851
LJ          -0.17743       -0.311441        0.112309
LJ          0.512454      -0.0585638        -1.67292
LJ           2.05676        -1.66372         1.04888
LJ           2.05307        0.759202        0.734271
LJ          -0.98333        -1.02166         1.09785
LJ          -1.59542       -0.734721         2.41975
LJ           1.71838        -0.39717          0.4907
LJ          0.924298        0.315426       -0.901747
LJ         -0.253164        0.412442          1.0281
LJ          -2.16997        -1.59541        0.707247
LJ         -0.522742        -1.52053         1.03267
LJ         -0.714735         1.39923        -1.96578
LJ         0.0927232         0.53968         0.69798
LJ          -1.23625        0.156351        -1.30855
LJ          0.864767         1.37626         2.54292
LJ              -nan            -nan            -nan
LJ          -0.69928        -2.50238         -2.0485
LJ           2.08175       0.0821359         1.18217
LJ           2.23123       -0.284289        -2.15821
LJ         -0.388855        -2.47592        -1.90402
LJ          0.488478        -1.27522         2.20239
LJ          0.912496        -1.87818        0.576006
LJ          0.662263       -0.585914        0.624371
LJ           1.12892        -1.29433          1.8846
LJ         -0.959746        -1.36628        0.856339
LJ          -1.30035       -0.344374         2.31917
LJ              -nan            -nan            -nan
LJ              -nan            -nan            -nan
LJ         -0.768846         2.13844        -1.71336
LJ           1.61161       -0.254502         1.68869
LJ              -nan            -nan            -nan
LJ          0.960893         1.77024        -1.08777
LJ           2.29955         1.85746         1.84192
LJ          0.354836         2.40837         2.54963
LJ          -2.43053         1.43903        -1.72651
LJ          -2.50564        -2.28986       -0.827531
LJ          -1.56828         1.29212       0.0165044
LJ          0.149974        -1.85228        0.320012
LJ          -1.39956        0.949813         2.23204
LJ            2.3614         1.99845       0.0333615
LJ           1.06948         2.55263       -0.852379
LJ          0.240595        -2.09404       -0.146087
LJ           1.62477        -2.20228        0.706523
LJ           1.17602         1.81962         1.92262
LJ         0.0605467        -1.02757         0.76534
LJ           1.48662         1.46097       -0.552497
LJ          0.018482       -0.170294       -0.786593
LJ           1.00702       0.0538362       -0.570832
LJ         -0.770191         2.19325         2.10363
LJ          -0.82962         1.11614         2.14277
LJ          -2.47196        -1.14553         2.17192
LJ          0.938696       -0.325728        0.715646
LJ          0.910608         1.72093        -1.44215
LJ              -nan            -nan            -nan
LJ           1.32727         1.67971        -1.87707
LJ          -1.08673          2.2378         1.50105
LJ         -0.748891         1.59771        -0.64114
LJ           1.99825      -0.0904339        0.363314
LJ         -0.131523          1.8118          1.9816
LJ         -0.540617        -2.28868        0.269127
LJ           2.20338        0.290113        -0.87291
LJ              -nan            -nan            -nan
LJ         -0.994851        0.568804         2.46217
LJ        -0.0560379        0.470864        -1.42254
LJ          0.649326         2.22799         2.15891
LJ         -0.155634        0.570854        0.372919
LJ          -2.24121         1.92565         1.22521
LJ              -nan            -nan            -nan
LJ         -0.371863         1.56739        0.182253
LJ           1.02381       -0.433779        -2.44314
LJ              -nan            -nan            -nan
