108
#Comment!
LJ           -1.2473         2.30493        0.946682
LJ          -0.68041       0.0589241        -1.24871
LJ           1.27866       -0.173566         1.05968
LJ           1.98596       -0.692096         1.61736
LJ          -1.04303         1.69804       -0.859766
LJ          -1.22618         2.12962        -1.20538
LJ          -1.09453        0.590133      -0.0766034
LJ           1.12681         0.91581        0.264365
LJ         0.0761757          -1.453        -2.14754
LJ         -0.501932       -0.226995         2.04533
LJ              -nan            -nan            -nan
LJ          0.902619        -2.36167        -1.90867
LJ         -0.118991        -1.36014       0.0665362
LJ              -nan            -nan            -nan
LJ          -2.13078        -1.03533         1.51231
LJ              -nan            -nan            -nan
LJ              -nan            -nan            -nan
LJ              -nan            -nan            -nan
LJ           1.86753        -2.36113       -0.653431
LJ              -nan            -nan            -nan
LJ          0.428854     0.000681242          1.6789
LJ          -2.27137         1.51075        -2.33999
LJ         -0.326153        0.824333        0.577527
LJ              -nan            -nan            -nan
LJ          -0.89571       -0.834927        0.743044
LJ           2.04344       -0.376058        -2.50266
LJ          -1.49794        -0.19947         2.28793
LJ           1.37219        -1.69379        -1.75809
LJ           2.10237        -2.42206         2.21491
LJ           2.38454       -0.465006         1.96735
LJ              -nan            -nan            -nan
LJ        -0.0679514         1.51316         1.40006
LJ              -nan            -nan            -nan
LJ          0.203045        -1.18405         2.53938
LJ              -nan            -nan            -nan
LJ        -0.0235128         1.58201        -2.38453
LJ           1.64798       0.0196433        -2.05656
LJ            1.4086        -2.24678         -1.5602
LJ          -2.54041        0.609755          1.6995
LJ         -0.567259        0.295292       -0.709484
LJ           1.07039       -0.385951         -2.4303
LJ          0.237973        -0.51988         1.08721
LJ           1.22061        -2.00484        -1.91293
LJ         -0.766411        -2.52395        -2.01742
LJ          -2.55638        -2.27481        0.525863
LJ          -1.16562        -0.61913         2.43342
LJ         -0.230792        -2.22865       -0.400037
LJ          -1.68042        0.716815        0.548486
LJ         -0.179745       -0.274122        -1.76478
LJ          0.638289         1.64821        -1.72204
LJ         -0.663212        -2.43557         0.50983
LJ          0.878449       0.0188819        -2.19618
LJ              -nan            -nan            -nan
LJ          0.624464        -2.05408        -2.25211
LJ           1.93849        -1.51071        -1.25826
LJ         0.0593909        -1.87971        -0.43395
LJ           1.04024         2.33784        -2.52172
LJ         -0.141131       -0.521482        0.901788
LJ         -0.986135        -1.59295         2.56391
LJ          -2.45303        -1.77561       -0.905981
LJ           1.40721        0.649754       0.0146617
LJ        -0.0387196         0.83112       -0.526431
LJ          -1.12748         1.74985         2.28605
LJ              -nan            -nan            -nan
LJ              -nan            -nan            -nan
LJ          -2.51811         1.25208         1.85749
LJ           0.35928        0.526533         2.28579
LJ              -nan            -nan            -nan
LJ          -1.24176        -1.44538         1.83982
LJ          -1.61974        0.226034        -1.44622
LJ           1.20801        -1.30504         2.49982
LJ         -0.995642        0.781158        -1.54803
LJ          -2.06692         1.61203        -1.23624
LJ           -2.4661        -2.14032       -0.444193
LJ           2.27708        0.280579        -1.02278
LJ          0.681444         0.93361         2.25259
LJ          0.866707         0.26396        -1.66457
LJ          -0.68867        0.960931         1.95539
LJ          -1.08993         1.99562         1.92147
LJ          -1.30763         2.41194         1.06551
LJ          0.984989       -0.389587       -0.491445
LJ          -1.95941        0.772401         1.60488
LJ          0.899725        0.395434        -1.83325
LJ          -0.63009         1.13585        -1.11666
LJ           1.58899         2.22867        0.820146
LJ          -1.83727        0.420483        -1.11703
LJ          -2.47755         1.27863         1.87125
LJ          -0.60582       -0.895495         -1.9852
LJ          0.411118        -1.98578       -0.206798
LJ           2.11414        -2.14978        -1.78828
LJ              -nan            -nan            -nan
LJ         -0.902981        0.304756       -0.598142
LJ         -0.262445        0.908671         1.73842
LJ          0.144406         1.49314          2.3426
LJ          -0.51081        0.618804         1.50648
LJ          -1.12727        -2.29962        -1.98316
LJ           1.48454         1.04004        -1.14887
LJ          0.413979        -1.92714       -0.881709
LJ              -nan            -nan            -nan
LJ           2.53409        0.528519        -2.19359
LJ          -2.22728       -0.383648        0.222013
LJ          0.655684        -2.39422         -2.3785
LJ          0.205255         1.60063      -0.0353519
LJ          -1.29775         1.22949       -0.303337
LJ              -nan            -nan            -nan
LJ          -1.13945        -1.03141         -1.2663
LJ           2.44134        0.192946        0.576098
LJ              -nan            -nan            -nan
