108
#Comment!
LJ          -1.84337        0.758915         1.69421
LJ          -1.64862        0.276993         2.00094
LJ          -2.27649        -0.30414        -0.83786
LJ          -1.48843         1.38658        -2.37358
LJ         -0.648113        -1.33273         2.49505
LJ         -0.187476      0.00651844        0.296737
LJ           2.22859       0.0134663        -1.47403
LJ         -0.682126        -2.29412         1.88238
LJ           1.03467        -1.11142        -2.31633
LJ          0.798518        -2.02366         1.28083
LJ              -nan            -nan            -nan
LJ           1.03531         2.28576        -2.05335
LJ          -2.29874        -1.88487       -0.604827
LJ              -nan            -nan            -nan
LJ           -2.1575       -0.963023        0.634158
LJ              -nan            -nan            -nan
LJ              -nan            -nan            -nan
LJ              -nan            -nan            -nan
LJ            2.0749          2.0894         1.64374
LJ              -nan            -nan            -nan
LJ          -1.62478        0.797389         0.96195
LJ          -1.33926       -0.616381        -2.24496
LJ          0.260841        -2.50646         2.24383
LJ           0.21914       -0.405246        -1.68209
LJ          0.368345       -0.125985        -1.01221
LJ          -1.41717        -2.35874        0.272995
LJ         -0.547314         1.29632        -2.06579
LJ          -1.90069        -1.82824       -0.690163
LJ         -0.318115         1.26472        -1.60569
LJ          0.889612        -1.32446          2.2352
LJ              -nan            -nan            -nan
LJ          0.983427       -0.097068          2.2828
LJ              -nan            -nan            -nan
LJ          0.974255         1.41155         1.53517
LJ              -nan            -nan            -nan
LJ          -2.07218       -0.570269         1.28731
LJ           -1.4051         2.44389         2.32318
LJ          0.841979         1.37895        -1.92987
LJ            2.3758        -1.20489      -0.0168825
LJ         -0.869895        0.894433        -1.98597
LJ           1.92191         2.18005        0.108328
LJ          0.274356       -0.820425       0.0188995
LJ          -2.06734         1.51573       -0.756862
LJ            1.5042          -2.379       -0.478289
LJ          -1.54136         2.24981        -1.12408
LJ            2.2953        0.393392         1.40997
LJ        -0.0622053        -2.31121        0.206845
LJ          -2.06874        0.026391        -2.45629
LJ          -2.12252        0.641565       -0.707458
LJ          -1.95564        0.967651          1.2639
LJ          -1.41653        0.556139       -0.846514
LJ          -1.55894       -0.696517        -1.68639
LJ              -nan            -nan            -nan
LJ           2.24697          2.5357         0.47733
LJ           -2.0731        -2.06887       -0.760833
LJ           1.15057         0.19311         1.90801
LJ         -0.258659        0.769987         0.60747
LJ           2.12825         -1.0356         -1.1274
LJ            1.4697         1.72596          2.1143
LJ           1.64093         2.06579       -0.964557
LJ           1.40668       -0.375147         2.18333
LJ          0.606074        -1.51397       -0.884631
LJ         0.0163233        -2.13573        0.225672
LJ         -0.174473       -0.756902         1.72209
LJ              -nan            -nan            -nan
LJ          -1.83284       -0.774935        -1.12074
LJ          0.496885         1.88834         2.16309
LJ              -nan            -nan            -nan
LJ          0.357065       -0.848833        -1.70238
LJ           2.30283        -1.50631        0.978031
LJ          -2.00059         -2.5208         -1.6868
LJ            1.9029         1.02878         2.04587
LJ          -2.05767       -0.630204       -0.601952
LJ          0.950576       -0.021833       -0.713096
LJ         -0.977617        -2.13114        0.652244
LJ           1.05263        -1.24575       -0.195189
LJ          -2.22534        -1.65795          2.4569
LJ           0.22021         -0.1849     -0.00186187
LJ           1.25069         1.06636        -1.52993
LJ            0.5183        0.988209        -1.42443
LJ          0.929748        0.231074          1.6156
LJ           1.22989         2.37404        -1.73023
LJ          -1.98001         1.23101        0.572679
LJ           2.10578         -1.0787         1.30784
LJ          0.798922         2.01752          2.4735
LJ           2.06903       -0.768356        -0.88566
LJ           2.13605        -1.12912       -0.728131
LJ          -1.00623         1.54933         1.94799
LJ          0.288074        0.435379         1.48079
LJ         -0.556354        -0.68034        0.367279
LJ              -nan            -nan            -nan
LJ          -2.32342       -0.696282         2.23901
LJ           1.86385       -0.146486        0.353665
LJ           2.25945        -2.33898       -0.984949
LJ          -2.55047         0.10934        0.440642
LJ          -1.75502         2.25821        -1.25686
LJ          0.571316        -1.55711         2.24621
LJ           1.21476        -1.83509        0.599605
LJ              -nan            -nan            -nan
LJ            1.0205         -2.3706         1.50935
LJ         -0.201037        0.284171        0.218864
LJ          0.608363         2.08943         2.32813
LJ          -2.04185          1.3449         1.01555
LJ           1.14783        -2.37138        -1.05218
LJ              -nan            -nan            -nan
LJ         -0.790171       -0.651162         2.01511
LJ           0.42606        -1.76504        -1.29583
LJ              -nan            -nan            -nan
