108
#Comment!
LJ          -1.73859        -2.38632        -2.55543
LJ         -0.128938         1.11158          1.1247
LJ          0.719535        -1.82218         2.38293
LJ          -1.79368       -0.054975        -1.15947
LJ           1.54911         2.45583        0.446947
LJ           2.08661        0.442139         1.95035
LJ          -1.10536         1.05789       -0.373565
LJ        -0.0296064        -1.23094         1.02442
LJ          -2.44879        0.761524        -1.39281
LJ          -2.34024        0.350452       -0.469472
LJ              -nan            -nan            -nan
LJ          -1.56527       -0.949386         1.25256
LJ          -2.35719        -1.69206        0.757891
LJ              -nan            -nan            -nan
LJ         -0.832987        -1.26392          -1.661
LJ              -nan            -nan            -nan
LJ              -nan            -nan            -nan
LJ              -nan            -nan            -nan
LJ            2.1068       -0.474488        -1.70551
LJ              -nan            -nan            -nan
LJ          -1.82325         1.70428         -2.0839
LJ           1.98062        0.325724        -2.40013
LJ          0.636762       -0.957817        -1.41453
LJ              -nan            -nan            -nan
LJ          0.704852         1.96575        -2.02311
LJ         -0.515529        -1.69155        -2.33881
LJ          -1.15002       -0.164769        -1.55227
LJ           1.47898        0.074367        0.494781
LJ           1.05763        0.181051        -0.47264
LJ          -1.10089        -1.65369        0.478882
LJ              -nan            -nan            -nan
LJ         -0.351328       -0.152827      -0.0992486
LJ              -nan            -nan            -nan
LJ          -1.03066        -2.29267       -0.128172
LJ              -nan            -nan            -nan
LJ          -2.04555       0.0994536        -1.93615
LJ         -0.275685         1.30009        -2.03348
LJ          -1.47993        -1.63484        -0.12488
LJ           -1.4218        -1.26217       -0.472304
LJ          -1.32713        0.845541        -1.33482
LJ         0.0196491         1.37244         1.49015
LJ         -0.509243        -1.06671          2.2702
LJ           1.37964         2.21236         1.10139
LJ          -2.49195        -1.25789        -1.24739
LJ          -1.94532          1.7565         2.22159
LJ           1.70488     -0.00989351         2.29414
LJ          0.425797         2.38403       -0.473483
LJ          -1.39687          1.9227        -1.34647
LJ           1.50251       -0.248413        -1.23437
LJ           1.25397       -0.606075        0.774067
LJ           1.03699        -1.71922       -0.360412
LJ           -2.4307       -0.113896         -1.5609
LJ              -nan            -nan            -nan
LJ            1.3003       0.0156983        -1.03555
LJ        -0.0779231        -1.30227        -1.51672
LJ          -1.99381          1.1533        0.757568
LJ           1.72739        0.701696         2.24443
LJ         -0.863099        0.820604       -0.526863
LJ          -1.96162        0.116561          1.1049
LJ          -1.43468         2.40446        -2.34975
LJ          -1.05323        -2.38451        0.814795
LJ         -0.563196        -1.11015         1.27913
LJ          -2.30833        0.435934        0.140954
LJ              -nan            -nan            -nan
LJ              -nan            -nan            -nan
LJ          0.784318        0.149603       -0.780789
LJ         -0.869116         1.08955       -0.120443
LJ              -nan            -nan            -nan
LJ         -0.712363       0.0631884        0.611792
LJ          -1.86461        -2.16749         2.13259
LJ          0.455552         1.12042          0.5297
LJ           2.27389        -2.06432        0.254787
LJ          -0.65132         2.02121         1.34952
LJ          -1.91753         1.66195        0.872308
LJ           2.52494         2.06672        -1.67278
LJ            1.9968       -0.698032         2.14221
LJ         -0.238059       0.0667893         2.11107
LJ           1.53239        -1.93375       -0.422553
LJ             -2.44        -1.80303        -1.78922
LJ         0.0111773        -1.58911       -0.140297
LJ          -2.00561        -2.21656        -2.15909
LJ          -2.36964         1.51363         -1.8333
LJ          -1.24081         1.47694          2.5341
LJ          0.468129        -1.04686       -0.543662
LJ           1.82506       -0.613058        0.842429
LJ         -0.864097        -1.32557        -1.51022
LJ          -2.51793       -0.781393         1.12501
LJ         0.0776662         1.69193      -0.0914349
LJ            1.7082         1.93048         1.13458
LJ           1.51689          1.5544         1.35214
LJ              -nan            -nan            -nan
LJ          0.823972       -0.938095         2.39637
LJ         -0.911949        0.595888         2.22389
LJ          -2.23913       -0.548121       -0.208429
LJ          0.525779        -1.78572       -0.618052
LJ          -2.36596        0.491045       -0.341696
LJ           1.32121      -0.0153199         1.47304
LJ           2.27199        0.271074       0.0390897
LJ              -nan            -nan            -nan
LJ           -1.1459        -1.04111        -2.20475
LJ          0.852631        0.203576         2.36169
LJ          -1.48298         2.08376        0.125259
LJ           1.60689           1.148         -1.7911
LJ           2.29989         0.23922       -0.530274
LJ              -nan            -nan            -nan
LJ         -0.336943       -0.632159        -1.44909
LJ           2.52975        0.501461         2.25943
LJ              -nan            -nan            -nan
