108
#Comment!
LJ          -1.94697         1.53283       -0.953465
LJ           1.97845       -0.875013         -1.1784
LJ           0.70517       -0.937442         -2.2463
LJ           1.21209          1.6881        -1.88978
LJ         -0.841699          2.4588         2.04145
LJ         -0.339583         2.34891         -1.5729
LJ           1.51353       -0.556076       0.0884263
LJ          0.328318        -1.52584        0.134165
LJ          -2.19183         -1.8347        -2.35685
LJ          -1.43369         2.04208         2.12774
LJ              -nan            -nan            -nan
LJ          -2.36883        0.682381        -2.19246
LJ         -0.622683       -0.602734        0.613858
LJ              -nan            -nan            -nan
LJ          -2.24343        -2.33687         1.98191
LJ              -nan            -nan            -nan
LJ              -nan            -nan            -nan
LJ              -nan            -nan            -nan
LJ          0.366554        0.777959        -2.27653
LJ              -nan            -nan            -nan
LJ          -1.62797        -1.55126         0.42208
LJ           2.54313        -1.15645        -2.19597
LJ         0.0317566       -0.488297       -0.717157
LJ              -nan            -nan            -nan
LJ          -2.35365         1.38875        -2.21741
LJ          -1.61848       -0.643591        -1.01557
LJ            1.1552         2.07741        -0.25681
LJ           1.93809        0.287377        0.710046
LJ         -0.453198         1.42325         1.07092
LJ          -1.04206        -1.80372       0.0294401
LJ              -nan            -nan            -nan
LJ          0.800918         2.05118         2.23693
LJ              -nan            -nan            -nan
LJ           2.53685        -2.45409        -2.30386
LJ              -nan            -nan            -nan
LJ          -1.42544          1.9991        -2.02288
LJ          -1.05672        -2.55176        -1.11328
LJ          -2.20438        -1.66636        0.957479
LJ        -0.0559913         1.82375         1.61134
LJ           2.36283        0.666646        -2.16516
LJ        -0.0453632        -1.92376       -0.376346
LJ           1.65912        -1.34485        -1.18108
LJ         -0.525635         2.05109        -2.05389
LJ           1.55631         2.17914         0.35771
LJ          -1.17405         1.24564         1.99262
LJ         -0.801853        -2.49347         1.36875
LJ          0.141581        -2.49794        0.302675
LJ         -0.422795         1.93139       -0.019206
LJ           2.35375        0.557829        -0.70622
LJ           1.07327       -0.469152         1.09219
LJ         -0.185339        -1.42893       -0.442134
LJ         -0.582914         1.90288         1.90893
LJ              -nan            -nan            -nan
LJ         -0.771274        -2.04647         0.91385
LJ            2.3041        0.368105       -0.183495
LJ          -2.30155         2.02226       -0.681137
LJ          0.845448       -0.517023        -1.19105
LJ          -1.13835      -0.0596966        -1.40835
LJ           -2.1473        -1.51471        -1.42804
LJ          0.395338       -0.966329         2.43441
LJ           1.67249        -1.95241        -2.29588
LJ           1.49235          1.9057        0.178667
LJ         -0.999922       -0.766133         1.28165
LJ              -nan            -nan            -nan
LJ              -nan            -nan            -nan
LJ           2.36433         1.78449        -2.39604
LJ          0.899807         1.16924        0.335509
LJ              -nan            -nan            -nan
LJ           1.23226        -2.05111        0.761403
LJ         -0.601109       -0.401823       -0.372742
LJ          -1.70659        -1.10716         2.39664
LJ          -2.33912         -1.7093         2.08539
LJ          -1.24436         1.99907         2.10297
LJ          0.933703        0.596546         2.15253
LJ          -1.02336        -1.68275      -0.0418664
LJ          -1.85824         1.89422        -1.40525
LJ           1.61157         -1.3284        -1.73279
LJ           0.58058        0.410315        -1.27938
LJ           1.34533       -0.840355        -2.48294
LJ          -1.33207        -0.71282         1.09658
LJ          -1.70309       0.0454715       -0.757379
LJ        -0.0918599       -0.640636         1.08707
LJ           1.22724        0.467024        -1.47894
LJ        -0.0950495          1.0856         1.67033
LJ          0.217236       -0.958645       -0.287373
LJ           1.46669        0.253309        -2.33759
LJ          -1.51511        0.420111         2.15771
LJ          -2.14696         2.19085        0.122733
LJ          0.693174         1.52024      -0.0647048
LJ          -2.11037       -0.826677         1.85004
LJ              -nan            -nan            -nan
LJ          0.626524        -0.69254          1.1761
LJ           2.33354        0.842236        0.954688
LJ         -0.151975         -1.5654      -0.0478925
LJ          -2.27789        -2.26244         1.77688
LJ          0.609466       -0.696255       -0.102454
LJ            1.7389        0.622862        -1.69425
LJ          0.536364        0.337406        -1.88225
LJ              -nan            -nan            -nan
LJ          -1.07936        -2.51649        -1.41877
LJ          -2.08247        -1.30029       -0.996851
LJ           2.35764         2.19436         1.85546
LJ         -0.837027         2.05877        -2.39712
LJ         -0.537808       -0.795747        0.782543
LJ              -nan            -nan            -nan
LJ            -1.022      -0.0647451        0.261309
LJ          -0.39244         1.54167       -0.577577
LJ              -nan            -nan            -nan
