108
#Comment!
LJ           1.59613       -0.375854        -1.28803
LJ          -1.30426         2.54744           2.244
LJ          -1.15125        0.599856         2.16548
LJ          -2.01305        -1.94836        -2.00476
LJ         0.0349166        -2.31216       -0.289363
LJ           1.82267        -0.73521        -1.69916
LJ          -2.38212        -2.11322        -1.17078
LJ          0.110732        -2.55161          1.7447
LJ          -1.32915         2.16639          2.1339
LJ            1.2888        0.359414         0.90195
LJ              -nan            -nan            -nan
LJ         0.0259895        -1.71175        -1.31531
LJ          -2.28066         -1.5545        0.660852
LJ              -nan            -nan            -nan
LJ           2.27024        0.645664        0.321025
LJ              -nan            -nan            -nan
LJ              -nan            -nan            -nan
LJ              -nan            -nan            -nan
LJ          0.428422        -1.73164        0.558691
LJ              -nan            -nan            -nan
LJ          0.574587        -1.77527        0.554293
LJ          -2.34727        0.500064       -0.105418
LJ          -1.58739       -0.499458        0.251662
LJ              -nan            -nan            -nan
LJ          0.157694         -1.1766         1.45355
LJ           2.14756        0.115422       -0.822162
LJ         -0.608178        -0.83756        -1.15449
LJ            2.0387        -1.55019        -2.09553
LJ           1.15937         2.01868         1.02051
LJ           1.03551         1.85564        0.354971
LJ              -nan            -nan            -nan
LJ           2.04664         1.59952        -1.40995
LJ              -nan            -nan            -nan
LJ          -1.66764         1.33045        -0.84912
LJ              -nan            -nan            -nan
LJ           1.84884       -0.716509         2.41363
LJ           1.31103        -1.51844        0.991068
LJ           2.02763        -1.28671        -2.52455
LJ          -1.72451         -1.1938       -0.623201
LJ          0.416271        0.432298        -2.34055
LJ          -1.65982         2.12424         2.17148
LJ           1.12928          -2.223       0.0659913
LJ          -1.77854        -1.08365        0.511255
LJ          0.690451         -1.5327        -1.49034
LJ           2.12456         1.20196         2.20788
LJ          -1.02535        0.204738       -0.858235
LJ          -1.03485         1.85218        -1.53989
LJ           1.68049        0.832758        0.980614
LJ           0.98984       -0.251611          2.4741
LJ           1.09649         1.33432         -1.7824
LJ           1.67271         1.97824         2.07993
LJ           -1.0816        -2.12523        -2.11473
LJ              -nan            -nan            -nan
LJ          0.053864         2.20053        0.633719
LJ         0.0692025       -0.129422        0.996324
LJ           1.94072          1.3323         1.71664
LJ           2.17795        -1.55249       -0.723141
LJ         -0.177078       -0.115189        0.405917
LJ         -0.325425          2.3941         1.50036
LJ         -0.622514         1.27235         1.36934
LJ           1.46284       -0.191663       -0.659543
LJ           1.42497        -1.32259        -2.22013
LJ          -2.24622         1.53327      -0.0571194
LJ              -nan            -nan            -nan
LJ              -nan            -nan            -nan
LJ           2.54405        -1.97303         1.15192
LJ           1.04727        0.710559       -0.311168
LJ              -nan            -nan            -nan
LJ           2.55477         2.39677        -2.33492
LJ          0.355789         1.62905        -2.20029
LJ          -1.54291        0.624138        -0.12955
LJ          -1.60713         2.04924         -1.1092
LJ           0.23699        0.301768        0.545793
LJ         -0.409623        -1.49428       -0.266425
LJ           0.24275         1.94108        0.672356
LJ         0.0809512         -2.2285          1.7001
LJ         -0.992565         1.31843        0.497393
LJ           0.79851           -1.78         2.07383
LJ          -1.57291        -2.08518        -1.50468
LJ           1.73599       0.0203894         0.69993
LJ          0.246927        -1.57246         1.36377
LJ           1.78764        0.973135        -2.09008
LJ          0.653498         2.15531        -1.33641
LJ         0.0268789         1.25553       -0.117663
LJ           0.90028       -0.930337        0.979629
LJ          -2.15007       -0.730718       -0.023648
LJ          -2.47681         1.17319        -1.49033
LJ           1.35943        -2.37548          2.0212
LJ           1.32366        -1.97692        -1.50192
LJ          -1.37753        0.839582         2.48608
LJ              -nan            -nan            -nan
LJ           -2.5263         1.38035        -1.80279
LJ          -2.32186        -1.43524         1.76532
LJ          -2.23247          1.0997         1.84519
LJ           1.36062        -1.24626        -1.27013
LJ           1.78294        -2.40625        -1.75613
LJ           2.07367        -1.42831        -1.92918
LJ          -1.69342       -0.262134         1.30126
LJ              -nan            -nan            -nan
LJ          0.308548        -0.90874         0.73063
LJ          0.807769      -0.0316339         2.28484
LJ          -1.86218        -2.52555         2.39234
LJ         0.0881994       -0.784338        0.407579
LJ          0.953858         1.57721         1.34092
LJ              -nan            -nan            -nan
LJ            1.5708         1.55247       -0.235023
LJ          0.124126         1.18596       -0.492668
LJ              -nan            -nan            -nan
