108
#Comment!
LJ        -0.0910219         2.03991        -1.71638
LJ           2.20472         2.34811         1.53578
LJ         -0.274715        -1.41022         1.33337
LJ          -1.02384          2.4906        0.397009
LJ           -1.8839         2.06418         2.21703
LJ           1.28412         2.08068       -0.513437
LJ          -1.20187        -2.18132        -1.66091
LJ           1.36637        -2.01184        -1.32244
LJ          -1.12793        -1.55106       -0.132483
LJ           1.64858        -1.32911        -2.18162
LJ              -nan            -nan            -nan
LJ           1.94346        -2.37984         -0.1856
LJ          0.833418        -1.29859         2.29129
LJ          -1.06622        -1.37959        0.572315
LJ          0.369708         0.97287       0.0490212
LJ         0.0291976       -0.590116        -1.45096
LJ          -1.26283       -0.877639        -2.31088
LJ             1.761       -0.984494         1.36126
LJ          0.932553       -0.464953        0.213808
LJ           0.11423        0.170549         -1.4041
LJ         -0.979925         1.39421         2.12428
LJ           1.94538         1.27027         2.53338
LJ          -1.33426         0.81357       -0.589256
LJ          0.939754        -1.12914        -2.17364
LJ          -0.57994         2.47946       -0.886331
LJ          0.584309         2.27241        -1.43189
LJ          0.215128       -0.845025        -1.03749
LJ          -1.92033       -0.394455         0.76667
LJ         -0.772465       -0.163423         -1.5971
LJ         0.0125012        -1.47869         1.15644
LJ           2.11573         1.02239        -1.62884
LJ          -1.68115       -0.351564        -2.24586
LJ              -nan            -nan            -nan
LJ          -1.30859        0.535626        -2.45166
LJ           1.08076         -2.2512         1.89755
LJ           1.58045        -1.97837         1.73019
LJ          -2.16745        0.777812         1.83173
LJ         -0.792767         1.14405       -0.913099
LJ          0.591444       -0.278592        -1.01214
LJ          -2.16936      -0.0395764        -1.76266
LJ         -0.923086       0.0992159        0.571993
LJ          -1.06308       -0.431231        0.820714
LJ           2.52037        -2.04506         1.73346
LJ          -1.69891         1.56357         1.35723
LJ           2.48601          1.5567        -1.48036
LJ          0.826878         -1.7053        -2.05239
LJ         -0.562969          2.1374       0.0114707
LJ          0.632174         1.65388         2.20375
LJ         -0.848622         1.45258       -0.647514
LJ          -1.22547         2.17756        -1.84503
LJ          -2.24592         1.41026         1.10066
LJ           2.42679         2.02158         1.31475
LJ           1.23321        0.179946        -1.55821
LJ           1.52585        -1.48098        -1.67311
LJ          -2.46019      -0.0916092         2.33614
LJ           1.58025        -1.28107       -0.660074
LJ          -2.09011         2.15659        -1.43353
LJ          0.660345       -0.332978        0.118601
LJ          -1.07753        -2.29579         1.84238
LJ           1.41464         1.93061       -0.409854
LJ          -1.00919       -0.383585        0.955038
LJ           1.55229         2.52443       -0.497127
LJ          -1.69644        -0.92632       -0.428927
LJ          -1.80447         -1.9806        -2.01831
LJ           -2.4231         1.78136         2.54365
LJ           1.66724         2.08668       -0.323024
LJ          -2.54111         1.24875        -1.48579
LJ           2.33756      -0.0283246        -2.47798
LJ           1.97168        -1.11009         1.28681
LJ           2.11417        -0.17526        -2.42282
LJ          -0.44595       -0.566884         1.30346
LJ          -1.83988      -0.0448282         2.48258
LJ           0.79698         1.45311        0.561856
LJ         -0.302931         2.19046        -1.76455
LJ          0.139021       0.0322908          1.5299
LJ           2.40742         1.74947        -2.29099
LJ          -2.08215        0.674277         2.43379
LJ          0.487406         1.81009        -0.21975
LJ           1.81324        -1.41112        0.213753
LJ         -0.337411        -0.90162        -1.13524
LJ          -1.20343        0.959786       -0.644238
LJ          0.354828        -2.06591         1.78162
LJ         -0.553648       -0.977529        0.611827
LJ           2.21334       -0.729489        -1.61441
LJ           2.12477        -2.25756         1.83159
LJ           -1.6265        -1.30633        0.576954
LJ          0.289263          1.9896        -1.51137
LJ         -0.859815        0.662922        0.358827
LJ           2.39672         1.46937        -2.27316
LJ            1.3834       -0.375623        -2.54799
LJ            -0.325       -0.505295         1.92787
LJ          -1.08069        -1.29826        -1.10232
LJ          0.546253         1.53799        -2.16101
LJ            2.1675        -1.15873       -0.579764
LJ          0.730027          1.1079        -2.53824
LJ         -0.845549         1.46414         2.42137
LJ           2.47536         1.56144        0.339329
LJ           1.58905        -1.19103         1.60305
LJ           0.83771       -0.860943        0.184743
LJ         -0.549949         1.68657         1.03414
LJ          -1.86918        0.888688         1.92186
LJ           1.62846       -0.616068        -2.40244
LJ          0.908407       -0.511226       -0.994073
LJ          -2.54076        -1.45868         -1.9416
LJ          0.910743         2.32823        -1.07501
LJ         -0.327542        -1.20259        -2.42986
LJ           -0.8042       -0.125251         1.68825
LJ           2.41397          2.5584         2.23434
