108
#Comment!
LJ           1.61028        0.860813       -0.968281
LJ          0.813907          1.3229       -0.532738
LJ          -2.00476        -1.64136          1.0619
LJ         0.0571082       -0.804555         2.53078
LJ           -1.0563        0.671525         -2.4388
LJ          0.576956         1.22374       -0.119903
LJ          0.958131       -0.333952         1.92054
LJ         -0.112782        -2.23368         -2.3155
LJ         -0.570869        -2.21596         1.18043
LJ           2.17743        0.259547      -0.0347118
LJ              -nan            -nan            -nan
LJ          -2.17173        -1.32904          2.1034
LJ          -2.04013      -0.0891165         2.51866
LJ           2.36215         2.42566        0.343304
LJ           1.69902        -1.59712        -1.00177
LJ          -1.83364        -1.93798         1.43941
LJ         -0.807364        -1.35083        -2.44977
LJ         0.0673993       -0.591666        0.905399
LJ           2.28144         1.99865       -0.469638
LJ          0.297195          2.4004        -2.15392
LJ         -0.845024        0.895311        -1.49251
LJ          -1.13494         2.42376        0.378054
LJ         -0.693076        -1.54732       -0.676337
LJ           1.46138         1.70634          1.7635
LJ         -0.283499        -2.19304        0.260677
LJ           2.53893         1.41629        0.791301
LJ           0.92762         1.46627        -2.36361
LJ         -0.663156        0.601281        -1.35291
LJ           2.23762        -1.01542        0.195234
LJ          0.302689       -0.441937        0.832208
LJ          -2.37267        -1.41897         -1.1384
LJ           0.45777        0.271508         -1.0894
LJ              -nan            -nan            -nan
LJ           1.72031        -1.97849        0.173382
LJ         0.0520847       0.0444044         2.35792
LJ           1.58177        0.189163        -1.01665
LJ          -1.62687        -2.08158        0.635167
LJ           1.21199         1.43172          2.5354
LJ           1.81904         1.84539         1.92634
LJ           2.35467         1.36273         1.15179
LJ         -0.166607        -2.41466         1.77312
LJ          0.425843        0.543421        -1.81073
LJ           1.78957        -2.26816       -0.615179
LJ           2.35387        0.901177         1.66268
LJ          0.976285       -0.449132        -0.35949
LJ         -0.861502         1.07118       -0.902255
LJ         -0.367115         1.05649        -2.43057
LJ          0.580242        0.970939         1.78638
LJ          0.238508      -0.0746552        0.755749
LJ          -2.08189       -0.910573        -2.49473
LJ          0.866647       0.0244878        -2.24443
LJ          -2.40892        0.262986        -2.21965
LJ          0.436717        0.116387         1.13408
LJ           2.12741       -0.387084        -1.26995
LJ          -1.30486         1.59139         1.53294
LJ          0.671708      -0.0406192         -1.1042
LJ        -0.0593802        0.206312       -0.164419
LJ         0.0493458        -2.39742         -1.6882
LJ         -0.661661         1.90158         2.09784
LJ           1.56693         1.68104        -1.76467
LJ           1.56534        0.283836        -1.28339
LJ          -1.60502          2.4951         2.21357
LJ         -0.597317       -0.694607       -0.305052
LJ           1.24673        0.910084      -0.0616651
LJ           -1.5188        -1.65364         1.00502
LJ          0.239499        -1.87704         2.28329
LJ           1.09092        -1.32917        -2.44586
LJ         -0.980962        -2.54762        0.241583
LJ           1.79677         2.17063         1.27508
LJ          -1.22362       -0.964521        -2.35212
LJ          0.728332         1.83145        -0.52984
LJ          0.905955       -0.184161       -0.398684
LJ          0.691296         2.44272        0.230571
LJ           1.63078        -0.34658       -0.694188
LJ         -0.633845        0.825223         2.35423
LJ           2.11003         1.15309        -2.07867
LJ         -0.174539      0.00216883        0.217261
LJ          -2.32371         2.19768         1.20993
LJ          0.162596        -0.56185        -1.08498
LJ           -1.4965         2.30874        -1.20561
LJ          -2.18834        -1.83439        0.967056
LJ          0.742287         1.78058       -0.246086
LJ           1.16039         2.40021         1.93769
LJ          0.981765         1.47261        0.962588
LJ          -1.82919        0.442087       -0.592954
LJ          -1.13291         -1.7557        -1.91806
LJ          -1.26163        -1.01236        -2.17618
LJ            0.6715         1.67697        0.672631
LJ            -1.919       -0.631096        -2.30188
LJ         0.0295615        0.927991         1.08562
LJ           1.65679        -1.10273        -2.13815
LJ          0.930157        0.556724       -0.897228
LJ           2.26076        -1.70087        -1.18596
LJ           2.29336       -0.966997        -1.59781
LJ           -1.6352        -1.54105       -0.124451
LJ           2.30896        -0.96094         0.22367
LJ        -0.0246726        -2.53764        -1.27321
LJ           1.03252        -1.31619       -0.622794
LJ          -1.13129         1.03315         2.32457
LJ          -1.05499       -0.518302       -0.688384
LJ          -1.02043        0.914762        0.475064
LJ           2.12557         1.51099        0.659264
LJ           2.52514        -1.45656         2.14828
LJ          0.217963       -0.462638          1.2522
LJ           1.16088        -1.66906        0.108569
LJ           2.10241       -0.872851       -0.127384
LJ          0.599322        -1.28122         1.86976
LJ           1.20327         2.07906       -0.212458
