108
#Comment!
LJ           1.78638         2.34924        -1.56998
LJ          -2.25503      -0.0765695        -1.73058
LJ            2.3768        -1.17033     -0.00926108
LJ          0.700675       -0.253293       -0.301509
LJ           2.22997         1.16078         1.24927
LJ          -0.33149       -0.476793         2.40757
LJ          0.753137        -1.44313        0.340753
LJ            1.5725       -0.474867           0.821
LJ           1.26836         1.12107          2.0984
LJ        -0.0752685         2.44224         1.19357
LJ              -nan            -nan            -nan
LJ           1.28535        -1.28629         1.12902
LJ           1.68581       -0.274693         2.16873
LJ         -0.838555        -2.01006        0.163138
LJ         -0.395156        0.719916       -0.961762
LJ          -1.84999        0.856141         2.52719
LJ              -nan            -nan            -nan
LJ              -nan            -nan            -nan
LJ          -2.43054       -0.790288       -0.275649
LJ              -nan            -nan            -nan
LJ           1.28391       -0.347051        -1.49299
LJ          0.192921        -1.63952        -2.44017
LJ           1.64434        -1.07006       -0.281594
LJ           1.10911        -1.96767       -0.111181
LJ         -0.857006        -1.57398       -0.955081
LJ          -2.08516       -0.441978        0.661736
LJ          -1.60791       -0.317094        0.307901
LJ           2.37358        -1.90736         1.57342
LJ           2.36183        -1.69823         1.35232
LJ       -0.00637344        -1.62112       0.0528961
LJ          0.859958         2.11598        -2.04342
LJ          0.433443        -1.64337        -1.74465
LJ              -nan            -nan            -nan
LJ           -1.0394         1.12367        -1.68321
LJ              -nan            -nan            -nan
LJ          -1.03981        0.404107        -1.57544
LJ           2.42551       -0.736686        -1.35594
LJ          -2.22451        -1.07123       -0.283336
LJ          -1.70106         -2.2101        -1.60969
LJ         -0.887966        -1.03394        -1.69578
LJ            2.1715       -0.176219        0.791665
LJ           2.41618        -1.60764         2.23269
LJ            1.3449        -1.20625        0.635362
LJ           1.00832         1.61104        -2.46471
LJ         -0.250286        -1.64943         1.01242
LJ          -1.90763         1.43707        -1.76499
LJ           1.00258        -1.63129        -1.71573
LJ           2.38998         1.91165       -0.577708
LJ          -2.38794        -1.64031       -0.721407
LJ           1.53193        -1.94915         2.32567
LJ           2.21651        -2.13699       -0.734823
LJ          -1.45718        0.239276       0.0109219
LJ              -nan            -nan            -nan
LJ          -1.18682        -1.40081        -2.38515
LJ           1.23915        -2.43726         1.39737
LJ         -0.363808         1.46421       0.0286592
LJ           2.47154         -1.0274         1.38311
LJ          -2.53521         1.13374       0.0743931
LJ          -1.62162         2.44912         1.59612
LJ          -1.94604        -2.20105         1.49543
LJ          -2.46852        -1.25827        -1.24823
LJ         -0.319348        -1.79814        -1.26707
LJ            0.4913        0.662866        0.721078
LJ           1.06846          2.5445         2.28348
LJ           2.13097        -1.70076         2.48349
LJ          -1.86814        -0.91463      -0.0811246
LJ         -0.579744        -2.42571         1.26098
LJ              -nan            -nan            -nan
LJ          -1.94723      -0.0725933         -2.4854
LJ          -1.31154          1.5431        -1.64207
LJ          -2.24067         2.30538        -1.56133
LJ         -0.178986        -1.30399       0.0371295
LJ          -2.54566         1.49643         2.37382
LJ           1.42847        -1.28472        -2.39623
LJ          -2.27455        -2.02789        0.522381
LJ           0.57603         1.89137        -1.94843
LJ           1.58817         2.08573         1.36772
LJ           1.51129         1.28798        -2.32888
LJ          0.576752         -1.9601        -1.33995
LJ          -1.27585        -1.98955         1.64293
LJ          -1.45553         1.51775        -1.15972
LJ          -2.37564         1.90732        0.217044
LJ              1.75         2.13615         -1.7551
LJ           1.51139        0.159806         1.38451
LJ           1.64677         1.49102        -2.42002
LJ         0.0342151        0.100428       -0.148596
LJ           1.17635       -0.505547        -2.11181
LJ          0.042161         1.23729        -1.84604
LJ          0.759129       -0.246798        -0.59403
LJ          -1.64994         2.24491         1.51072
LJ              -nan            -nan            -nan
LJ          -1.71223        0.874158         1.09433
LJ          -1.77484        0.235037         -1.4833
LJ           1.17903       -0.843015        0.235263
LJ           1.96552        -1.96929        -1.37945
LJ         -0.288391        -2.08241        -2.50547
LJ           1.45365       0.0437437        0.979432
LJ          0.840545        0.246742       -0.119229
LJ        -0.0775995        0.749109        -1.97258
LJ           1.87976        0.155212          1.2754
LJ          -1.77242        -2.47966         1.76636
LJ            2.5168        0.143903         1.36993
LJ           2.53278        -1.80927       -0.218633
LJ           1.96849         1.73854         0.58936
LJ           1.45291         0.47437        0.745837
LJ          -2.55985       -0.353876        -1.46631
LJ            2.0624       -0.267569        -1.99492
LJ              -nan            -nan            -nan
