108
#Comment!
LJ          -2.04181         1.48103        -1.22905
LJ           2.13862       -0.417504         2.02221
LJ           1.03595       -0.339401        -2.14238
LJ          0.461057         1.46784         2.54918
LJ          0.652967       -0.460672        0.223748
LJ          -2.19516        -1.74688       0.0133543
LJ         -0.153513      -0.0012624         0.23872
LJ           1.56204         1.54848       -0.112456
LJ           2.12637         1.48975        -1.77055
LJ          -1.36463        -2.18591        0.668893
LJ              -nan            -nan            -nan
LJ          0.226295         0.60818         2.37302
LJ          -2.04365         -0.7358        -2.06058
LJ          0.441612         -1.4921        -1.12788
LJ          -1.74813       -0.984192         2.56409
LJ          0.420428        -1.61589       -0.329639
LJ          -1.76494         2.47317        0.438079
LJ           2.26706        0.768653        -2.40915
LJ         -0.790792         1.68331        -1.75755
LJ           2.37236        0.836773        0.918551
LJ          0.241125        0.028045        -2.35584
LJ          0.791548        0.664293         1.86342
LJ          0.720388        0.176847      -0.0431997
LJ           2.42431        -1.99543        -2.45398
LJ           0.12603         1.33742        0.589385
LJ          -1.99474        0.173097        -1.99507
LJ           1.02558        -1.56801       -0.915613
LJ          0.918312       -0.891873       -0.178268
LJ          -1.57195         1.78378         -1.6218
LJ           1.75126        -2.26813          1.0213
LJ           0.12506       -0.767395        -1.09719
LJ           1.49652        -1.28213        0.641261
LJ              -nan            -nan            -nan
LJ          0.353915        -1.49061        -1.05139
LJ            2.5488        -2.45898         2.56259
LJ          -2.44392        0.249715        0.383273
LJ          0.626611       -0.291018         2.44363
LJ          0.813694         0.33593         2.29305
LJ          0.193132         1.99766         -1.9128
LJ          -0.60016         -1.0539         1.56058
LJ          -1.64593        -1.41376         1.93699
LJ           1.82687       -0.385358         2.38094
LJ           -2.5118        0.345029        0.272929
LJ         -0.980352        -1.39725        -1.91682
LJ          0.933307          2.3798         1.74569
LJ         -0.282096       -0.588725         1.21765
LJ           2.18699         2.07759         2.30238
LJ          0.677479       -0.395106       -0.725528
LJ          0.296478        -2.51909        -2.51688
LJ           1.71841        0.699075        0.149072
LJ         -0.858946       -0.995821        -1.47045
LJ           2.25789        -2.42594        -1.32341
LJ           1.24533        0.878536        -2.25391
LJ         -0.921922        -1.76542        0.101121
LJ          0.370122        -1.01999         2.12148
LJ         -0.559556        0.299204       -0.711434
LJ          0.491039        -1.73192        0.985127
LJ           2.35486        0.318767        0.380036
LJ          -1.09916         -1.4436        -0.34985
LJ          0.140892        -1.83136       -0.257013
LJ           2.14991         2.31482        -1.06116
LJ         -0.159361       -0.709077       -0.859637
LJ          -2.03865         -2.4012       -0.346692
LJ          -1.92298        -2.48425        -2.39629
LJ          0.855716        -1.89365         2.08408
LJ         -0.444505         1.16499        0.777779
LJ           2.45561       -0.778511        0.566747
LJ          0.244247         1.66938          2.4953
LJ         -0.821964         1.42693       -0.453159
LJ          -2.11524        -1.23437        -1.19845
LJ         -0.021683         1.17042         2.04391
LJ          -0.22216        -1.92118        -1.49413
LJ          0.634325       -0.115329        -2.42931
LJ           2.34116       -0.792208       -0.876363
LJ           0.12286       -0.416581         2.41014
LJ          -1.31601        -1.04535        -2.42561
LJ           2.43573          0.8242         1.99542
LJ         -0.853554         0.84229         1.95184
LJ           1.11025         1.27408        0.248277
LJ          0.600621        -1.21814         1.46887
LJ          0.678779          1.6601       -0.460429
LJ           1.57563        -1.14812        -1.04609
LJ           1.88377        0.214064        -1.14209
LJ         -0.833707          2.0647       -0.572252
LJ          -1.72553         1.32711        -1.50344
LJ          0.848388        0.856326        -0.63272
LJ          -1.57994        -1.23081         1.18443
LJ           1.96729        0.338404        0.719362
LJ          0.482117         1.67207         1.63782
LJ           1.47601      -0.0994173      -0.0549469
LJ          0.826206         -1.2711        -2.27405
LJ           2.12896         -1.4605         1.62371
LJ          0.555709         1.17895         0.48441
LJ          -1.04029        -1.53574         1.68424
LJ         -0.361946         1.33988       -0.979985
LJ          -2.22155          1.5969         -2.2386
LJ          -1.24892         1.99587          2.4513
LJ          -1.72309       -0.589054         2.23639
LJ           1.64506         1.68727        -1.65738
LJ          -1.88735        0.283005      -0.0317629
LJ          0.458281        0.797954         1.87337
LJ           2.30223        -1.79242        0.658014
LJ           2.32419        0.803757         1.33567
LJ           1.70556       0.0594535      -0.0440426
LJ         -0.884917         1.99909        -1.80717
LJ        -0.0532594         2.11066        -2.34204
LJ         -0.483576        0.514797        -1.14908
LJ         -0.512514        0.816911        -1.61752
