108
#Comment!
LJ           1.26837       -0.311347       -0.978127
LJ          0.368768       -0.474623       -0.282908
LJ          -1.87254        0.549486        -1.98061
LJ          -2.53215         1.02621        0.679682
LJ           -2.4006       -0.825072        0.904649
LJ          -1.08355         1.23596         1.56104
LJ         -0.553831         1.02235       -0.505358
LJ          0.739491         -2.4141        0.246864
LJ          -2.42421        0.741513       -0.378747
LJ          -1.86886        -1.48581        -1.50404
LJ              -nan            -nan            -nan
LJ           1.74271        -2.41664       -0.538954
LJ          0.782003         -1.5567        -2.49421
LJ              -nan            -nan            -nan
LJ           0.64502         1.31613         2.08996
LJ              -nan            -nan            -nan
LJ              -nan            -nan            -nan
LJ              -nan            -nan            -nan
LJ         -0.852343        -0.30878         1.31271
LJ              -nan            -nan            -nan
LJ           0.56286         1.35762         1.52421
LJ           2.09198        -1.18204         1.39312
LJ          -1.87687        0.621943        0.629323
LJ              -nan            -nan            -nan
LJ         0.0410325         -1.8751        0.799393
LJ          0.691389        -2.38067         0.79362
LJ          -1.73823        -0.83628        -1.63678
LJ           1.15293       -0.802606       -0.120271
LJ           1.34074      -0.0257576         1.54909
LJ         0.0839435        -1.63814        -1.68017
LJ              -nan            -nan            -nan
LJ           1.27417         -1.9025         2.14707
LJ              -nan            -nan            -nan
LJ          0.275029          1.7835        -2.50536
LJ              -nan            -nan            -nan
LJ           1.16757        -1.18244        -0.81618
LJ          0.249027        0.968973         1.01659
LJ          -1.01483        -1.32331        -2.10841
LJ         -0.878512       -0.758425       -0.142091
LJ           1.30753        -2.12373       -0.625152
LJ           1.65055         -1.0447        0.237873
LJ          -1.52825        -1.81643         1.79792
LJ           -1.6204         1.85889         1.30429
LJ          -1.14449        -1.95388        -0.69702
LJ           1.53837        0.253181        -2.33591
LJ          0.450856        -1.42638         2.00542
LJ           2.29591         1.34995         2.05124
LJ           1.16228         2.04693        0.778283
LJ           1.26598         1.92286       -0.213679
LJ           2.16773         2.07171       -0.865085
LJ          -1.01793         1.15273         -1.1412
LJ            1.1133        0.633633        -1.72421
LJ              -nan            -nan            -nan
LJ           1.86292       -0.600242         2.23315
LJ           1.45719        -2.30692       -0.946458
LJ           1.05789         1.88629         -2.3062
LJ          -1.13945        -2.35897        -2.56299
LJ           1.81794        -0.71122         1.29929
LJ         -0.153763        -1.95087         2.12193
LJ           1.48677       -0.715276        0.156902
LJ           0.70038        -2.22681       -0.710086
LJ            2.3117       -0.907368        0.952614
LJ          0.954609          1.3322        -2.38954
LJ              -nan            -nan            -nan
LJ              -nan            -nan            -nan
LJ           1.83192        -1.46684       -0.469808
LJ        -0.0126123         1.98283      -0.0596379
LJ              -nan            -nan            -nan
LJ        -0.0785259        -1.30124        -1.51747
LJ         -0.862105        0.793793           0.148
LJ           2.36886        0.556488        0.477959
LJ            1.3949        -2.04728         1.42592
LJ           2.44154          1.0804         0.83656
LJ           2.20658         2.03776        0.698521
LJ          0.479024         2.46619         1.75744
LJ          -1.01061       -0.270692         1.69355
LJ          -1.88467         2.33406         1.48179
LJ          -1.71401        -2.28571       -0.841274
LJ          -2.18155       -0.910594         -1.0155
LJ          -1.48345         1.83511          2.3558
LJ           -2.0453        0.823658       -0.425961
LJ         -0.845743         1.83014         -1.3952
LJ         -0.174897        0.203778       -0.914451
LJ          -1.39688         1.10509       -0.388916
LJ           1.55455        0.822633         -1.5526
LJ           2.32368       -0.458681        0.203495
LJ          -2.24034      -0.0767255        -1.38072
LJ           -1.6269         0.91392        0.734308
LJ          0.406091        0.332745        -2.41913
LJ          0.911681           0.263        0.270785
LJ              -nan            -nan            -nan
LJ          -1.23228         1.99916        0.767209
LJ           2.27469        -1.66628        0.814336
LJ          -2.52359        -2.46554       -0.410415
LJ          0.794534       -0.579922        -2.05854
LJ          -1.04245        -2.46329        -1.31764
LJ           1.43085         1.64776        -2.17806
LJ            0.6564         1.63816        -1.09136
LJ              -nan            -nan            -nan
LJ           1.73296          2.2319    -0.000381196
LJ          0.627767       -0.988865        -1.99186
LJ         -0.241505        -1.39037         2.17897
LJ          -1.49795       -0.426162         2.51071
LJ          -2.03667        0.184005        -1.46807
LJ              -nan            -nan            -nan
LJ        -0.0174707        0.207467        -2.39206
LJ         -0.789726         2.02406        -1.45528
LJ              -nan            -nan            -nan
