108
#Comment!
LJ          -2.04167        -0.75899       -0.538492
LJ         -0.529648        -1.60237         1.74437
LJ          -2.39933          0.5404         2.12277
LJ          -1.16325        0.146784        0.796745
LJ         -0.841864        -1.99284       0.0731349
LJ          -2.50529         2.11218       -0.868743
LJ          -2.05891       -0.216349         1.34833
LJ          -1.87916       -0.495301        -0.21511
LJ           1.26532        0.313766         1.14009
LJ         -0.619137        -0.74038      0.00668578
LJ              -nan            -nan            -nan
LJ          -0.41563         2.46242       0.0896021
LJ           2.47776         1.23719         1.24158
LJ           2.46704       -0.647879        -1.70499
LJ          -1.26898        0.293057       -0.409484
LJ              -nan            -nan            -nan
LJ              -nan            -nan            -nan
LJ              -nan            -nan            -nan
LJ         -0.808262        -2.09835       -0.555767
LJ              -nan            -nan            -nan
LJ          -0.16124       -0.224339        -1.81569
LJ          0.372249         2.24847        -1.16764
LJ           2.54028         2.31632       -0.979134
LJ          -1.08474         1.92308          1.4759
LJ         -0.665507        0.459966       -0.126072
LJ         -0.878538      -0.0254197        0.383117
LJ           1.77449         1.86856        0.901653
LJ        -0.0514701         1.54466        -1.24813
LJ           1.06997          2.0019       -0.418562
LJ         -0.714215        0.100112          1.0972
LJ           1.49549        -2.13203         1.87557
LJ           1.19938        -1.68836        0.325939
LJ              -nan            -nan            -nan
LJ          0.968967        -1.41488         1.21179
LJ              -nan            -nan            -nan
LJ           -1.0885         -1.7801        0.629223
LJ          -1.23254        -0.10934        0.759002
LJ           1.41245        -1.90937        -1.67774
LJ           1.36992         1.79608        -2.13255
LJ          -1.22455        -0.90557        0.093213
LJ          0.598511        0.498366         0.33765
LJ           1.92129        -1.41154          1.1191
LJ         -0.952496        -1.99093      -0.0719075
LJ          -1.97554        0.898948         0.45477
LJ          -1.82557        0.139263          -2.213
LJ         -0.410467        0.680858        -1.79134
LJ          -1.95575         1.44911         1.49594
LJ          0.561375       -0.206118         1.13625
LJ         -0.944561        -2.52034         2.51409
LJ           1.31958       -0.719332          0.3487
LJ         -0.405516       0.0783696        -2.15502
LJ           -1.7084       -0.452308         1.90861
LJ              -nan            -nan            -nan
LJ          -2.26335        0.273549        -1.20997
LJ          -2.43554         -1.5462        -1.61377
LJ          -2.20508        -2.42078         2.25794
LJ          -0.51419        0.250358        -2.04687
LJ          0.659037         1.73122         1.64808
LJ          0.676746         1.27144        -1.19006
LJ          0.835302        0.887978        -1.24421
LJ          -1.11786        -0.41552        -2.06643
LJ         -0.802561        -1.58577         2.28896
LJ          -2.49609         2.46395         2.30617
LJ          0.742768      -0.0965182        -1.22654
LJ         -0.272891        -1.26903       -0.345957
LJ          -1.43689        -2.10319       0.0402115
LJ         -0.674412         1.71902         1.59124
LJ              -nan            -nan            -nan
LJ           2.07148        -1.08098         1.38396
LJ          -2.14696        -1.17912        -1.91894
LJ         -0.654001         1.34363        -0.86916
LJ            1.2049       -0.852737        0.150415
LJ          -1.87677       -0.278272        -2.51636
LJ         -0.468216      -0.0559529         1.80078
LJ          -1.84177       -0.693874        -2.25093
LJ         -0.045283       -0.762751       0.0579125
LJ           1.25902        0.357861          1.8361
LJ          -2.15905        -1.28481       -0.191676
LJ          -1.81694        -2.48481       -0.023788
LJ         -0.708497        -2.08531         2.49602
LJ           1.16649        -1.98131          1.0982
LJ          -1.60317       -0.615932        -1.87402
LJ          -1.28762        -1.63435         1.23364
LJ          -1.24443        -2.07936         2.09679
LJ         -0.970397        -1.90752       -0.274706
LJ          -1.15429        -2.55404       -0.913605
LJ           2.54994           2.491        -1.33373
LJ           1.43996       -0.604431        -1.10987
LJ         -0.795623         -1.8455         1.91536
LJ          -2.44624        0.841472        -1.05486
LJ              -nan            -nan            -nan
LJ           -1.7905         1.55193        -1.86565
LJ           1.90343        -2.52099        -1.01761
LJ          -2.37112        -2.44701        -2.21306
LJ          -1.22247        0.572365        0.679659
LJ          0.612018         0.51548       -0.977943
LJ           1.68957         -2.5013       -0.796497
LJ          -1.28007        -2.50005         1.18339
LJ              -nan            -nan            -nan
LJ        -0.0415747         2.07771         1.31218
LJ           2.28162         1.83523      -0.0243805
LJ           1.33736         -2.1026        -1.21028
LJ           -1.7949       -0.617877        0.654779
LJ           1.13452         2.50505         1.56769
LJ         -0.908558        -2.28227         2.30398
LJ          -1.61409        -2.19899        -1.20251
LJ         -0.958264          1.2619       -0.300074
LJ              -nan            -nan            -nan
