108
#Comment!
LJ           1.49603        -2.41865       -0.579374
LJ          -2.50977        -1.36505         2.09384
LJ         -0.730505        -1.11877       -0.238465
LJ          -2.45807        -1.08933        0.812002
LJ          0.756807        0.609784        -2.43896
LJ          0.608527        0.795483        -2.13599
LJ          0.895608        -2.42944         2.26069
LJ          -1.03579          1.2137        0.121397
LJ           1.25945       -0.285598        -1.92284
LJ         -0.230236       -0.375725          1.6557
LJ          -2.51123        -1.30079       -0.753395
LJ           -2.2561        -2.23155        -2.56326
LJ          -1.70265        0.717634        -2.05826
LJ          -1.74808        -1.90696       -0.227276
LJ         -0.679565       -0.788621        0.370342
LJ         -0.925411        -1.25659        -2.15703
LJ          0.900105        -1.69032        -1.47626
LJ          0.319422         1.29809        0.272266
LJ         -0.822069        0.617235        0.717262
LJ           2.18066       -0.697629        0.996687
LJ          -1.08431       -0.275045        -2.27914
LJ          -1.44801        0.673753         1.90306
LJ         -0.221294        -0.86312        -1.31109
LJ          0.523451          1.3606        0.936149
LJ          -1.51337         1.68373         1.09558
LJ            2.1246       -0.486325        -1.83208
LJ           2.24255         1.63608        -1.27606
LJ         -0.635473         1.20299         2.02764
LJ           1.89586         1.51967         1.09756
LJ         -0.489409         2.52617      -0.0681016
LJ          -1.12706         1.79784         1.59968
LJ            2.3133       -0.337735        0.651784
LJ          0.862899         1.27129         1.32503
LJ            1.1245       -0.177123         2.16484
LJ         -0.835915         1.10361        -1.69767
LJ         -0.623216       -0.776173         0.61811
LJ          -2.43228         1.67219         2.32767
LJ          -1.22138        -2.43964          2.2366
LJ           -1.4171        0.611529        -1.51557
LJ           2.04469         2.14295         2.17937
LJ           1.52227        -1.39729       -0.720202
LJ          0.640163       -0.705744        -2.11417
LJ             1.489       -0.778253         1.00854
LJ          -1.18754        -1.96887          1.1945
LJ          -2.46504      -0.0479656         2.19804
LJ           1.77133        -1.46072        0.728454
LJ           1.32596        0.073162        -1.46285
LJ          -2.24312        0.455661         1.91951
LJ         -0.977528        -1.70373        -2.42789
LJ         -0.853377         2.03949       -0.971081
LJ         -0.535928        -1.21925        0.619056
LJ         0.0579067         -2.2086        -1.10484
LJ         -0.174962         2.02243         1.12775
LJ           2.18999         1.47612          2.2627
LJ          -0.44946        -1.76903          2.4407
LJ          -1.55954        -1.65849        -0.90618
LJ           2.28753        0.595652        0.911661
LJ        -0.0911243           -2.53        0.356063
LJ          -1.38842        0.250984         1.69081
LJ         -0.974671        -1.95422       -0.478004
LJ           1.74765         2.32788        -2.35155
LJ           1.46122        0.936884         2.52998
LJ           1.66798         1.89272       -0.105802
LJ          -1.83683        -1.20164        -2.03367
LJ         -0.762458       -0.992033         -1.3035
LJ           1.10372        -1.56757        0.815422
LJ          -2.36441        0.424289         1.65564
LJ          0.216576      -0.0892108         1.27225
LJ           1.72101        -1.28798        -1.47587
LJ        0.00980642         -1.2483         1.47147
LJ           2.05519          1.8341        0.651313
LJ           0.63336        -0.43631        0.832639
LJ          -1.68765         2.22517        -2.49142
LJ        -0.0991281         1.47389         2.48432
LJ         -0.768139       -0.144446       -0.783341
LJ           1.61708       -0.646329         1.38106
LJ          -2.54864       -0.393172        -1.68681
LJ          -2.25573        -1.19969         1.61419
LJ         -0.623196       -0.476875          1.5778
LJ        -0.0599316         1.65547        -1.02243
LJ           1.07544         1.08449         2.43888
LJ          0.415914        -1.44367        -1.34096
LJ          -0.24334          1.8832       -0.252996
LJ           2.49772        -2.25328         1.24767
LJ          -2.42368         1.57006          1.0374
LJ          0.179577        0.862046         1.23384
LJ         0.0539297         2.23623         1.33288
LJ          -1.59618         1.10662       -0.612326
LJ          0.781067         2.02707        0.296047
LJ         -0.717611          -1.047        -2.54758
LJ          0.176766        -1.31992        -1.29837
LJ          0.356917       -0.824827        0.802871
LJ           -2.3683        0.123912        0.794196
LJ           -1.2362       -0.269258         1.40585
LJ           1.27724        0.291373         2.53356
LJ            2.0102          -2.359        -1.73064
LJ           -1.5283        -2.46213        -1.04887
LJ           2.51039          1.8573        0.515764
LJ           -1.7916       -0.474955        0.365895
LJ           1.35995        -1.31589        0.226472
LJ           1.83286        0.916751        -2.02437
LJ          -2.42898         1.16561       -0.685126
LJ         -0.240089         1.56346       -0.417026
LJ           2.56376         1.32871       -0.654388
LJ           1.20434        -2.00444        -1.15522
LJ          -1.53604         2.49801        -1.16699
LJ           2.50078        -1.91883        -2.54709
LJ          -1.34636         0.99837       0.0880424
