108
#Comment!
LJ           1.11458        -1.01587       -0.999757
LJ        -0.0821331       -0.778407        -1.64253
LJ          -1.18743        -2.20928         1.77713
LJ           1.70002       -0.478734         1.03468
LJ          -2.32035         1.53508        0.746683
LJ          0.337461        -1.32142        -1.28367
LJ          0.853813       -0.414139         1.62495
LJ           0.80619        -1.99517           2.451
LJ            2.0434         1.56578        -1.25566
LJ          -1.91757        -1.54884        -1.52311
LJ              -nan            -nan            -nan
LJ         -0.594494        0.261692        0.737503
LJ          -2.08172        0.248845         0.34019
LJ         -0.745692         2.47356        -1.54062
LJ          -2.03366        0.847296        0.235045
LJ           2.02416        0.375884        -1.51804
LJ              -nan            -nan            -nan
LJ              -nan            -nan            -nan
LJ           2.44975        -1.80529        0.567205
LJ              -nan            -nan            -nan
LJ           1.00521        -1.60284         1.03595
LJ          -1.25147          2.0234       -0.473634
LJ         -0.727129         1.82289        -1.33084
LJ          0.701368      -0.0403449          0.8119
LJ          0.011676        -1.60561       -0.695369
LJ          -1.52951         2.31006         2.03779
LJ         -0.789386         2.19557         -1.2002
LJ           1.21156        0.300285        -1.10174
LJ           -1.7795         -0.2169        0.969908
LJ          0.367121         2.30658         1.91654
LJ          0.158317         2.29901        -2.17106
LJ          -1.95505         1.66127         1.41012
LJ              -nan            -nan            -nan
LJ          -2.54659        0.841352        0.682622
LJ              -nan            -nan            -nan
LJ            2.0338        -1.62441        -2.43952
LJ           1.42337         1.12976         1.19682
LJ           2.53196         -1.3609        -1.38294
LJ          -1.60759        -2.43448         2.09106
LJ          0.153517          1.4852       -0.346177
LJ          -1.06435       -0.022889        -1.75736
LJ          0.966458       -0.122201        -1.88162
LJ           -1.7646       -0.809249        -2.24594
LJ           2.21892       -0.834892       -0.840578
LJ          0.584356         2.21144       -0.417809
LJ          -1.41861       -0.523461       0.0265002
LJ           1.04424        -2.22762         2.37776
LJ          0.127138        -1.18259        0.485804
LJ           1.77981         2.41238       -0.335037
LJ           1.51297        -2.36352       -0.449882
LJ         -0.222915        0.951483         1.64603
LJ          0.459911         1.53409         0.36777
LJ              -nan            -nan            -nan
LJ        -0.0517251      -0.0121612        -2.33298
LJ           -2.2599        -1.57401       -0.370834
LJ          -0.54219         1.81987         1.27169
LJ           1.11324      -0.0436522       -0.856341
LJ          -2.40272        -1.35954        -0.14588
LJ           2.03167        -0.49608         1.65914
LJ         -0.319454         0.21924          1.8024
LJ           1.67651       -0.201882        -1.93929
LJ          -2.33951         1.32582         1.28298
LJ          -2.21954         1.54576        -2.30566
LJ          -1.95554         1.10803         1.99966
LJ          -1.88677        -2.05153       -0.148312
LJ         -0.821327        -1.10088       -0.318225
LJ           -2.0417        -2.43954        -1.38537
LJ              -nan            -nan            -nan
LJ         -0.146277          1.1953        -1.25627
LJ           -1.8826       -0.624049         1.99323
LJ          -2.39484         2.34063        0.475433
LJ         -0.490846        -1.98547       -0.638877
LJ           2.12453        -1.02941         2.09039
LJ         -0.671641        0.978214      -0.0785238
LJ           1.92208        -2.20187        -0.43949
LJ          -2.49844         1.99219         1.24111
LJ          0.312031        -1.25158         1.03038
LJ          0.995211        -1.44427          1.1184
LJ           1.97835         1.24174         1.26168
LJ         0.0268658         2.10849        -1.18002
LJ           1.82362        0.213041       -0.746335
LJ         -0.506029        -2.02481         1.69446
LJ           2.46465         1.52397       -0.672505
LJ          0.469808        0.290467         0.96464
LJ           0.86686         1.46571          1.7857
LJ          -1.25557        -1.87173        0.901566
LJ           1.92297        -1.65666        0.783215
LJ           1.71832        -1.49545         1.39538
LJ          -1.55812         1.35755         1.35345
LJ           -1.9739         2.15071       -0.946191
LJ              -nan            -nan            -nan
LJ          0.776834        -1.97013        -1.30416
LJ           1.38978        0.753231        -1.48432
LJ          -2.43968         1.53404         2.13948
LJ          0.190321         2.25593         2.25622
LJ           -1.0493         1.71548         2.03724
LJ          -1.29016        -1.54101        0.796569
LJ          0.122301       -0.423864         1.99057
LJ          -1.31559       -0.917384         0.79469
LJ         -0.479354       -0.459507        -1.01058
LJ          -2.26593       -0.297828         2.29187
LJ          0.990202        0.113939        -2.23882
LJ          -2.32953       -0.470025       -0.707955
LJ         -0.846835        -2.03824         1.36466
LJ           0.51236        0.590393       -0.961723
LJ         -0.743258        0.284184         1.70947
LJ           1.26948         1.19095        0.688691
LJ              -nan            -nan            -nan
