108
#Comment!
LJ           1.92523        -1.90252       -0.685549
LJ           1.02241         -0.3824        -1.66258
LJ           1.43196         -2.1561        -1.23053
LJ          -1.65777         0.70721        -1.95589
LJ           2.37147       -0.354133        -1.44153
LJ        -0.0730429        -2.54698        -1.21551
LJ         -0.813356         1.72652          2.2707
LJ           -1.7148        -1.82846       -0.596376
LJ         -0.130502        -1.60678        0.366593
LJ          0.384928          1.2707       0.0174347
LJ              -nan            -nan            -nan
LJ          -1.84527        -2.07167         2.33557
LJ          0.708101        -1.62098         1.17388
LJ           2.04193         1.67569         1.90864
LJ          -2.31491        -1.88396         1.27969
LJ          -1.84239        0.676455         1.66343
LJ              -nan            -nan            -nan
LJ              -nan            -nan            -nan
LJ          0.964392         1.21974         -2.1714
LJ              -nan            -nan            -nan
LJ         -0.185369         1.62727          1.5107
LJ         0.0256338       -0.637162         2.12817
LJ         -0.536295        -2.25727       -0.602718
LJ         -0.387025       -0.382658         1.59694
LJ           1.47884         1.46009        -2.05468
LJ           1.98989         2.14267        -2.49361
LJ          0.406797          2.1713        -1.35378
LJ          -2.29781        -1.20131         2.06631
LJ          -1.28286       -0.680568       -0.163445
LJ          0.887046        -2.01765       -0.952683
LJ           -1.0972       -0.706836        -1.36619
LJ         -0.764324         1.30359        -2.53989
LJ              -nan            -nan            -nan
LJ         -0.250922         1.08776         1.69389
LJ              -nan            -nan            -nan
LJ         -0.477685         1.71215        0.595542
LJ         -0.986412         1.68041        -2.01322
LJ       -0.00383196          2.3591         2.35726
LJ          0.609029          1.4453      -0.0891938
LJ          -2.09034        -2.29865        -2.34986
LJ         -0.614585         1.80727         1.22016
LJ          -2.08111         0.77482        -1.16307
LJ           1.10228         2.56439         2.49724
LJ           1.30449        0.107408        0.761079
LJ           -0.8188        0.551091        0.976074
LJ          -2.34612        0.539373          -1.687
LJ          -1.37968         1.63905        0.227156
LJ          0.349569       -0.736549         2.14581
LJ          -2.35703        0.867804      -0.0443557
LJ           -2.4803        -1.55358        -1.87643
LJ         -0.338961        -2.02074         2.40375
LJ          0.659474        -2.14967       -0.468631
LJ              -nan            -nan            -nan
LJ           1.10207        0.470133         1.57928
LJ          -1.60788       -0.107909         2.38149
LJ          -1.30851       -0.912502        0.321703
LJ           2.25669        -1.98003       -0.442948
LJ          -2.26713       -0.150545       -0.851429
LJ          -1.68874        0.073071       -0.748051
LJ           1.35507       -0.931034       -0.716624
LJ         -0.773416        -1.54605         1.83539
LJ            1.2385       -0.419742         1.31633
LJ          0.487832       -0.824345        0.470291
LJ           1.88197          2.1857         1.10648
LJ          -1.26969         2.44874          2.5609
LJ         -0.793607        -1.24628       -0.815746
LJ         -0.134198       -0.599101        0.122073
LJ              -nan            -nan            -nan
LJ          0.019403       -0.162581       -0.848752
LJ         -0.591219        -2.14306       -0.632974
LJ          0.925393         0.82142        -0.34762
LJ        -0.0958294        -1.76547       0.0776212
LJ          -1.43248        -1.61867        -1.18883
LJ           1.14351         1.78169         1.73116
LJ           -1.8098        -1.24133       -0.151037
LJ         -0.638421         -1.8145         1.24124
LJ             0.998         1.08423        -2.19659
LJ          -1.47955        0.477414         1.72256
LJ           1.50106        0.787961       -0.411859
LJ            1.3688         1.13125        -1.41102
LJ        -0.0900251         1.81181       -0.415159
LJ          -2.46236        0.229862        -1.84603
LJ          0.165179        -2.26027        -2.36188
LJ           1.91316         -0.2354         -1.0597
LJ           1.73911       -0.541392        0.435512
LJ          -1.00405        -1.42299        -1.51147
LJ         -0.954038        -1.71724         0.60354
LJ           1.74383         1.36618        0.930776
LJ          -1.06873         1.15724         2.38048
LJ          -1.41698        0.131276       -0.318725
LJ              -nan            -nan            -nan
LJ          -1.57973         -1.0981        0.607209
LJ         -0.602313        -2.40525        -1.83045
LJ           1.84292         1.85784        -1.50217
LJ          -1.01005        -2.04005         1.99843
LJ          -1.29543        -2.48769         2.47248
LJ           -1.7962        0.124034        0.337509
LJ           0.14758         2.24764        -0.77006
LJ         -0.512397       -0.111912        0.342962
LJ           2.38213        -1.45119       -0.675392
LJ         -0.812906        -2.52728        -1.81686
LJ          0.463181         1.45441         1.09934
LJ          0.789326         2.30022        -1.91517
LJ           1.68187        -1.16846        -2.00733
LJ          -1.76648         1.76747         -1.5697
LJ          -2.03452       -0.557824         2.05291
LJ           1.24334       -0.296452        -1.45857
LJ              -nan            -nan            -nan
