108
#Comment!
LJ          0.528044       -0.540256         2.29803
LJ          -1.12095         2.25234         2.27017
LJ         -0.313859         1.21464       -0.512185
LJ          -1.85582      -0.0272352        0.381123
LJ          -0.53435       -0.766765         2.41259
LJ          -1.99411        -1.89896         2.28822
LJ          -1.58246        -1.21662         1.55764
LJ         -0.106405         2.00436         1.52793
LJ          -1.93655         2.45315       -0.743831
LJ        -0.0156741         1.99202       -0.633388
LJ              -nan            -nan            -nan
LJ         -0.394794          1.8561         1.14572
LJ           1.98378         1.70936        -0.57035
LJ           0.48271        -1.01318      -0.0245713
LJ         -0.860779        0.304134        0.206686
LJ         -0.496141        -2.34586        -2.13688
LJ              -nan            -nan            -nan
LJ              -nan            -nan            -nan
LJ           1.40179        0.597097         1.45095
LJ              -nan            -nan            -nan
LJ         -0.459447         2.55684        0.715725
LJ           1.42511        -1.05742        -2.53737
LJ           1.33573        -1.25464         1.00369
LJ      -0.000278152        -1.68902          1.9487
LJ           1.80975        0.555975       -0.290568
LJ          -1.88387        0.460246        0.925864
LJ         -0.565782         1.35331       -0.391671
LJ          -2.04316        0.360105        0.352492
LJ          -2.53267       -0.227185         1.85653
LJ         -0.510082         -2.3724        -1.42496
LJ           2.11334         2.55327         2.54928
LJ           1.31022         2.36857        -1.09723
LJ              -nan            -nan            -nan
LJ           1.83449         1.92738         2.21535
LJ              -nan            -nan            -nan
LJ          -2.15248         1.84685          -1.095
LJ         -0.238849        -1.44147        0.559333
LJ          0.618408      -0.0686334         1.91719
LJ         -0.592946         2.46949        0.126603
LJ          -1.54495         1.35169        -1.34242
LJ           2.38912        0.867118         0.33872
LJ         -0.751644         1.17581       -0.863422
LJ          -2.48712          2.3582         1.55798
LJ          0.526431         1.18122        -0.64415
LJ           2.21736       0.0618097        -2.56272
LJ           1.56361        0.184647        -1.03656
LJ         -0.141848        0.838138        -0.98352
LJ         -0.416663        -1.32115         2.31689
LJ          0.521166         2.21953         2.14365
LJ            1.8462         1.82202         1.44051
LJ           1.93715         2.30842        -1.97946
LJ         -0.926808         2.51614           2.072
LJ              -nan            -nan            -nan
LJ          -1.38251       -0.592621        -2.29004
LJ          0.597132         0.40006       -0.877689
LJ          -2.34259         1.06254        0.527017
LJ         -0.749309        -1.54281        0.203998
LJ           0.80921       -0.180428         1.90849
LJ           -1.8329         -1.5761         2.20199
LJ       -0.00966781        -1.42449         2.20587
LJ           1.12047        -1.55336       -0.607972
LJ         -0.489767         1.43885        -2.44229
LJ           1.55566       -0.639024        -2.09998
LJ          0.258707         1.74955         1.07824
LJ          -1.12374         2.00944        0.991928
LJ          -1.98197       -0.853189       -0.411562
LJ          -2.09989         1.98311        -2.30908
LJ              -nan            -nan            -nan
LJ           2.27252         2.20106         2.28089
LJ       -0.00378666        -2.42479        -1.54696
LJ          0.469376        -2.13284         0.70109
LJ          -2.19743         2.50894        -2.03865
LJ        -0.0323063       -0.436618         1.92827
LJ           1.13657        -1.22953       -0.996184
LJ          -1.89564        -1.63107        -2.41744
LJ          -0.16945        0.948883        -1.95637
LJ          -2.02283        -1.73686         2.41164
LJ           1.91764         2.56193        -1.52329
LJ          -1.65215        -1.30597         1.73485
LJ         -0.801125         1.26772        -1.04242
LJ          0.686741         2.27484         2.49056
LJ         -0.408124       -0.254825        -1.06986
LJ        -0.0692517         1.39412         -1.7766
LJ          -1.57004       -0.732134        -1.36858
LJ          -2.55742         -2.3412        -1.29294
LJ          -1.91902          1.3588        -0.14908
LJ          0.513815         1.42531       -0.306094
LJ          -2.45593        0.250521         1.60455
LJ          -1.91817        0.110552        0.761037
LJ          -1.20436        0.709103       -0.335826
LJ              -nan            -nan            -nan
LJ          0.151574        -1.83674         2.16831
LJ           1.96496        0.680087       -0.571373
LJ           1.09854        -1.82063        -2.13159
LJ            1.7548        0.697614       -0.645827
LJ          -1.89657        -2.29481        -2.51296
LJ          -2.26113       -0.424468         -1.3339
LJ           -0.7574        -2.32001        -1.83861
LJ           1.39319         2.34192        -2.48502
LJ         -0.625022       -0.226859          0.9706
LJ           2.09763         -2.5474        -1.17628
LJ         -0.325279       -0.997775        -0.21369
LJ          0.382262       -0.985106         1.38876
LJ           2.15101        0.613333        -2.48724
LJ           1.40609         2.17388         1.61346
LJ          -2.19124         2.51443        -1.13443
LJ          0.200867         2.10065         -1.6279
LJ              -nan            -nan            -nan
