108
#Comment!
LJ           1.92244        -2.16932         -1.0334
LJ         -0.801223         1.83248        0.930934
LJ          0.165203        -2.46075         1.10171
LJ         -0.880427        0.620351        -1.53541
LJ          -1.62076        0.722937         1.88388
LJ          0.969772         1.58172         1.35515
LJ           2.17773       -0.264216       -0.766113
LJ          0.719014         1.91077        -1.91997
LJ          0.783254        0.557423         1.29109
LJ           2.09146        -2.56446       -0.988894
LJ              -nan            -nan            -nan
LJ           1.48188         1.67899         1.56109
LJ            1.0622        -2.08516        -2.15137
LJ        -0.0443799        -1.80627        0.257777
LJ          -2.54579         2.38439         -1.1852
LJ          0.384157        0.411908         1.32979
LJ              -nan            -nan            -nan
LJ              -nan            -nan            -nan
LJ         -0.749001         2.06698        -1.58946
LJ              -nan            -nan            -nan
LJ          -1.35781         2.37279         1.72841
LJ           1.53874        -1.00112       -0.654483
LJ          -1.60301         2.45249       -0.411348
LJ          -1.99028        -2.24323        -1.69581
LJ           1.26786         1.62228        -1.50169
LJ          -1.30509         0.41823         -1.9582
LJ           2.43733        0.410787         2.51057
LJ         -0.450442        -1.97078        0.253515
LJ         -0.502323        -2.11065        -1.11106
LJ           1.51809         1.96587          2.5036
LJ            1.4665        -2.50059        -2.49715
LJ           1.65041       -0.408702         2.12644
LJ              -nan            -nan            -nan
LJ           1.41932         1.79402        -2.31352
LJ              -nan            -nan            -nan
LJ         -0.952683        0.841411         1.83621
LJ         0.0949521         1.82864        0.818195
LJ           -1.2183         1.11843        -2.52944
LJ          0.627316       -0.281726         1.73096
LJ         -0.771711       0.0887176         1.23079
LJ          0.174072        -2.34506        0.768734
LJ          0.694411       -0.215679         2.09787
LJ        -0.0627654         1.51523        0.305757
LJ          -0.98323         2.30449         1.00545
LJ          0.407325         -2.1014        0.334577
LJ           1.15542        0.991043        0.862563
LJ          0.701459        0.803621        -1.58268
LJ           1.36189        -2.53866       -0.205407
LJ         -0.569048        0.390529        0.767877
LJ           2.06495         -2.0701        -2.45809
LJ          -1.31953        -2.34868         0.33784
LJ            2.3433       -0.563732        -1.51437
LJ              -nan            -nan            -nan
LJ          0.102518         2.49902         2.54783
LJ           1.80354        0.430867        -1.16615
LJ          -1.73916        -1.34514         2.12575
LJ           1.16749       0.0889989        0.940714
LJ           0.19657        0.226906         1.24857
LJ           2.34489         1.47156        -2.40647
LJ         -0.169639         2.11493         1.47981
LJ           2.55736        0.650075         -1.6058
LJ          -1.81948        0.843572        -2.09277
LJ           1.21436         2.41456        -2.43274
LJ          -1.61861       -0.669306       -0.508682
LJ           1.53809       -0.175399        0.217745
LJ         -0.804785        -1.25588         1.79815
LJ           1.44697         1.45393         1.93059
LJ              -nan            -nan            -nan
LJ          -1.15379        -1.68339         1.53878
LJ           1.48602        0.878343        -1.32514
LJ           2.54458         1.36255        -1.52942
LJ           1.53434         2.03432       -0.756285
LJ           1.49799         1.42173       -0.377116
LJ           1.80899        0.839583       -0.507894
LJ         -0.241371       -0.578088         1.62201
LJ          -1.41437       -0.422636         2.03862
LJ          -2.35716         2.18661         1.80992
LJ           1.35768        -2.30835        -2.36717
LJ          0.480889        -2.36185         -2.5552
LJ           -1.7119       -0.894466        0.506467
LJ          -1.53132         0.57782         1.40937
LJ         -0.962643       -0.305048       -0.712345
LJ          -1.61251        -1.08072        -2.19876
LJ          0.119835        -2.44509        -2.52891
LJ            2.4682      -0.0944331         1.61079
LJ         -0.752969         1.19501         1.59791
LJ           -2.3624       -0.934307       -0.419583
LJ         -0.234733        -1.67999        -2.29835
LJ         -0.601377        0.621233       -0.610986
LJ          -2.06884       -0.244721        -2.03928
LJ              -nan            -nan            -nan
LJ          -1.34641       -0.251701        -1.45044
LJ          0.323928        0.787292        0.933595
LJ          -2.24463        0.249648        -2.20884
LJ           1.86198         1.39594        -0.97759
LJ           2.39928        -1.35666         2.05399
LJ          0.182733       -0.335545       -0.410906
LJ         -0.882517        -1.37941      -0.0347639
LJ           1.49212        0.344436         1.78048
LJ            1.4162         1.02104       -0.863802
LJ          0.106861       -0.858579        -2.11811
LJ           2.41077        -2.28705           1.052
LJ          -2.27071       -0.439785        0.218284
LJ          0.433835        -2.25583        -2.14804
LJ          -1.57171       -0.151739         1.79317
LJ          0.126844        -2.49161        -1.26961
LJ          0.971464         1.24876         1.46609
LJ              -nan            -nan            -nan
