108
#Comment!
LJ        -0.0743632         2.32299        -2.35548
LJ           2.35768         2.04921        -1.41486
LJ           1.83404          2.0818        0.102068
LJ          -1.72231        0.971227        -1.21604
LJ          -1.35167       -0.877302       -0.328691
LJ          0.688173         0.82672         1.23947
LJ           1.59205         2.20104        -1.88966
LJ          -2.52354        -1.74506        0.059998
LJ           1.84971       0.0430521        -2.07764
LJ          -1.35138        -1.36281        -1.09415
LJ              -nan            -nan            -nan
LJ           1.73475       -0.778696        -1.01916
LJ           -2.4574        0.403407         1.57051
LJ          -2.25778        -2.56236       0.0799163
LJ          0.206485         1.82158      -0.0990089
LJ          0.505644         1.47634        0.405876
LJ              -nan            -nan            -nan
LJ              -nan            -nan            -nan
LJ         -0.362779         2.28034        -2.05168
LJ              -nan            -nan            -nan
LJ         -0.742517        0.584428         1.95041
LJ         -0.830362        -1.29988        0.390043
LJ           1.94038         1.86477        -0.67134
LJ          -1.72485         1.22438       -0.181854
LJ           1.67035       -0.253315         1.82143
LJ          -1.19947        0.250806          2.2541
LJ           1.32585       -0.915125       -0.045876
LJ           1.31242         1.14523        0.598178
LJ          -2.13576        -1.64566        -1.64895
LJ         -0.950806         1.75899        -1.66908
LJ           2.01956        -1.15492       -0.966398
LJ          -0.20386       -0.581985        0.959479
LJ              -nan            -nan            -nan
LJ           1.32437         0.69462        0.182767
LJ              -nan            -nan            -nan
LJ          -1.12301         -1.3501          2.5519
LJ          0.532269         2.37057       -0.760029
LJ         0.0452378         1.41528        -2.15728
LJ         -0.636115        -2.04685         2.21455
LJ          -2.15666       -0.129967         1.94333
LJ          0.719809        -1.80299        -2.06191
LJ          -1.06278         2.55649         1.46724
LJ           1.55552        0.498561       -0.329535
LJ         -0.810732         1.54769        -2.50151
LJ          -1.54189       0.0654567         1.62099
LJ          0.502902         1.86853        0.497194
LJ         -0.608829        -1.22386          1.8398
LJ           2.54623         1.43671       -0.939947
LJ          -1.56205         1.44422         1.58472
LJ          -1.32681        0.124325         1.16407
LJ          -1.71474        0.323777         1.53079
LJ         -0.465361         2.23457         0.80489
LJ              -nan            -nan            -nan
LJ            1.0511         2.10039        -1.03702
LJ           1.06105        -0.44256        0.206078
LJ          -2.36708         1.15732        0.885593
LJ           2.15641        0.321647        -2.54354
LJ        -0.0215189       -0.686535        0.444976
LJ          0.190073       -0.380519        0.619725
LJ          0.187526         1.62328        -1.12805
LJ          -0.62283         1.04947         1.48348
LJ         -0.157901         2.00349        -2.48989
LJ          0.664925         1.56993         2.39934
LJ          -0.63576        -1.60413         1.96265
LJ          -1.56636         -2.4101          1.2225
LJ          -2.36537         2.55656         1.63506
LJ           1.68603        -1.68913         2.43183
LJ              -nan            -nan            -nan
LJ           1.93398         1.25331       -0.247937
LJ         -0.827923        -2.35529       -0.650472
LJ          -2.01771         2.47859         -0.6231
LJ          -2.31779      -0.0459134       -0.254577
LJ         -0.407559        0.824104        0.342593
LJ        -0.0285572        -2.36744       -0.315059
LJ            2.4728        -2.54812        0.661797
LJ         0.0761786         2.25943       -0.211387
LJ          -2.45119        -2.00337       0.0230923
LJ         -0.182854        0.533896        0.303592
LJ           2.32339       0.0899637      0.00849061
LJ         -0.162911       -0.287781         1.38011
LJ          -2.43153         2.14428       -0.717948
LJ          -1.60847        -1.42615        -1.55738
LJ           2.45856          0.5129         2.01115
LJ        -0.0433328        0.282268       -0.938359
LJ           1.19257        -1.93169       -0.454723
LJ           0.28518         2.05542       -0.899773
LJ          -1.15654       -0.849444         1.39783
LJ           1.43828        0.251489         1.14542
LJ          -1.35357        0.318353         1.36685
LJ          -1.02552       -0.165937       -0.618453
LJ              -nan            -nan            -nan
LJ          0.995609        -1.67549        -1.79014
LJ           1.77137        -1.20946        -0.77782
LJ           -2.1784         1.76268        0.141461
LJ           1.24628         -1.6237        0.562091
LJ          -1.04707      -0.0287831         0.19952
LJ           1.00151         2.50719        0.390121
LJ          0.314975        -1.07288          -1.371
LJ           1.20763          2.0466        -2.04309
LJ          -1.18445       -0.741426        0.486858
LJ          -1.65842        0.767911       0.0835907
LJ          0.615789        0.103762         1.92852
LJ         -0.734454        -2.10573          1.7749
LJ           1.01416         1.33063       -0.325951
LJ          -2.43463         1.76518        -1.14833
LJ          -1.13382         1.78535        -1.43886
LJ         -0.686885       -0.926943        0.211876
LJ              -nan            -nan            -nan
