108
#Comment!
LJ            1.2274         1.28166         1.41143
LJ          -1.44743        0.349401       -0.618042
LJ           1.37241         1.88454         2.39038
LJ          -1.50888        -1.36962         1.00031
LJ         -0.864464        0.416872        0.425604
LJ         -0.463574        -2.30893        -1.38662
LJ         -0.667288       -0.903065         1.82231
LJ          -1.37222         2.00215        -1.82927
LJ           1.80166        -1.67952        -1.80848
LJ        -0.0457679        -1.48536        -1.11005
LJ              -nan            -nan            -nan
LJ           1.07844       -0.557688        -0.64674
LJ          -0.52165            -1.6       -0.658324
LJ        -0.0870113         2.03415        0.259173
LJ         -0.414457         1.91127       -0.517193
LJ              -nan            -nan            -nan
LJ              -nan            -nan            -nan
LJ              -nan            -nan            -nan
LJ         -0.208814        0.601578       -0.974652
LJ              -nan            -nan            -nan
LJ          -1.15867         1.11878       -0.568658
LJ          -1.21561        -1.15998         1.68104
LJ           -1.2616        -1.95041       -0.806663
LJ            2.5345        0.747251         1.27988
LJ           1.91475       -0.356243         2.02896
LJ         0.0825025        0.472151        -2.22206
LJ           1.06477         1.68388        -2.25753
LJ           1.33905         2.15194        0.486982
LJ          -1.42386       -0.103707        -1.82943
LJ           2.39548         2.09264       -0.122944
LJ          0.709081         1.62198        -2.01037
LJ          0.985005        0.476899       -0.532543
LJ              -nan            -nan            -nan
LJ         -0.826447       -0.925134         1.20012
LJ              -nan            -nan            -nan
LJ           1.80237         1.53096         2.31474
LJ           -1.1836       -0.902648         -1.7036
LJ         -0.203744        0.854815        0.249094
LJ          -1.01452         0.70557         1.42826
LJ          0.841331        -2.40242       -0.566034
LJ           -1.9204        -1.84775       -0.252704
LJ          -1.51126       0.0558906      -0.0496701
LJ          0.150973        -1.24426         2.53741
LJ           1.18983        -1.83892        0.570179
LJ          -1.37241        0.328123        0.349163
LJ           1.70062         2.51396        -0.88781
LJ            2.1378        -1.50637         2.55492
LJ          -1.33973       -0.452832        -1.92712
LJ           2.24185       -0.293099        0.191645
LJ           2.27504       -0.447292        0.175443
LJ          -1.00835       -0.444934        -2.50294
LJ         -0.917133       -0.117744       -0.400648
LJ              -nan            -nan            -nan
LJ          -1.41114         1.16898         1.97412
LJ           1.63534         2.38285         2.32825
LJ         -0.544085        0.189023         1.17607
LJ        -0.0325446         1.08773        -2.50415
LJ           1.70568        -1.36339        -1.95824
LJ           2.11092        -1.32175         1.97032
LJ          -1.20723        -1.15213       -0.790587
LJ          0.588303         1.10734         1.34243
LJ           2.23752         0.72231         1.12084
LJ           2.34709         2.04326       -0.698047
LJ          0.485176       -0.189719        0.215177
LJ          -1.04523        -1.30876         1.01955
LJ           2.48453          2.4954        0.984646
LJ          -1.44816       -0.974819       -0.312334
LJ              -nan            -nan            -nan
LJ           2.34362        -1.69851         1.64901
LJ           2.50592         2.03475        -0.10771
LJ          0.509063          1.1127         1.48842
LJ          -2.30958         0.34598         1.00723
LJ          0.658431       0.0538664        -1.69218
LJ          -1.90357        0.546783         2.43378
LJ         -0.252038        -1.65993        0.092189
LJ         -0.460706         1.65544       -0.364942
LJ          0.428034       -0.576353       -0.474958
LJ          -2.43157        -1.46904       -0.779138
LJ           -2.4754       -0.924136        -1.30116
LJ           1.59808        0.518321         1.81846
LJ          0.946801       -0.891261        -2.13578
LJ          -1.00004       -0.307017         1.83047
LJ          0.553927        0.437954       -0.979376
LJ         -0.353097       -0.758886         2.51211
LJ            0.6616        -2.55545         2.34771
LJ          -1.52825        0.686781       -0.759038
LJ          0.499352         1.45315         2.13636
LJ           2.07039        0.021071        0.827461
LJ          -2.54131         2.36481        -0.62502
LJ          0.837279          1.8574       -0.118118
LJ              -nan            -nan            -nan
LJ         -0.176423        -1.39905       -0.359841
LJ          -1.12364        -1.74955        -1.77028
LJ          -2.19509       -0.620481        -1.94278
LJ          0.560945        -1.42798         1.70091
LJ            1.8566        -1.68078        -1.78486
LJ          -1.52605       -0.349933         1.09942
LJ           1.69531       -0.536492        -1.69185
LJ              -nan            -nan            -nan
LJ          -1.94633        -2.40501         1.49494
LJ          -1.58591        -2.15834         -0.2993
LJ          -1.97259        -1.14214        0.898903
LJ          -1.86694         1.86497       -0.993992
LJ         0.0911679       -0.902115        -1.51491
LJ          0.927937      -0.0274186         2.10928
LJ          -1.71266       -0.805481        0.997079
LJ          -1.78893        -1.74526       -0.201511
LJ              -nan            -nan            -nan
