108
#Comment!
LJ           1.58148       -0.199049       -0.177764
LJ         -0.906902         1.59936        0.506981
LJ           1.33899      -0.0549518       0.0288595
LJ           1.34953        0.895176         1.36456
LJ          -1.86441        0.995024        0.827228
LJ          0.783872         1.79566       -0.981454
LJ           1.47966         1.22806        0.743781
LJ           1.79684         1.37501       -0.380747
LJ          -0.87539        -1.14516        -1.14894
LJ           1.13382         1.82915       -0.626704
LJ           2.03976        -1.56098         1.65881
LJ         -0.117999          1.5402         2.33456
LJ           1.95061         0.77047        -1.63389
LJ           2.16549       -0.599883        0.470975
LJ          -1.47763         1.97157         2.45276
LJ          0.156346       -0.291949         2.34756
LJ         0.0527693        -1.51295        -1.78357
LJ          0.528911       -0.928387        -1.94956
LJ           1.10142         1.13422         2.24646
LJ           2.34475         2.11077        -2.42101
LJ          -2.54244         1.92562         1.93603
LJ          0.197399        -1.58473       -0.535194
LJ        -0.0588522      -0.0780039         1.61209
LJ          -2.16286        -1.07672      -0.0780952
LJ           2.12406         2.53637        -1.45969
LJ          -1.21783         1.16199        0.558174
LJ           2.55323        0.982758         1.34772
LJ           1.70135         2.48643       -0.507869
LJ           2.12599        0.426215         0.81071
LJ          0.746705         2.40304        0.822858
LJ        -0.0465461       -0.308991       -0.366741
LJ          -1.52704        0.663469        -2.32471
LJ           -2.2129        -1.47695        0.655807
LJ           2.15343        0.452751        -1.78846
LJ           1.04918        0.267468          1.5447
LJ          -2.40512        -2.43562        0.997625
LJ           1.18937         1.99464        -1.09645
LJ         -0.820145       -0.952421       -0.764296
LJ         -0.372033        0.443184         1.59683
LJ         -0.517307        -2.41974        -1.15461
LJ          0.927067         1.33745        -1.32205
LJ         -0.194205         1.37304         1.89453
LJ          -1.21149          2.2932          1.7524
LJ           2.36532         2.43731         2.00907
LJ          -1.32202        -2.21239        -1.75333
LJ          -1.32396      -0.0388154       -0.791631
LJ           1.15455        -1.04453       -0.886984
LJ         0.0522573         1.93931        -1.86266
LJ          -1.14047         2.48266        -2.45162
LJ          -1.66545        -2.35828      -0.0617131
LJ           1.99062         2.10943        0.856315
LJ           1.86925         1.45665          1.3579
LJ          -1.37068        0.923123        -2.42445
LJ            1.0628         0.83735        -2.36617
LJ         0.0786646         1.21576        -1.63781
LJ         -0.125782         2.29064        -1.82086
LJ          -2.05526        -1.91657         2.08498
LJ           1.91586        -1.41643        -1.80138
LJ           2.03572       -0.595558        0.583993
LJ          -2.05282         2.44962         -1.8612
LJ          -1.08443       -0.340105         1.98697
LJ           1.38794        -1.15525         1.73347
LJ          -1.91014        -1.21152         2.31326
LJ           1.22937        -1.16599          1.6288
LJ          0.369406        -1.09343        0.777833
LJ         0.0818213        0.438764         2.30962
LJ          -1.51263      -0.0257634       -0.502663
LJ           1.26504        0.441639        -2.51879
LJ          -2.10618         2.04608        -2.14941
LJ           1.35849        -1.64959         2.30845
LJ          0.984359       -0.833334       -0.793214
LJ           -2.4289         -2.3734         2.08662
LJ           1.51058       -0.980241        -1.21743
LJ           2.15916          1.5761        -2.35443
LJ           2.28188        -2.28871        -1.57762
LJ         -0.496282           2.475        -1.26285
LJ           1.96363          2.4941         2.26646
LJ         -0.335959        0.829624        0.597591
LJ          -2.38974        0.570479        -2.15459
LJ          0.101724        -1.54704         1.84635
LJ           2.16695         1.78747        0.126483
LJ          0.805434         2.19247         1.67919
LJ         -0.133178        -2.39392       -0.575716
LJ          -1.80055        0.383147        -1.17278
LJ           1.35419        -2.09657        0.881765
LJ          -1.04721          -1.547        0.398803
LJ           2.37559        -1.13392         2.22301
LJ           1.20565        -1.51614       -0.990603
LJ           1.79691        -2.14407        0.998639
LJ          -1.30782        -1.80098       -0.192589
LJ         -0.892502         -1.2238        -1.47417
LJ          -1.39265        -1.41523          -0.286
LJ          -2.45565         1.34194          -1.912
LJ           0.21453       0.0949726         1.99482
LJ          -1.80817       -0.218765        -1.85606
LJ         -0.803235        -1.86742         2.09671
LJ          0.797819        -2.28903        0.641935
LJ          0.632739        -1.98919          -1.396
LJ          -1.70888       0.0538022         1.82835
LJ          0.354982       -0.362548        0.888568
LJ           1.48601         1.91719        -0.67607
LJ         -0.688126        0.514534       -0.102813
LJ           0.51389        0.175832        -1.42281
LJ          -1.51208         1.55048        -1.85575
LJ          -2.27378        -1.35356        -2.40639
LJ          0.477844         1.44195      -0.0516404
LJ         -0.936616        -1.31031       -0.147302
LJ             2.029         2.46595          2.2533
