108
#Comment!
LJ           1.04083       -0.366503        0.764782
LJ          -2.13224         1.75916        -2.49797
LJ           1.81426         -1.5644       -0.196647
LJ           1.61848        0.713092       -0.111953
LJ          -2.03778       -0.223124        -1.32959
LJ          -1.34978        -1.49325        -1.38348
LJ         -0.894036        -2.55015         -2.3786
LJ           1.77153         1.11202        -1.26431
LJ           1.25114        0.181231        0.909283
LJ          -1.88085        -1.64448        -2.36756
LJ              -nan            -nan            -nan
LJ          -2.07425         2.02438        0.829964
LJ          0.234081       -0.231698        0.340684
LJ              -nan            -nan            -nan
LJ          0.702274         0.58224         -1.9934
LJ              -nan            -nan            -nan
LJ              -nan            -nan            -nan
LJ              -nan            -nan            -nan
LJ          -2.02359        -2.46927        0.666804
LJ              -nan            -nan            -nan
LJ        -0.0565528         1.40377         1.36947
LJ         -0.336439       -0.833833        -1.73302
LJ          0.867428        -1.50507       -0.479712
LJ              -nan            -nan            -nan
LJ          -1.08205         1.63963         2.12119
LJ          0.624802          -1.011       -0.685981
LJ         -0.251539      -0.0692364        -0.62833
LJ            2.3922        -1.31019       -0.225533
LJ           1.75308        -2.25711        -1.10241
LJ           1.36692         1.52648         0.65493
LJ              -nan            -nan            -nan
LJ          0.105395        0.865923          1.9889
LJ              -nan            -nan            -nan
LJ         -0.964946         0.60851         2.56003
LJ              -nan            -nan            -nan
LJ           1.93891       -0.539224         1.08938
LJ           1.36656        0.884384         2.50337
LJ          -1.94178        -1.39792       -0.968055
LJ          0.450161        -2.53328        -2.42718
LJ           1.02474       -0.921687         2.39974
LJ         -0.502608          1.4036        0.691887
LJ          -2.48531        0.637858       -0.027019
LJ          -1.18527        -2.19363         1.80716
LJ          0.525191        -2.39871        -1.97884
LJ          -2.28858        0.607013        -1.13264
LJ           1.96146        0.782431        -0.42366
LJ           2.03806         2.24677         1.74577
LJ           1.22297         2.55006         1.39442
LJ          0.886163      -0.0820703       -0.318578
LJ          -1.35112         -1.1458       0.0591716
LJ         -0.680025         2.36367        0.295252
LJ          0.416844        -1.73663         1.97306
LJ              -nan            -nan            -nan
LJ           1.36976       -0.130794         1.49824
LJ          -1.37985        -1.65867        -0.95987
LJ         -0.752404        -2.55613         1.20054
LJ           1.82432       -0.975029         -1.3788
LJ          0.425294          1.0337       -0.208661
LJ          -2.52273       -0.170547       -0.884024
LJ          -2.38387          1.1284        -0.67064
LJ          -1.43061        -1.85067         2.29148
LJ         -0.657371       -0.823282         -1.0835
LJ           1.96549         1.01881         2.49402
LJ              -nan            -nan            -nan
LJ              -nan            -nan            -nan
LJ           -1.1545        -1.65045      -0.0410799
LJ          -1.99636        -2.26235        -1.70529
LJ              -nan            -nan            -nan
LJ          0.405956        -1.00984         -2.4981
LJ          -1.14846         1.05695         2.21503
LJ          -2.09603          1.1675        -2.46306
LJ         -0.137148         2.27984         -2.2629
LJ          0.796524         1.39647        -1.58651
LJ          -2.12625       -0.108567          1.2733
LJ          -2.14264         1.55825         2.23787
LJ         -0.695818       -0.406178         1.63902
LJ          -1.61724         2.10334         1.56974
LJ           1.57895        -1.95268       -0.351376
LJ         -0.564827          2.4295         1.57606
LJ          0.400483         2.48334        -2.54161
LJ          -2.30135        0.951921         2.11017
LJ          -1.22575         1.75162        -2.18358
LJ          -1.65742      -0.0573052         2.36682
LJ         -0.169207         1.70282         1.31209
LJ           2.44449         1.74381        -2.16646
LJ          0.793616        -2.03799        -1.52381
LJ          -1.41505         2.19059         1.26336
LJ           1.04185        -2.11775         2.56418
LJ          -1.27999         1.73779         2.39698
LJ          -1.26234       -0.827682        0.476788
LJ              -nan            -nan            -nan
LJ          0.780336       -0.697831         2.21662
LJ           -1.2577        0.676217        -1.21651
LJ          -1.86693        -1.25209       -0.987015
LJ          -1.81444         1.81353        -1.42562
LJ           1.07112        -1.90839          0.3062
LJ          -0.55092         1.72917        0.171779
LJ           2.10184      -0.0277806         0.52559
LJ              -nan            -nan            -nan
LJ          -1.81014       -0.960563         1.66327
LJ          0.270075        0.742158       -0.872699
LJ          -1.24431           -1.09        -1.65356
LJ           2.25378        0.454207         2.32748
LJ          0.983905        0.180714        -1.96308
LJ              -nan            -nan            -nan
LJ         -0.769024         1.16825       -0.362446
LJ           1.93491        0.995873        -1.97101
LJ              -nan            -nan            -nan
