108
#Comment!
LJ         -0.395664         2.49225        -2.05839
LJ          -1.55538        -1.71802        -1.09195
LJ           1.70799        0.585023         2.38841
LJ          0.366565         1.10825        -2.16855
LJ           2.09618       -0.409134          1.2612
LJ          0.808915          -1.318         1.78405
LJ          0.208299       -0.705775        -1.71785
LJ           2.19536        -2.27563        0.738526
LJ           1.49236        -2.16669        -1.32563
LJ           1.97359        0.757204        -2.13061
LJ              -nan            -nan            -nan
LJ          -2.08782        -1.42319         -1.2619
LJ         -0.475669       -0.752323          0.9086
LJ              -nan            -nan            -nan
LJ          -1.75998         1.83488        -1.10624
LJ              -nan            -nan            -nan
LJ              -nan            -nan            -nan
LJ              -nan            -nan            -nan
LJ          -1.38888       -0.938073        -2.15213
LJ              -nan            -nan            -nan
LJ          0.649414       -0.171032        0.342005
LJ           1.15214        -1.52816        -1.07481
LJ          -2.56282        -1.25675         2.56198
LJ         -0.977507         1.28967       0.0518672
LJ          -1.16204         1.24629        0.322758
LJ          -2.12014        0.527422         2.44843
LJ           2.19896       -0.346914        -2.01917
LJ          -2.13438       -0.948754        -1.34814
LJ          -1.13947        0.305239        -1.01422
LJ           2.06514        0.186287         1.99887
LJ              -nan            -nan            -nan
LJ          0.930872         2.11328         2.18263
LJ              -nan            -nan            -nan
LJ          0.555793        -2.21403         1.04365
LJ              -nan            -nan            -nan
LJ           1.84829         1.25415          2.1599
LJ           1.95604        0.313764       -0.288153
LJ           2.41733         1.25513         1.81776
LJ          0.990349         1.95201        0.455021
LJ           2.05268         1.96141       -0.554347
LJ          -1.69411        -2.23342       -0.172521
LJ           1.35252       -0.338769           1.922
LJ          -2.05094        -1.68386        0.203548
LJ           1.20361         2.46668       -0.899854
LJ          -1.00614         1.56579         2.26018
LJ            1.2868         1.21781        -2.32624
LJ         -0.553294       -0.825241        -1.20507
LJ        -0.0549812       -0.639086        -1.39416
LJ         -0.338864         1.25532        -2.37747
LJ           1.40655        -0.46174        0.184261
LJ           1.36851         2.51113         1.07944
LJ           1.30061       0.0116358        0.478287
LJ              -nan            -nan            -nan
LJ          -1.37754         1.91167        0.171482
LJ          0.108147        -1.18899        -1.30972
LJ         -0.696488        0.676576          1.0789
LJ         -0.132254        -2.00019         2.08826
LJ         -0.921283        0.114571       -0.993125
LJ         -0.388567       -0.931142         2.41909
LJ        -0.0468313         2.27975        -1.28069
LJ           1.99232        -1.91845        -1.05817
LJ          0.401298        -2.50512        -1.81571
LJ          -1.35309       -0.850681        -2.37542
LJ           1.76484       -0.392659        0.399256
LJ              -nan            -nan            -nan
LJ           2.23508        0.727037       -0.562303
LJ           1.09266        -1.15815         1.34977
LJ              -nan            -nan            -nan
LJ         -0.477299         0.71692         0.44612
LJ           -1.9057      -0.0977802       -0.413926
LJ           1.23007         2.32646       -0.307225
LJ         -0.119318         1.98389        -2.12187
LJ           2.38791        0.205601        0.847113
LJ         -0.364637        0.959175         -1.8596
LJ           2.53686        -1.16359         1.81934
LJ          0.756231         1.76607       -0.415809
LJ           2.00623        -2.54866         1.25905
LJ         -0.891508       -0.678886         2.23297
LJ           2.12737        -2.27282        -1.83147
LJ           1.35026       -0.720912       -0.159379
LJ          0.402556        -1.20532         2.28216
LJ           1.14457         1.88096       -0.541354
LJ          0.999839         1.47013        -1.88497
LJ          -1.72915       -0.240521         2.12237
LJ           0.97879        -1.40163        -2.10657
LJ           1.33696        -1.92512          2.2013
LJ           2.23365       -0.378901        0.127336
LJ         -0.889313         2.41423       -0.142025
LJ          0.157227         2.00244       -0.201222
LJ          -1.22552         1.98025        -0.52965
LJ              -nan            -nan            -nan
LJ           1.56296       -0.546087         1.83478
LJ         -0.673243         1.35182         2.14718
LJ          0.784948        -1.18188         1.39854
LJ           1.26456        -1.53599         2.18125
LJ          -2.23304        0.699116        -1.67868
LJ            -2.349         1.99468         2.11637
LJ          -2.44697        0.722654        -1.61062
LJ              -nan            -nan            -nan
LJ           -1.4844         1.37902         1.35805
LJ          -1.12149       -0.799845        0.304026
LJ           1.09005        0.793694        -1.90676
LJ          -2.06697         1.42549        0.178357
LJ         0.0656193        -1.40337         1.12532
LJ              -nan            -nan            -nan
LJ         -0.300106         2.34459         1.42778
LJ          -1.67453        0.390319       -0.399367
LJ              -nan            -nan            -nan
