108
#Comment!
LJ          0.788338       -0.861668        0.743085
LJ           2.24409        0.466382        -1.16745
LJ          0.973929         0.50538       -0.751946
LJ           1.69231         2.26476       -0.366496
LJ          0.100768        -2.22531       -0.142201
LJ          0.379732        -2.30497        -1.39856
LJ           1.24788        -1.40626        0.730484
LJ           1.34287        -1.59528        -1.23869
LJ          -1.66083        -1.08998        -1.24729
LJ         -0.981293       -0.520591       -0.307287
LJ              -nan            -nan            -nan
LJ         -0.225842         -1.4493       -0.477409
LJ           2.37925        -1.96745         1.22395
LJ              -nan            -nan            -nan
LJ         -0.152285         2.03409        -1.93277
LJ              -nan            -nan            -nan
LJ              -nan            -nan            -nan
LJ              -nan            -nan            -nan
LJ           2.40976        0.745053        0.459935
LJ              -nan            -nan            -nan
LJ           2.36762         1.06094         1.02385
LJ          -2.11412        -1.23649         1.39711
LJ           1.32854        -2.32695        0.638055
LJ              -nan            -nan            -nan
LJ           1.26306        0.859824           2.206
LJ          -1.46288           1.314         1.51653
LJ           2.52363         -1.8547         1.26189
LJ          -1.74884        -1.65801       -0.809729
LJ          -0.31612         1.67878       -0.920771
LJ          -1.20082       -0.678844        0.764216
LJ              -nan            -nan            -nan
LJ          -2.09028         1.21945         1.56819
LJ              -nan            -nan            -nan
LJ          -2.24487         -1.0732        0.562846
LJ              -nan            -nan            -nan
LJ          -1.42106        -2.52373         1.50513
LJ           2.18337         1.76108         2.27467
LJ            1.6673        0.517299       -0.635385
LJ          0.473462        -1.16424       -0.124257
LJ          -1.63562         -1.9622       -0.757145
LJ          0.128489         1.30459        -1.22613
LJ          -2.26389         1.84267       -0.560042
LJ           2.01307       -0.264462        -1.19091
LJ           2.50899        -1.37857        0.845785
LJ          -2.02706         1.82365          1.5299
LJ          0.770708         1.96024        -1.22327
LJ        0.00536105        0.272982         1.64913
LJ         -0.879138         1.23948       -0.506962
LJ            1.8186       0.0938994       -0.181913
LJ         -0.992656         1.70099        -1.09583
LJ          -2.19728         1.23492         1.96034
LJ          0.944679         2.26743       -0.409465
LJ              -nan            -nan            -nan
LJ           2.42048         0.51569        -1.84453
LJ          -1.70276         2.16488         1.91796
LJ          -1.24679        -2.35103         2.24501
LJ           -1.3299       -0.228923        0.505301
LJ           1.43176        -1.76782        0.710598
LJ           1.37462         1.04557         0.97581
LJ         -0.691091        -1.29974        -1.56878
LJ           2.19163        0.373157        -1.09978
LJ           2.02581       -0.882309      -0.0437361
LJ         -0.563427        -1.68992       -0.175423
LJ              -nan            -nan            -nan
LJ              -nan            -nan            -nan
LJ          -1.60972        -1.12415         1.17299
LJ           1.32331        -2.30062         1.44662
LJ              -nan            -nan            -nan
LJ          -1.38636        0.875883        -2.00457
LJ          -1.14276         2.35239        0.129135
LJ            0.6069         1.12431         1.96262
LJ           1.78069       -0.424365        -0.77601
LJ           1.65181        0.368435        -1.22908
LJ          0.931867        -1.71649         0.21114
LJ          -1.13681        0.114442          1.8732
LJ          0.103529        -1.99078       -0.908988
LJ          0.813007          2.3706         1.28455
LJ         -0.148242        -1.79345         1.90171
LJ         -0.638551         1.51533       -0.246521
LJ         -0.671563        0.616048        -2.26549
LJ           1.63042        0.703715        0.757894
LJ          -2.18591         1.11936          1.9962
LJ         -0.840411        0.244565        -1.53335
LJ         -0.655152        0.232865       -0.590234
LJ         -0.426869        0.595181         1.22753
LJ           2.52165        -1.51588       -0.844372
LJ          -1.75962       -0.889949        -1.26999
LJ        -0.0769026        -1.99743        0.618397
LJ           1.11914          2.3371       0.0102404
LJ         -0.379227        0.858207         1.59015
LJ              -nan            -nan            -nan
LJ          0.525717        -1.23629         2.38053
LJ         -0.585798        -2.29369         -2.3055
LJ          -1.13089        -1.22253         1.44593
LJ          0.327238         2.25106       0.0786419
LJ         -0.966452        -1.04486        0.611384
LJ          -1.33614        -1.69659         1.87834
LJ           2.51141         1.39758       0.0872536
LJ              -nan            -nan            -nan
LJ           1.64377        -1.89143        0.930637
LJ           1.86957        -2.28271        -1.76988
LJ         -0.786522        0.160879        -1.81061
LJ           2.53414        -1.04897        -1.14777
LJ           2.38387        0.013672         1.00515
LJ              -nan            -nan            -nan
LJ           2.51836         1.41927          2.0891
LJ           2.43037        0.075057        -1.50711
LJ              -nan            -nan            -nan
