108
#Comment!
LJ           2.52035       -0.938313         -1.2848
LJ          0.681028         1.43906        0.632442
LJ          -2.28206        -1.82654        -2.36253
LJ           0.19952         0.98141        -1.42366
LJ          -1.93539        -1.83435         1.45381
LJ         -0.529136         2.52428      -0.0543639
LJ         -0.760095         1.04023         1.18716
LJ          -1.99341         1.98399        -1.70017
LJ           1.06438        -1.82958         1.40585
LJ          -0.81071       -0.955309        0.142304
LJ              -nan            -nan            -nan
LJ          0.731562       -0.951822        -1.58068
LJ          -1.88018         1.84354       -0.587215
LJ              -nan            -nan            -nan
LJ          -1.16708        -1.42684        -2.05908
LJ              -nan            -nan            -nan
LJ              -nan            -nan            -nan
LJ              -nan            -nan            -nan
LJ          -2.23768        -2.40775        -1.18799
LJ              -nan            -nan            -nan
LJ          -1.02613        0.968721       -0.964797
LJ          -1.88254         2.44093         1.44232
LJ           1.36683        -2.45582       -0.488304
LJ           1.51883        -2.52666        -1.20919
LJ          0.934718        -1.19889       -0.127297
LJ          -2.29993        0.265386        -1.02103
LJ           1.97322         1.60187         2.22168
LJ           2.01887          2.4451       -0.065346
LJ           -1.9014         2.20872       -0.773124
LJ           1.08798        0.485656       -0.535513
LJ              -nan            -nan            -nan
LJ           1.84561       -0.301005       -0.468202
LJ              -nan            -nan            -nan
LJ           1.48036        0.464167         2.54476
LJ              -nan            -nan            -nan
LJ         -0.423358        0.149702        0.815347
LJ         -0.929959         1.22876           2.142
LJ           1.77872       -0.777622        0.347963
LJ         -0.189907       -0.122015       0.0434902
LJ        -0.0594209        0.796906        -2.34076
LJ         -0.770415        -2.44338        -0.95451
LJ           -1.0144        -1.24393         2.52713
LJ           2.26319        0.704916         2.22416
LJ           -1.3308       -0.998405         2.41021
LJ           2.50394       -0.638436        -2.07162
LJ          -1.74327        -1.57194        -1.63095
LJ           1.74263        -2.44701         1.21263
LJ         -0.139724        0.132417        0.368616
LJ           1.11839        -0.17887       -0.690985
LJ           1.28039         2.51501        0.472195
LJ            1.8852         2.39088       -0.338571
LJ          0.743202       -0.962225        -1.20339
LJ              -nan            -nan            -nan
LJ           1.40609        -2.50311        -2.54399
LJ           1.44596        0.747069        -1.41989
LJ          -1.37305       -0.032459        -1.07877
LJ          0.817872       -0.058918         1.01045
LJ         -0.872747       -0.113033        -2.28342
LJ         -0.777023         1.49062         1.14718
LJ          -1.42757        0.144139         1.51407
LJ          0.549037         2.32411         2.32087
LJ          0.667815        -0.10006        0.862437
LJ           1.59421        -2.36341        0.436542
LJ          -1.01603          1.5645        0.305109
LJ              -nan            -nan            -nan
LJ           2.15601       -0.641449       -0.629075
LJ           1.79199         2.10119       -0.581767
LJ              -nan            -nan            -nan
LJ          -1.49751        -1.13378        -2.29297
LJ          -1.34976         1.93816         2.42063
LJ          0.799441        0.318224         1.78781
LJ          0.859081       -0.424268        0.524366
LJ         -0.661354        0.978707       -0.510444
LJ          -1.59727         2.36022         2.43921
LJ          -1.23063         1.80921         1.72864
LJ          -1.54362       -0.415178        -1.05675
LJ           1.89339        -2.52394        -1.48912
LJ           1.33784       -0.246019        -0.80864
LJ          -2.34242         1.23817         2.30839
LJ           0.85864        -1.90019         1.36582
LJ          0.693345           1.624       0.0624031
LJ          -2.51183        0.159795         1.88956
LJ          0.412435         1.70522       -0.369118
LJ           2.04384        -0.42459         1.00737
LJ           2.52956          1.7463        0.802901
LJ          0.780869        -1.47903       -0.615473
LJ           1.95897        -1.25163         1.31203
LJ         -0.539922       -0.415036         1.98016
LJ           1.01379         1.50059        -1.82104
LJ            0.0862         2.16206        0.436662
LJ              -nan            -nan            -nan
LJ            -1.454        -1.78521       0.0748503
LJ           -1.2112         2.01896         1.18885
LJ          -1.46223        -2.54237         1.81709
LJ          0.181129       -0.060863         1.78918
LJ           1.22377          1.5026         1.72977
LJ           1.43163        0.181723         1.89828
LJ          -1.16092       -0.515793         -2.2956
LJ              -nan            -nan            -nan
LJ           1.27162         2.04764       -0.451518
LJ          -1.31318         1.39365         1.04528
LJ         -0.792179         1.85195        -1.96196
LJ           2.37067        -1.03449        0.929471
LJ          0.790232         1.24962         2.35864
LJ              -nan            -nan            -nan
LJ           1.30453         1.00152       -0.348598
LJ          -1.50407         2.34261         1.06539
LJ              -nan            -nan            -nan
