108
#Comment!
LJ          -2.09423        0.711612        0.191419
LJ           2.43954        -2.53873         1.05026
LJ          0.214035        -2.56481         2.03841
LJ           2.34166        -2.37258         1.18869
LJ           1.90783        0.985993         1.44529
LJ          -1.70714        -2.38846        0.921456
LJ          0.355421       -0.548336        0.310608
LJ         -0.133984        -1.69378         1.21029
LJ            2.2746       -0.438009        -2.25925
LJ          0.976966        -1.61112        -0.80737
LJ              -nan            -nan            -nan
LJ         -0.956206       -0.052172        -1.83075
LJ           1.74803        -1.47978         2.20462
LJ        -0.0152234        0.263463        -1.15371
LJ          -2.48562        -1.58919       -0.505701
LJ         -0.746453        -1.43391        -1.10012
LJ              -nan            -nan            -nan
LJ              -nan            -nan            -nan
LJ          -1.76538        -0.57713        -1.79345
LJ              -nan            -nan            -nan
LJ           1.00565        -1.93842         1.85374
LJ          -1.57675        -0.27763         1.73502
LJ         -0.956686        -1.20845        -1.21974
LJ           2.24275        0.302277       -0.178633
LJ         -0.232518        0.790417         1.15418
LJ          0.800318       -0.695048       -0.116911
LJ           2.40234        -0.34486        0.459108
LJ         -0.786857         1.05551       -0.954811
LJ           -2.2739        -2.27377         1.03369
LJ           1.66183        0.297557        -1.06864
LJ          -2.39616        0.496138       -0.295475
LJ          -1.09011         1.57583          -1.356
LJ              -nan            -nan            -nan
LJ         -0.327835        0.244877        0.585798
LJ              -nan            -nan            -nan
LJ           2.13055         2.44966        0.871694
LJ          0.249079         2.40689       -0.599927
LJ            2.3985        -1.95336         2.01229
LJ         -0.295293        -1.46625        -1.01182
LJ           1.24115        -2.40176         1.94542
LJ           1.48086        -1.65137       -0.703277
LJ          0.758776        -2.07343           1.508
LJ         -0.433594         1.58893        -2.11109
LJ          0.976294          1.3767        -2.29534
LJ           2.27211         -2.3461        -0.83501
LJ           1.85165        -2.13521        -1.18345
LJ           2.48129         2.04233        0.278746
LJ         -0.667125        -0.64982         1.35041
LJ          -1.18658         1.71556         2.28097
LJ           1.29747        -1.61064        -1.67017
LJ          -1.63157          0.9022        -2.17659
LJ          -2.24458         1.79129         2.16927
LJ              -nan            -nan            -nan
LJ          0.991737         1.91239        -1.18229
LJ           0.20823       -0.747822        -2.55911
LJ       -0.00565602        -2.00531        0.328708
LJ          0.102985         1.46322       -0.910306
LJ           2.01628       -0.987325       -0.113761
LJ         -0.740714        -1.45657         1.66167
LJ           2.02063        0.346887       -0.916209
LJ          0.879937       -0.526959         1.45516
LJ         -0.677323         1.99249        -1.27636
LJ          -2.25879         1.64261       -0.903141
LJ          -1.88442         1.09025       -0.833287
LJ           -1.3463         2.12118         1.90347
LJ           2.38537        0.213869         -1.3216
LJ         -0.245544       -0.512748         1.75138
LJ              -nan            -nan            -nan
LJ         -0.788067         1.27639        -2.26919
LJ           1.79388        0.715359         1.68314
LJ          -1.71244        0.968325        -1.18825
LJ          -1.17623         1.64747       -0.709433
LJ            1.7384          2.4724        0.372885
LJ          -1.59371         0.96913       -0.820254
LJ          0.770399           -2.51        0.423766
LJ         -0.843552        -1.57694        -1.93788
LJ          0.933732        -1.01597       -0.188143
LJ           2.04585       -0.940969        -1.87896
LJ          -2.42649       -0.480757       -0.354017
LJ          -1.80898          1.2483         0.56084
LJ           1.33679        0.993121       -0.657079
LJ          0.912949       -0.311451        0.990865
LJ         -0.826094         2.17389        -2.29231
LJ           1.91325         2.40208       -0.707345
LJ           1.45694         1.31428        0.366588
LJ          -0.42044         2.05125         -2.2257
LJ          0.460118        0.287041        -2.32574
LJ          -1.91541        -1.36507       -0.968612
LJ         -0.470366         0.74485        0.364578
LJ           1.10711        -1.06296         1.95106
LJ              -nan            -nan            -nan
LJ           0.35163         1.45289        -2.22692
LJ          -1.97278        0.479704       0.0496964
LJ           2.03532         1.71169         1.97994
LJ          -1.33919        0.519615       0.0335838
LJ          0.871821        -2.56072         1.06348
LJ          0.122067        -1.77643       0.0149194
LJ           1.80791         2.54409         2.50696
LJ           1.74346         2.28196         2.33533
LJ          0.689515         2.33164         1.10303
LJ          -2.36966        -1.26656        0.732227
LJ          -2.48806         1.01751         1.98077
LJ          -0.51473       -0.953315        -1.48987
LJ         -0.216646       -0.989793         2.16466
LJ            2.4175       -0.351045       -0.206158
LJ          0.678723        -2.56359        -1.42252
LJ           2.43434        -1.94182        0.459303
LJ              -nan            -nan            -nan
