108
#Comment!
LJ          0.177874         1.90304         1.92233
LJ          -2.11621         1.26151        -2.33956
LJ           1.82178        -1.06875      -0.0183725
LJ           1.48215       -0.426175      -0.0475053
LJ           1.60434        0.493972        -0.28478
LJ          -2.27581        -1.95619         2.55497
LJ           1.60969        0.328985        0.697774
LJ          -1.25946         1.31645        -1.00993
LJ         0.0135598        -1.35356        -2.08559
LJ           2.47498        -1.76658        0.637601
LJ              -nan            -nan            -nan
LJ          -0.25535         1.95269       -0.301593
LJ         -0.383375        -2.37203        0.309705
LJ              -nan            -nan            -nan
LJ         -0.995689        -2.49139        -1.07568
LJ              -nan            -nan            -nan
LJ              -nan            -nan            -nan
LJ              -nan            -nan            -nan
LJ          -2.36343         1.14301      0.00928036
LJ              -nan            -nan            -nan
LJ             1.273        -1.55292        0.608076
LJ         0.0263332         2.26627       -0.234209
LJ          -1.89043        0.323446       0.0416542
LJ              -nan            -nan            -nan
LJ           2.23887         2.37788         2.38246
LJ         -0.604466        0.654581        -1.55889
LJ          0.960513        -1.02115        -2.21231
LJ           1.84733          1.0483        -1.67149
LJ          -1.80598        -2.56076        0.190523
LJ           2.47171         1.36158        -1.49537
LJ              -nan            -nan            -nan
LJ           1.62238         2.20036        -2.12691
LJ              -nan            -nan            -nan
LJ          -2.31614        -2.28711       -0.901728
LJ              -nan            -nan            -nan
LJ            2.3284       -0.114574        -1.93265
LJ          0.154771        -2.36313          1.7991
LJ          -1.90266       -0.263192        -2.26484
LJ          -2.32754          1.2072        0.601591
LJ          -1.10838         2.44881         2.29684
LJ          -1.50493        -2.23247         1.67275
LJ          -2.35992         2.51667        -2.12564
LJ          -2.18804          1.2703          0.9352
LJ           1.93622        0.191357        -1.30859
LJ          0.548969       -0.795497        0.866244
LJ           1.03129         1.70614        -1.40395
LJ           2.42281        -2.20848         2.26877
LJ          0.755229        -2.32842         2.17172
LJ          -1.02945         1.62814        -1.65507
LJ          -1.04765         2.35467        -1.50354
LJ          -1.57318         2.28574         -2.4074
LJ           2.01036        -1.63784         1.16818
LJ              -nan            -nan            -nan
LJ           1.99507        -1.95315        -1.21502
LJ         -0.418014          1.2249         2.26622
LJ         0.0446928           0.874       -0.149628
LJ         0.0797141        -2.26401       -0.343818
LJ          -1.71294       0.0788932        0.557077
LJ          0.562012         1.27988        -2.49275
LJ          0.461573       -0.703073         1.49887
LJ         0.0166489        -2.00095        0.582963
LJ           1.72865         1.93524       -0.722435
LJ           1.02462        -1.88332          1.2881
LJ              -nan            -nan            -nan
LJ              -nan            -nan            -nan
LJ           -1.6868       -0.113964        0.614455
LJ          -1.38661        0.782731         1.28971
LJ              -nan            -nan            -nan
LJ         0.0275524         -1.2068        -0.77732
LJ           1.08453        -2.37583          2.0611
LJ          0.666097         2.38692         0.21366
LJ           0.51337        -2.37484        0.643371
LJ          -1.60288         1.81661        -1.95559
LJ          -2.32371        -0.71839         2.27838
LJ          -2.48673        -1.33943       -0.497183
LJ        -0.0834121        -1.14035        -1.33291
LJ          -1.14876         1.47212        -1.78972
LJ         -0.731033       -0.247471       -0.661269
LJ         0.0212392         1.29378          1.0144
LJ           1.41402       -0.578647       -0.344243
LJ           1.64469       -0.520279        -1.51443
LJ          -1.23025         2.55328         1.29193
LJ          0.905792         2.44696         1.54079
LJ          -2.47967         1.42132         1.68539
LJ           1.59369       -0.365579         2.51392
LJ          0.470881         -2.1073         2.45382
LJ          0.541102        -0.97788         2.00271
LJ          -2.38115       -0.766066     -0.00556033
LJ           0.22262         1.23923         2.43126
LJ          -1.37768         2.05342         2.04899
LJ              -nan            -nan            -nan
LJ           0.96298        -1.26955        -1.57248
LJ          -2.18204        -1.92298         0.52705
LJ           1.29337         2.33576       -0.659376
LJ           1.24403         2.53056       -0.333052
LJ           1.51527       -0.527895        -1.33534
LJ          -2.31413       0.0328632         2.52794
LJ          0.282887        -1.67829        -1.00366
LJ              -nan            -nan            -nan
LJ          0.277833         2.43831        -2.36744
LJ           2.39603         2.39769        0.482659
LJ         -0.275293         1.80493        0.829519
LJ         -0.421957       -0.876347        0.740539
LJ         -0.825574         1.76979       -0.294576
LJ              -nan            -nan            -nan
LJ         -0.696386         1.35827         2.08654
LJ          -1.07164        -1.10303        -2.53703
LJ              -nan            -nan            -nan
