108
#Comment!
LJ          -1.35956         0.83202        0.267242
LJ         -0.431461    -0.000279026        -1.88518
LJ           1.75873     -0.00509384         1.74954
LJ          -2.14534         2.51306         1.26964
LJ           1.30955       -0.826272        -2.25998
LJ           -1.2573        -2.27763        -1.28846
LJ          -2.32262       -0.935654       -0.629744
LJ          -2.31248        -2.31619        -2.42115
LJ            2.4504       0.0379332        -2.17412
LJ           1.71043       -0.198907       -0.849286
LJ              -nan            -nan            -nan
LJ          -1.58495         1.04843      -0.0670978
LJ          -2.48985         2.32237         1.01851
LJ          0.270317         1.03139         1.62856
LJ          -2.44306         1.72369        -1.16886
LJ          0.588215         1.23634         1.10197
LJ              -nan            -nan            -nan
LJ              -nan            -nan            -nan
LJ         -0.857724       -0.570565        0.630759
LJ              -nan            -nan            -nan
LJ          -2.34951         1.05496         1.82583
LJ        0.00916857       -0.194011       -0.463957
LJ          -1.06802        0.870892          1.4675
LJ          0.810916        0.397003         1.68931
LJ           2.29197       -0.855008         1.53088
LJ           1.64595        0.481941       -0.199424
LJ          0.739771         -1.5587       -0.257445
LJ         -0.634506        -2.02981         1.18147
LJ          -1.23679        0.839099         2.09728
LJ          -0.93358       -0.591102        -1.49495
LJ          0.773173          2.4339         1.97118
LJ           1.84431       -0.757914       -0.260656
LJ              -nan            -nan            -nan
LJ           -2.1229         1.94722         1.88861
LJ              -nan            -nan            -nan
LJ          -1.45167         1.32216      -0.0178432
LJ           2.27173        -1.62759        -1.02945
LJ           0.16472       -0.201601        -1.99307
LJ          0.804034        0.598054        0.461708
LJ          -0.34339         -1.9114         2.46811
LJ           1.38999        -2.01118         1.10045
LJ           1.85799        -1.57356         -1.9201
LJ          -1.21204        -1.49056        0.785909
LJ           1.26815        0.260917         1.24636
LJ           1.54328        -2.48715       -0.116919
LJ           -1.7988       0.0718986            1.67
LJ           2.07617      -0.0360109        0.706047
LJ          0.406913        -2.26002        -2.00794
LJ         -0.711254         2.07951       0.0354273
LJ           1.25531         1.15033        -2.26884
LJ          -1.17351       -0.417491        -0.49112
LJ           2.02958      0.00483401         1.98607
LJ              -nan            -nan            -nan
LJ           -2.1723         2.47345         2.53993
LJ          0.148102        0.219218        -1.48164
LJ           1.94014        0.573993        0.457659
LJ           -2.1532        -2.34017         1.89365
LJ          0.693142       -0.776892         1.35648
LJ          0.683958       -0.655659         1.25604
LJ          0.423215       -0.865192        -2.17961
LJ          0.642851        0.704577       -0.983485
LJ           1.57396        -2.50243       -0.653507
LJ           2.41098        0.447457        0.753033
LJ         -0.932058       -0.834898        0.842811
LJ          -2.50565         2.33816       0.0497833
LJ         -0.569578         -0.3404        -2.30615
LJ          0.983862        -2.10545        -2.17243
LJ              -nan            -nan            -nan
LJ          0.934529       -0.969184        -1.10765
LJ         -0.470455        -1.07656        -1.37829
LJ          -1.11302        0.607707       -0.679306
LJ           -1.6829       -0.484826        0.541244
LJ           0.21616         1.51161        -1.69381
LJ         -0.770786        0.196131         1.77733
LJ          0.600395       -0.346268         -2.5512
LJ          -2.26392         2.26247         1.92828
LJ           1.40448        -1.68059        -1.51665
LJ           1.48813        -2.54383         1.29483
LJ          0.791315         1.23477        -1.22304
LJ         0.0142193        0.602827        -1.95044
LJ          -1.57017        -1.86335         2.11296
LJ           1.18304       -0.278544        -1.69877
LJ          0.155938        0.241567        0.422447
LJ         0.0762766        0.617916        0.643047
LJ           1.74807        0.247704        -2.55236
LJ          0.709595       -0.725166        -1.37744
LJ         -0.941548         1.98245        -1.32166
LJ          -1.23943        -1.53071        -2.07168
LJ           1.56335         1.07174        -2.24889
LJ         -0.226644         1.93635         1.77297
LJ              -nan            -nan            -nan
LJ         -0.631609        0.144143         -1.7924
LJ          -0.29522         1.84173         1.22018
LJ           1.21839        -2.44725       -0.378192
LJ           1.22519       -0.365798       -0.443601
LJ          -1.49329        0.654037        0.830901
LJ          -1.84961        0.674006       -0.584609
LJ           1.73459         2.26527      -0.0846954
LJ          -1.61464        0.343106         -1.4861
LJ          -1.08369         1.32952         1.49358
LJ          -1.52977       0.0609408        0.437161
LJ           0.58416        -2.49276         2.02286
LJ          0.137929         1.23689        0.275719
LJ           1.64304         2.09618         0.26161
LJ          0.636981        -1.07753          2.3367
LJ           2.29688         2.38074        0.310165
LJ          -2.02482         2.37018        -1.33482
LJ              -nan            -nan            -nan
