108
#Comment!
LJ          -0.46868         1.24331        0.724444
LJ           1.78637       -0.952532       -0.967402
LJ         -0.239788         2.44196        -1.69176
LJ           2.18836        -1.83576        -1.00527
LJ           2.07701     -0.00668541        -1.85728
LJ           2.26972         -1.5234       -0.383781
LJ         -0.919793        0.354356       0.0835132
LJ           1.14781        -2.23963        -1.93366
LJ          -2.50208        -1.75057        -1.93574
LJ          -1.54238        -1.96732       -0.681506
LJ              -nan            -nan            -nan
LJ           -1.1531         2.07686        -1.41731
LJ           2.14001        -2.34227       -0.362644
LJ              -nan            -nan            -nan
LJ         -0.983619        -1.51222       -0.444033
LJ              -nan            -nan            -nan
LJ              -nan            -nan            -nan
LJ              -nan            -nan            -nan
LJ           2.54678         1.38351        -2.23845
LJ              -nan            -nan            -nan
LJ         -0.346643         1.64437        -1.70647
LJ         -0.989644         2.01312         2.50954
LJ           1.16944         2.45371          1.6645
LJ              -nan            -nan            -nan
LJ            2.1853        -1.50332        0.306754
LJ          0.112615      -0.0514162        0.627315
LJ           1.31812        -1.69113       -0.352489
LJ          -2.19043        -2.15026      0.00287018
LJ          -1.90873        0.304694       -0.336795
LJ          -1.89778       -0.287612        0.979221
LJ              -nan            -nan            -nan
LJ          -1.29083       -0.195812          1.6935
LJ              -nan            -nan            -nan
LJ         -0.625733          1.9368         2.19051
LJ              -nan            -nan            -nan
LJ           1.88994        -1.64138         2.20089
LJ          -0.69492       -0.621148           1.851
LJ           1.60123        -2.18586        0.197306
LJ         -0.222165        -0.25806          1.4385
LJ          0.831315       0.0122264        -1.76849
LJ           -2.1557         2.03273         -1.6406
LJ         -0.497104        0.761583         1.34506
LJ          0.121965        0.424735        -1.95663
LJ           2.31803        -1.33513         1.48352
LJ         -0.582116         1.04991       -0.943212
LJ          -1.83287         -2.3843         1.93911
LJ          0.237757        -2.09111        0.138299
LJ            1.0762       -0.557769         1.31223
LJ           1.70719        0.786818        0.393932
LJ           1.58144         -2.1613         1.51988
LJ         -0.465431      -0.0966814        0.906378
LJ           1.83546         2.18746        -1.48535
LJ              -nan            -nan            -nan
LJ         -0.618899          1.5028        -1.92364
LJ          -2.47902         1.08251        -1.90409
LJ         -0.982249       -0.842363         1.87672
LJ           1.44106        -1.21458         1.74965
LJ          -2.28815         1.93387        -2.26548
LJ            -1.043        -1.59883         1.89043
LJ         -0.549307        0.334169         2.43496
LJ           1.52719       -0.950941         1.12866
LJ          0.831285        0.151831        0.832676
LJ          0.971934       -0.560966         1.86207
LJ              -nan            -nan            -nan
LJ              -nan            -nan            -nan
LJ        -0.0434594         2.49405        -1.80943
LJ            1.7299         2.06263        0.957362
LJ              -nan            -nan            -nan
LJ           1.11691        -1.99658      -0.0727105
LJ           2.34362        0.484644        0.753336
LJ          0.554807         1.42653        -1.94034
LJ          0.505467         1.82133       -0.324223
LJ          0.332554        0.675813       -0.465385
LJ          -1.57188          2.0344        -2.23939
LJ            1.4083     -0.00845221         2.05913
LJ         -0.806516        0.565797         1.08176
LJ           2.06818        0.780349         2.56042
LJ           1.08413        -1.34648         2.55133
LJ          -1.62319        -2.36452        -1.02462
LJ         0.0270502         2.30898        -2.01475
LJ           2.22649       -0.599772         1.00569
LJ          -0.80651        -1.72204         2.14885
LJ          0.111828         1.55314        -1.63958
LJ          -2.10318        -1.73565        0.612584
LJ          0.797447        -2.06465         1.83913
LJ          -1.96979        0.648364         1.28111
LJ          -1.78052       -0.409932        0.163616
LJ           2.18111         -1.0895         1.41905
LJ          0.358344        -1.89473        -2.41038
LJ            1.5441        -2.10804      -0.0236551
LJ              -nan            -nan            -nan
LJ          0.469356        -1.62614          1.1857
LJ           1.71377         1.15885        0.617241
LJ         -0.606357         2.24915       -0.441218
LJ          -2.22613        -1.63173          -1.788
LJ           1.30225        -0.47034        -1.03507
LJ          -2.49435          1.8452     -0.00427874
LJ         -0.165537       -0.869445       -0.955522
LJ              -nan            -nan            -nan
LJ          -1.10581        -1.88793        -1.97499
LJ          -1.10578       0.0641977       -0.152388
LJ          0.822107         1.95467          1.4837
LJ          0.853593         2.53929       0.0301204
LJ           2.16243        0.530281         2.18481
LJ              -nan            -nan            -nan
LJ          -1.52329          1.2377        0.895198
LJ          -0.31658         1.70801        0.466106
LJ              -nan            -nan            -nan
