108
#Comment!
LJ           0.17623       -0.886093         1.70456
LJ           1.51979       -0.996999       -0.330759
LJ           1.60887         1.73764        -1.39016
LJ          -1.72323       -0.837065       -0.720798
LJ         -0.177257        -1.29313       -0.168256
LJ          -1.59651        -2.10834         1.80241
LJ          0.554647         1.37183        0.919761
LJ            -1.023         1.01589        -1.56858
LJ            1.7861         1.22643        0.119163
LJ         -0.313027        -1.80467        -1.36938
LJ              -nan            -nan            -nan
LJ         -0.471243         0.11171        -1.20396
LJ           1.67833        -1.18542        0.599398
LJ           1.48841        -1.53582         2.09158
LJ           1.01393          2.0318        -0.75076
LJ          0.335893        0.810066      -0.0063154
LJ              -nan            -nan            -nan
LJ          0.654874       -0.581601         1.36216
LJ           -2.3728        -0.45149         1.70945
LJ              -nan            -nan            -nan
LJ          0.683571        -2.11081        0.747824
LJ          -1.64522         1.11329        0.433074
LJ           1.42241        -0.88993          -1.156
LJ          -1.83266       -0.567939       0.0987228
LJ           1.08913          1.6719       -0.764776
LJ           1.28204        -1.80586        -1.24842
LJ         -0.937108         2.53766        -2.23155
LJ           2.04522         -2.2712         2.30487
LJ           1.86867       -0.746889        0.956999
LJ          0.160119        -2.00929         1.35031
LJ          -1.44019         0.75365       -0.341067
LJ          0.744918       -0.502784         1.97115
LJ              -nan            -nan            -nan
LJ           -1.4014        0.544157        -2.38807
LJ              -nan            -nan            -nan
LJ          -1.44283         1.95436        -1.79881
LJ           1.24604         1.88194          1.7486
LJ            1.3806        0.283433        -2.11931
LJ          0.890453        -1.87136       -0.773544
LJ           2.06897         1.03279         1.96594
LJ         -0.284561        -1.58963         1.48056
LJ           2.51348         1.65816        0.188282
LJ          0.599371       -0.441708         1.88455
LJ           1.60567         1.16277       -0.607854
LJ          0.725337        -1.43694        0.829148
LJ          -1.52879        -2.04354        -1.45965
LJ           1.57814        0.598601        -2.20883
LJ         0.0147542         1.14268        -1.55608
LJ          -1.72786        -2.18324         2.49953
LJ          -1.05096        -1.23721        0.240178
LJ          -1.72399        -1.21581         1.51032
LJ          0.877423        0.410336         1.69104
LJ              -nan            -nan            -nan
LJ           0.13261        -1.53852        -2.14709
LJ           -1.4416        -2.22409        0.124562
LJ          -1.09578         2.46543        -2.34302
LJ         -0.815044        0.498541         2.40454
LJ           1.39039          1.1244        0.324186
LJ          -2.02788         1.62416        0.224938
LJ           -1.9682       -0.727562        0.435704
LJ           0.82621         1.99357        -1.43115
LJ          0.920086        -1.04466        0.794213
LJ          -1.06274         1.02133        -1.57761
LJ          0.374208       -0.796811        0.137819
LJ          0.206152         2.20063        -1.18788
LJ          -1.31453        -1.34568       -0.969766
LJ          -1.63149         -1.9851         2.11673
LJ              -nan            -nan            -nan
LJ          0.963066        -1.06477        -2.11032
LJ           2.10058         1.03069        -1.77206
LJ          0.704267       -0.599215         2.42944
LJ          -1.33381        -2.49546         -2.3732
LJ          -1.73014        0.228951        -2.33175
LJ          -0.22548         2.25365        0.660019
LJ          0.681045        -2.05632         0.58898
LJ         -0.763259        0.193909         2.10968
LJ          0.756774         -1.5563       -0.748783
LJ         -0.609385         1.69784         1.58877
LJ           1.41091        -0.62632       -0.649657
LJ           2.35402         1.64667        0.374559
LJ          -1.27724        -1.93216         2.23821
LJ          0.744755      -0.0840349        -2.32052
LJ          0.221715         -1.0289         1.29909
LJ          0.134111       -0.233227        -1.54663
LJ          -2.11615        0.802624         1.57798
LJ           2.24843         2.48185         1.40155
LJ          -1.17621         1.71926         2.24516
LJ          -1.22772         1.46457        -1.12624
LJ          -2.05931        0.594795         -1.3487
LJ          -2.54241        -2.53791       -0.703301
LJ              -nan            -nan            -nan
LJ          -2.16182        -1.24801         -1.7836
LJ          -1.77208        -1.32014       0.0404343
LJ           -1.4222         0.81723        -1.18888
LJ         -0.420832        -1.79661         1.21675
LJ          0.630243        -1.73369        -1.46125
LJ          -2.41168       -0.991828        -1.70928
LJ         -0.561127       -0.314595         -2.5383
LJ           2.10029        0.346985        -1.11049
LJ          -2.41352        -2.46137         -2.4658
LJ          0.740815        -1.07218         2.35429
LJ           2.33049         1.32439         1.98838
LJ          0.265514         0.46999         1.93775
LJ         -0.996621        -1.07947      -0.0886849
LJ           2.35937       0.0155089         -1.5494
LJ           -1.2814            1.16        0.956541
LJ           1.54081        -2.26528        0.192341
LJ         -0.391213        -1.34399       -0.753519
