108
#Comment!
LJ          0.500342         2.20526      -0.0289297
LJ          -1.21091        -1.00471         1.31993
LJ          -1.42414        0.251957         2.05463
LJ          -0.67168      -0.0260758       -0.240425
LJ          0.459876           1.318       -0.535216
LJ           2.38354        0.499364       -0.732702
LJ          0.863971        -2.36029         -0.2421
LJ           2.00293       -0.356353         2.32302
LJ         -0.865717         2.37115        -1.12468
LJ           2.24785        -1.46203         1.95812
LJ              -nan            -nan            -nan
LJ          -1.09682        -1.61725        -1.25085
LJ          -2.27152       -0.558908        0.483832
LJ              -nan            -nan            -nan
LJ          -2.53696         0.75755        -1.73789
LJ              -nan            -nan            -nan
LJ              -nan            -nan            -nan
LJ              -nan            -nan            -nan
LJ          -1.76705        0.209324        -2.18996
LJ              -nan            -nan            -nan
LJ          -1.91636         2.52723       -0.845772
LJ         -0.559932         2.39923         2.23735
LJ           1.09694        -1.98127         2.09218
LJ              -nan            -nan            -nan
LJ           1.40915        0.859644          1.0477
LJ         -0.342205        -1.86425        -1.11333
LJ         -0.869224        0.539289        -1.13642
LJ            0.5252         1.87234       -0.189194
LJ           1.72094          -1.511        -2.34866
LJ          -1.19946        -1.05327         2.19074
LJ              -nan            -nan            -nan
LJ          0.242996        -1.10162        0.716222
LJ              -nan            -nan            -nan
LJ           1.83069       -0.792876       -0.143802
LJ              -nan            -nan            -nan
LJ           1.29155        0.722042         0.57873
LJ           2.26682        -0.87117         -1.8945
LJ           1.50059        0.563672        0.373509
LJ         -0.423097       0.0353531      -0.0657351
LJ        -0.0625114       -0.378737       -0.148744
LJ          -1.62035         1.87442         2.00698
LJ           1.07031       -0.540262        0.355498
LJ         -0.219205        -1.71386        -2.12525
LJ           1.35958        -2.27431        -1.48298
LJ         -0.924272        -1.03424        -1.39038
LJ          -1.17989         -1.6167        0.994704
LJ          -2.47149         1.79348       -0.196941
LJ            1.5255       -0.512324       -0.221527
LJ          -1.64559       -0.680397         1.35591
LJ          0.550455        -1.98005         1.57893
LJ          0.745188        -1.95629        -1.86338
LJ           1.52386         2.05902        0.954422
LJ              -nan            -nan            -nan
LJ           2.12401         2.54087         2.35023
LJ            1.3689         2.03254        -1.81082
LJ            1.6005       -0.541911         1.57148
LJ           2.46186       -0.528958       -0.858741
LJ          0.981344        -1.04321       -0.632702
LJ          -2.23211        -1.97186        0.702458
LJ           2.26373          1.8349       0.0687739
LJ          0.873296     -0.00891177        0.960496
LJ           2.51781         2.49784       0.0962795
LJ          -1.31838         2.54476         1.56498
LJ              -nan            -nan            -nan
LJ              -nan            -nan            -nan
LJ          0.420736       -0.100087       -0.674116
LJ           1.54191        -1.41673         2.14887
LJ              -nan            -nan            -nan
LJ          -0.18383        0.678481         1.50312
LJ          0.389017        0.377886        -1.87546
LJ          -2.14911       -0.941601        -1.66394
LJ           2.25945        -2.54536         1.68474
LJ          -1.68314         2.15099        0.593896
LJ           1.64022          1.6556        0.335724
LJ          -1.34328         -2.4756       -0.568755
LJ         -0.499455        -1.74233        -1.05715
LJ           -2.1651         1.37169       -0.565196
LJ           1.16445       -0.825289       -0.550199
LJ           1.77876        -1.79229        -2.52579
LJ           2.35304         0.81322        -1.31682
LJ          -1.37581       -0.857203        -1.06161
LJ        -0.0529383        -1.72238       -0.348614
LJ            1.5434         1.39851       -0.508962
LJ            1.7544         1.54011        -0.03782
LJ          -1.29524        -2.19863          1.2919
LJ          -1.88278       -0.509178        0.985753
LJ         -0.999719        0.940239        -1.87987
LJ           1.15402         2.18924         1.55003
LJ          -2.55879         1.84996       -0.521711
LJ           -2.0516        -2.34055        -1.06721
LJ              -nan            -nan            -nan
LJ         -0.759802        0.369699        0.731202
LJ          -1.41164         1.38195       -0.299849
LJ          -2.12841          1.5639      -0.0119439
LJ           1.03311        -1.78193        -1.79857
LJ          -2.34267       -0.538509       -0.430347
LJ          -2.46386         1.43798         1.53039
LJ           1.46876          2.4139         2.15842
LJ              -nan            -nan            -nan
LJ           1.03244         0.30267         1.09437
LJ          0.627494         2.10204        0.642128
LJ           -0.7813        0.664669        0.738828
LJ         -0.405581        -1.89357         2.54474
LJ          -2.05258       -0.867278        -1.89017
LJ              -nan            -nan            -nan
LJ           2.21816         1.17687         0.52343
LJ         0.0386394        -2.51725        -1.53247
LJ              -nan            -nan            -nan
