108
#Comment!
LJ           1.82891         1.88577        0.505852
LJ           2.21002        -2.29868        0.297266
LJ         -0.322593         -1.7491        0.191373
LJ          -2.09667        0.755496         1.17238
LJ           2.11152          1.2234        -0.79634
LJ          -1.18718        0.603828        0.176812
LJ          -2.29477        0.280473        -1.20816
LJ           1.62452        -2.13693        0.345736
LJ          -1.08751        -0.70504           -1.88
LJ        -0.0278138        -2.43883        -1.27194
LJ              -nan            -nan            -nan
LJ           1.20554         2.01144       -0.495968
LJ          -2.06116        -2.41704        -0.99995
LJ         -0.312754        0.174006         1.06909
LJ          -1.67406        -2.33189        0.671871
LJ          -1.52592         1.93499         2.42457
LJ              -nan            -nan            -nan
LJ              -nan            -nan            -nan
LJ         -0.194889        -1.90578        -2.21161
LJ              -nan            -nan            -nan
LJ           -1.0198         2.25396        0.433642
LJ          -2.33498        0.642365         0.26156
LJ          -1.05729       -0.572082       -0.489753
LJ          -1.39964         1.22069         1.99011
LJ          -1.95146        0.231702        -1.10324
LJ          -1.63259       -0.336053         2.12533
LJ         -0.730081        0.738829         1.19143
LJ          -2.13552        0.109121        -1.74358
LJ           2.51222        -2.07817        0.241085
LJ           1.24896        0.811923         1.70666
LJ           2.12199       -0.930505         1.93353
LJ           2.06367         -2.3266        -1.38329
LJ              -nan            -nan            -nan
LJ          0.932812        0.739474        -2.52437
LJ              -nan            -nan            -nan
LJ           2.29859        -2.29546        0.644629
LJ          -1.95527          1.7453        0.903933
LJ          -1.26546        0.940978          2.3608
LJ          -1.24749       -0.357659        -1.63596
LJ            1.6445        0.431054         2.52849
LJ         0.0237587         1.51821         1.98936
LJ           2.30208       -0.581149        -1.93844
LJ           1.52678        -2.09206         1.72393
LJ          -1.50915        -1.55822        0.881153
LJ           2.37092         2.39071         1.32254
LJ           2.14334        0.237628        -1.61261
LJ          -1.84055         2.45827        0.625553
LJ          0.584619         2.07577         1.29095
LJ          0.455636       -0.692326       -0.933282
LJ          -1.55266         1.44218         2.37961
LJ          -1.92938        -1.49647        -0.68549
LJ         -0.275504       -0.143396       -0.488592
LJ              -nan            -nan            -nan
LJ            2.2716        -1.88731        -1.52316
LJ          -1.86386        0.956779        -2.29972
LJ          -2.41648        -1.11073         1.43656
LJ          -1.62282         1.93013        0.615508
LJ          0.824281         1.69792        -1.96893
LJ          -2.31927         1.38767        -2.50849
LJ          -1.21557       -0.202144         1.56869
LJ           2.00101         0.64695        0.885093
LJ        -0.0405128        0.612252        -1.18204
LJ          -2.39772        -2.23395        0.252296
LJ          -1.95645         2.39168        -1.36141
LJ         -0.545141       -0.231528        0.571413
LJ          0.825639         1.59303         1.48181
LJ          0.241226         1.73278       -0.973573
LJ              -nan            -nan            -nan
LJ         -0.879812        -1.65784       -0.975436
LJ          0.531094       -0.971202         2.11807
LJ          0.697691        -1.18361       0.0876356
LJ         -0.737515        0.931774        0.770791
LJ           1.45038         1.18209         1.52786
LJ          -1.65961         1.89488        0.884743
LJ           0.66779        -1.17123        0.951097
LJ           2.34954       -0.483874        -1.45361
LJ          -1.39132       -0.244773         1.28619
LJ          -1.77974         2.26551         1.70483
LJ         -0.401701      -0.0794733        -2.42169
LJ           2.39647         1.24404          1.0314
LJ          -1.29967        0.147671         1.19074
LJ         -0.417563          2.3205        0.171921
LJ            1.3482         1.48232        -2.03543
LJ           1.78731        -0.37813         1.03044
LJ          0.847271        -1.60053         1.45881
LJ          0.461329       -0.368332        -1.97075
LJ          -1.82769       -0.387933        0.901562
LJ        -0.0119351       -0.584876         1.97064
LJ         -0.137426       -0.578479         1.35443
LJ          -2.33529          2.1281        0.138918
LJ              -nan            -nan            -nan
LJ          -1.11122        -2.04633        -2.39766
LJ           1.14603        0.722221        0.880425
LJ           2.03299         1.86673         2.48546
LJ         -0.379637        -2.33854        -2.21736
LJ          -2.43205       -0.546396          1.4318
LJ        -0.0101296        -2.51022         2.33918
LJ          -2.39915       -0.272345        -2.38074
LJ         -0.502476        -1.41021          1.5528
LJ          -1.64428         2.49587        -1.35713
LJ           1.56135        -1.46932        -1.32433
LJ          0.600712        0.286438        -2.01267
LJ           1.00474          1.6355         2.28243
LJ          -1.35641         1.41854         2.24753
LJ          0.783301        0.929317         0.74268
LJ           -1.6094         1.49639        -2.04282
LJ         -0.477498        0.356619       -0.503778
LJ              -nan            -nan            -nan
