108
#Comment!
LJ          0.223436        -2.54175        -1.97915
LJ          0.531393       -0.665794       -0.719905
LJ           2.22064         2.11321         1.27352
LJ          0.684493       -0.862623         1.17437
LJ         -0.769527         2.22445        -1.15584
LJ          -1.52673         1.83682         1.56743
LJ          -1.79392        0.562886         2.35933
LJ          -1.16369         2.08863        -2.08773
LJ           1.32527         1.13323        -2.45498
LJ          0.451587         2.23198        -1.75186
LJ              -nan            -nan            -nan
LJ           2.01966        -2.23896        -2.55658
LJ          0.781441       -0.211366        -2.43166
LJ           2.39385        -2.34507        -2.23577
LJ           1.47946       -0.080123        -1.03179
LJ          -2.18327         1.61726       -0.627149
LJ              -nan            -nan            -nan
LJ          0.491902       -0.650134        0.909873
LJ           2.09408       -0.611103        0.412878
LJ              -nan            -nan            -nan
LJ          -2.46278       -0.949154        0.903473
LJ          -1.81555        -1.42603          1.7101
LJ          0.405648         2.20407         1.89818
LJ          -0.11656       -0.315778         2.51071
LJ          0.370891         1.39959         -1.9479
LJ          0.298242          1.2873         2.19574
LJ           1.55483        -2.22278        -1.88613
LJ          0.622171        -1.22282         -1.0904
LJ          -1.41024         1.01384         -1.0943
LJ          0.661871         2.40438        -2.42998
LJ         -0.492274        0.398738       -0.143264
LJ           2.13335        0.624986       -0.285253
LJ              -nan            -nan            -nan
LJ           1.03419       -0.201052       0.0177896
LJ              -nan            -nan            -nan
LJ           1.06056       -0.294429       -0.184201
LJ          -1.60033          -2.394      -0.0313692
LJ          0.799809       0.0154996       -0.655636
LJ           0.52332        -1.00055         1.52187
LJ          0.198088        0.930152         1.38597
LJ          0.807981        -1.21191        0.688177
LJ            -2.263         1.79824        -2.05409
LJ          0.712809         1.15459       -0.886321
LJ           1.15655         1.42705        -1.23827
LJ          0.183411        0.294268        -1.88309
LJ           1.83603         -1.2598         1.17641
LJ         -0.914724        -2.42451        -2.02415
LJ          0.707621       0.0275477           1.652
LJ           1.79349        0.687832         1.41077
LJ           2.44716          -1.055       -0.771817
LJ          -2.37828         2.56402       -0.263303
LJ          -1.52971        -1.40377         1.92721
LJ                 0               0               0
LJ          0.470409       -0.136986        -2.26488
LJ          -1.28001       -0.593698        -1.74646
LJ           2.18224        0.613074        0.233196
LJ          -1.73634        -2.39568        -1.18032
LJ          -1.33663        -2.43695       0.0225853
LJ           1.43545       -0.711943        -2.36326
LJ           1.96278       -0.439722        -1.57901
LJ          0.756197        0.149723         1.22642
LJ          -1.31283        -1.32757       -0.440825
LJ           1.66861        0.723118       -0.428746
LJ           1.69395        0.570268        -1.64483
LJ           1.31346         0.83447        0.296981
LJ          0.349946        -2.01754        0.932344
LJ           2.27726        -0.35424        0.584808
LJ              -nan            -nan            -nan
LJ         -0.650171         2.29181         1.21382
LJ           2.13464         2.35529        0.472956
LJ          -1.57413       -0.736881        -1.89598
LJ          -1.00291        -1.79574         1.40834
LJ          0.746966        0.344457         1.65951
LJ          -1.44858       -0.387688        -1.37072
LJ        0.00498076           1.866       -0.370979
LJ           1.12369        0.826944          1.8629
LJ           1.93575      -0.0949669       -0.759057
LJ           1.40845         1.48346        -2.52227
LJ           -1.9994         1.74555       -0.803069
LJ          0.527019        -1.64517        -2.01531
LJ          -1.12254         0.59573         1.52041
LJ           1.74469        -2.25302        -2.02834
LJ          -1.23392        0.781614        0.240612
LJ          0.135435         1.96659        -2.11418
LJ            1.7442       -0.574609          -2.395
LJ           1.04644         2.44256        -2.34689
LJ          0.851855        -2.43305        -1.50157
LJ          -2.24321       -0.542197        0.323361
LJ          0.709041        0.192214        -1.57856
LJ           2.43518         1.63408         2.37317
LJ                 0               0               0
LJ           1.38807        -2.11464         2.35098
LJ          -1.33568        0.174076         1.55521
LJ          -1.20645         2.22454       -0.977669
LJ          0.577084         2.08192        0.239741
LJ          -1.56143         1.09961       -0.395556
LJ          0.269649       -0.790493         1.46413
LJ          -1.93117        -1.45332        -2.48544
LJ           -2.4941         1.51752        -1.10666
LJ         -0.881969       -0.398353        0.728862
LJ          -2.44256       -0.341173        0.555105
LJ         -0.451237         1.25369       -0.511793
LJ           1.01311          1.4788       -0.172804
LJ          0.829681        -1.90663         -2.2548
LJ            1.2514       -0.662851       -0.263926
LJ           1.93331         2.34878          1.2226
LJ           2.54912       -0.617908        -1.50527
LJ          -1.26865        -1.00867          1.0942
