108
#Comment!
LJ          -1.09801         1.81738         1.87956
LJ           -1.2384       -0.888787        0.572489
LJ           1.75365         1.71639        -1.29113
LJ          -1.04174        0.782791         1.65987
LJ          -1.73897         1.62333        -2.23604
LJ         -0.208097        -1.65009         1.01618
LJ           2.12178       -0.498858        0.116633
LJ          0.774409        -1.07837        -1.84771
LJ          -1.05128        0.119707          2.1634
LJ           1.82158         1.66452         2.32046
LJ              -nan            -nan            -nan
LJ           1.40417       -0.742214        -2.13329
LJ          -0.59096       -0.742035        -1.80802
LJ         -0.538748         1.06851         1.54132
LJ          0.927724         1.16746         2.34078
LJ            2.4073        -1.76331       -0.473822
LJ              -nan            -nan            -nan
LJ              -nan            -nan            -nan
LJ          0.544002        -2.18746        -2.44979
LJ              -nan            -nan            -nan
LJ           1.83118         0.20235         1.02915
LJ            2.4501        -1.48815       -0.865405
LJ         -0.878381         1.70752         -1.6135
LJ           -1.0427         1.93847        -1.20522
LJ         -0.786128        -2.35255         1.17152
LJ        -0.0609129       -0.280773         1.35043
LJ         -0.350971        -1.93247        -2.21089
LJ           1.35129       -0.605572         1.57835
LJ            1.8427        -2.22722       -0.501853
LJ          0.932005        -1.89192         1.26715
LJ           1.12563         -1.6501        -0.57314
LJ          -2.12534       -0.406255       -0.651343
LJ              -nan            -nan            -nan
LJ         -0.604531       -0.360514       -0.682359
LJ              -nan            -nan            -nan
LJ         -0.121409       -0.166446      -0.0544804
LJ         -0.471914        0.934176        -2.55657
LJ           1.60884        0.666155       -0.644891
LJ          -2.32146        -1.47271        -1.67389
LJ          -0.41375        -1.02848       -0.071987
LJ         -0.267115         1.01658        -1.71596
LJ          0.306645        0.524143        -1.88618
LJ           1.61131        -2.42125      -0.0777447
LJ           1.47008         1.34843        -1.49167
LJ          0.701198         2.47884         2.44178
LJ         -0.459515         2.21743        0.600897
LJ           2.04289        -1.96195       -0.364206
LJ            1.9255        -2.47963         1.64095
LJ           1.89827         1.46338        -2.20238
LJ           1.31729         1.87039        -1.68917
LJ           2.36559         1.22645       -0.730304
LJ         -0.731653        -1.96077          -1.279
LJ              -nan            -nan            -nan
LJ          -1.36857        -1.66174        0.760527
LJ         -0.239037          2.0314        -2.26891
LJ         -0.959405       -0.122024       -0.658325
LJ          -1.12057       -0.827343         1.46957
LJ          -2.15585        -1.10545        -2.27063
LJ           2.17513        -2.03081         1.71341
LJ           1.52293         2.41698        0.868081
LJ          0.637929        -1.43096         2.19435
LJ          -1.64878        -1.29038         2.10089
LJ          0.750696        -2.14646       -0.978808
LJ          -2.25509         1.38044       -0.801683
LJ           1.27359       -0.830838         -2.4665
LJ             1.972        -1.69998        -1.27397
LJ          -2.54873        -1.85483        -1.86642
LJ              -nan            -nan            -nan
LJ           2.46354        -0.53879        0.244547
LJ           2.12436      -0.0213357        0.189519
LJ          0.962382         1.71886        -1.81514
LJ           1.70994        -2.40446         2.46205
LJ           -1.0891        -1.91096        -1.68828
LJ          0.211611        0.504155          -1.623
LJ          -1.69917       -0.851621       -0.723411
LJ           2.42884        -1.23994        0.910402
LJ          0.764124        -1.81175         2.06397
LJ         -0.481043         2.13677         1.23575
LJ          -2.33382         1.64302        0.187724
LJ          -1.78482         0.81703        -1.66579
LJ         -0.072904         1.12068        0.809921
LJ         -0.731037        0.461369         1.60309
LJ         -0.341461         2.19879        -2.07153
LJ           1.35314        -2.51018        0.335899
LJ         -0.472195        -2.05985        -1.81345
LJ          -2.26743       -0.744635         2.43588
LJ          -2.08566       0.0331976        -1.96835
LJ           1.86237         2.31301        0.843351
LJ       -0.00864126        0.967239        -2.52446
LJ          -1.55674         1.73186        0.715115
LJ              -nan            -nan            -nan
LJ          -2.54457         -2.2418        -2.11546
LJ           2.10622        -1.85259       -0.618387
LJ          -1.94526        -2.18079       -0.288341
LJ           1.83755         1.08799        0.450864
LJ           1.28837         1.84092         1.66516
LJ           2.51364       -0.338033        -1.58903
LJ         -0.195796         1.14921        -1.74085
LJ          -2.14815        -1.93361          1.4385
LJ          -1.91959         1.57156        -2.31304
LJ          0.467202        -1.33225         -1.9719
LJ          0.659689       -0.818524         1.02329
LJ         -0.349861        -1.93664         2.21923
LJ         -0.522653        -1.46623        -1.21323
LJ         -0.940201        -1.77676         2.34846
LJ           2.09509        0.948392         1.37045
LJ          -1.14486         1.44911        -1.35799
LJ              -nan            -nan            -nan
