108
#Comment!
LJ          -2.02768         2.45999        -1.69939
LJ          -1.18967         1.42176          1.1028
LJ            1.4846         1.53388        0.232011
LJ          -2.03219       -0.546464        -0.88393
LJ           2.20519        0.290283         1.50225
LJ          -1.50807       -0.879074       -0.388796
LJ           1.44894        0.079605       -0.231619
LJ           -2.3972        0.105453         2.28464
LJ         -0.510796        0.185305         1.89137
LJ           2.43605        -1.56714         1.71084
LJ              -nan            -nan            -nan
LJ           2.35561         1.35133      -0.0822283
LJ          -1.84499         1.43639        -1.90293
LJ              -nan            -nan            -nan
LJ           1.83057       -0.564314        -2.15216
LJ              -nan            -nan            -nan
LJ              -nan            -nan            -nan
LJ              -nan            -nan            -nan
LJ          -1.21663         2.15094        -2.26362
LJ              -nan            -nan            -nan
LJ          -1.92576        0.034054         1.17807
LJ          -2.12681         1.30885         1.34027
LJ          -2.25817         1.05979        -2.06937
LJ           1.54184        -2.32415        0.723073
LJ          0.854387         1.76318        -2.51017
LJ          -1.06092       -0.322052        0.890007
LJ           1.14053         0.79659          1.5224
LJ           0.29056         2.21627        0.816805
LJ           2.49858        -1.16665        0.800026
LJ          -1.13076      -0.0736961        -1.55456
LJ              -nan            -nan            -nan
LJ         -0.824055        -2.17988        0.445864
LJ              -nan            -nan            -nan
LJ           1.01632        -2.35615       -0.975165
LJ              -nan            -nan            -nan
LJ           2.24856        -1.04279         1.85653
LJ          -1.60464         0.29965         1.09409
LJ          0.708515         1.73894         1.77473
LJ         -0.278101         1.99115        -1.30116
LJ           2.35793        -2.07603         1.31849
LJ         -0.931561         0.61455        -1.87327
LJ           2.06099       -0.494376       -0.248366
LJ           1.64604        0.569026         1.14434
LJ            1.9362        -1.81054       -0.624309
LJ           1.86824       -0.930643        -1.45204
LJ         -0.145183       0.0665142        -1.51899
LJ          -2.30329       -0.741337        0.200716
LJ          0.780157         0.64292          2.2407
LJ          -1.89365        -1.59343        -2.50096
LJ           1.96575        0.151353         1.61024
LJ         0.0731049         1.03796         2.24823
LJ          0.609406        -1.83509        -1.43442
LJ              -nan            -nan            -nan
LJ           2.34856         1.75717         2.18559
LJ           1.75275        -1.26592         1.42658
LJ         -0.588799       -0.909111        -1.47311
LJ           2.35906        -1.96849         2.42059
LJ          -2.31048        0.613845        -2.48388
LJ         0.0364869        -1.41029         1.84995
LJ           2.53659       -0.343179        0.566126
LJ        -0.0225912         1.78145         2.37425
LJ           1.86351       -0.401356        0.769624
LJ         -0.680873        -2.06513        -2.32442
LJ          -1.77717         1.91027       -0.229812
LJ              -nan            -nan            -nan
LJ       -0.00561083        -2.00768          1.0239
LJ          0.107669        -1.86471         1.92125
LJ              -nan            -nan            -nan
LJ          -2.05141        0.990823         1.35503
LJ         -0.725113       -0.562466        0.222298
LJ            1.3687        0.626697        -1.16747
LJ           1.72322        -0.32851         2.36716
LJ          -1.68629         1.81853        -1.02806
LJ         -0.951694       -0.561826        -1.87023
LJ         -0.855356       0.0841312       -0.562095
LJ          -1.45891         1.26055        -2.43211
LJ          -2.11288        -1.80281        -2.48908
LJ          -2.45648        0.208838        0.473921
LJ          -1.46402          -1.783        -2.10827
LJ            1.5659        0.856765        -1.53944
LJ          0.141759        0.913421        -1.80211
LJ          -2.41104        0.650307         1.39374
LJ           2.39577          1.1898        0.478084
LJ          0.229451         2.37786         2.34064
LJ         -0.996313         -2.1486         1.45074
LJ          -1.18568        -2.51195         1.92335
LJ          -1.73649         -1.8453         2.21307
LJ           -2.0775        -2.39974        0.234892
LJ          -2.26974         1.77212        -2.29922
LJ          -2.13434         1.94251        -1.88003
LJ              -nan            -nan            -nan
LJ          -2.21463        0.181235         0.75827
LJ           1.22918       0.0739114        -1.17746
LJ           1.58303        -1.75837        0.955494
LJ          -2.47163        -2.17273         1.99677
LJ          -2.31814        -1.16697       -0.950982
LJ            1.0394         2.34118          -0.551
LJ          0.175948       -0.481824         2.30693
LJ              -nan            -nan            -nan
LJ        -0.0141765       -0.236471         1.72439
LJ           2.29516       -0.326061         1.10683
LJ          -1.40861        -1.53003         1.48198
LJ          0.571548          1.7558         2.37397
LJ          0.377436          2.3365        0.738664
LJ              -nan            -nan            -nan
LJ          -1.80125        0.136239        -0.54614
LJ            2.5015       0.0275352        -1.21874
LJ              -nan            -nan            -nan
