108
#Comment!
LJ         0.0867506       -0.698945       -0.238574
LJ         0.0905067       -0.391876        -1.22004
LJ        -0.0402715        -1.37213       -0.437462
LJ          0.206283        -2.24842         1.63042
LJ          0.850997        0.708388         2.43173
LJ          0.549076        -1.50184         1.11008
LJ           2.21608        0.599268        -1.02854
LJ         -0.254406         2.07441        -2.51545
LJ          -1.99009         -2.4841         1.33575
LJ          -2.47603          1.0843       -0.528305
LJ              -nan            -nan            -nan
LJ           2.03311        -2.25665       -0.123795
LJ           1.85913         -2.5431        -1.36782
LJ          -1.27895        -2.03126        -1.70334
LJ         -0.347586        0.423605       -0.695443
LJ          0.610655      -0.0423515       -0.522445
LJ           1.56061        0.809839         0.53648
LJ          0.185379        -1.88843       -0.235067
LJ         -0.885442        0.797932          2.0222
LJ           -1.6067       -0.621371       -0.348439
LJ          -2.18906       -0.523233        -1.80931
LJ          -2.08259        -2.00573        0.863409
LJ           -2.3997        0.720008        0.375441
LJ          -1.71788        0.707817        0.613161
LJ          -2.42151       -0.947034        -0.57982
LJ           1.81497         1.61235       -0.473653
LJ           2.45977        -2.28075        -2.29827
LJ         -0.206513         1.46502        -1.56439
LJ           2.54084         0.51075       -0.797616
LJ           1.06708        -1.01376         0.79961
LJ            1.8212       -0.531701         2.44868
LJ          -1.17344      -0.0296991        -1.50217
LJ              -nan            -nan            -nan
LJ          -1.17203         1.33151         1.17254
LJ         -0.541277        -2.30552        0.284865
LJ          -1.14045          1.7222        -1.75223
LJ           1.13899       -0.312169       -0.670062
LJ          -0.51155         2.54277         2.05123
LJ          0.148242        0.840338        -0.88811
LJ          0.826497        -2.30311        0.417777
LJ          -0.39961         2.49194        -2.42542
LJ          -2.40323       -0.216032         2.43364
LJ         -0.851775          1.3701        -2.50324
LJ           2.13865        -1.95155         1.32882
LJ          0.346269        -0.20669       -0.758291
LJ        -0.0640608        0.546847        -1.52059
LJ          0.906124         2.14371       -0.691931
LJ          -1.23602         1.51584          1.7356
LJ           1.72809        -1.11512        -2.22184
LJ           -1.3752         1.09129         1.53169
LJ          0.141034        -2.14804       -0.290886
LJ          -1.27075        -1.65234         -2.5589
LJ        -0.0346179       -0.875601       -0.518429
LJ          -1.06046          1.0995       -0.670047
LJ           2.30126         2.33939         1.67648
LJ           2.29738         0.79688          1.6147
LJ         -0.577226        0.485951          1.4575
LJ           1.64627        -1.84676        0.826643
LJ           2.31995        0.684358        0.456645
LJ         -0.070224        -1.42387        0.415884
LJ          -2.05899        -2.38761        -2.08847
LJ          0.233719          1.1188        -2.10336
LJ          0.355429         2.23833        0.943805
LJ          -1.79192       -0.384517         2.16229
LJ          0.783755        -1.56808       -0.541313
LJ          0.490749        -1.23801        0.783238
LJ          -1.77873        -2.18702         2.07549
LJ           1.16655        -1.71498        -1.86625
LJ          0.356007        -1.23223          0.7964
LJ         -0.533955        0.436986       -0.896269
LJ           1.63412          1.5846       -0.614086
LJ           2.33622        -1.19747        -2.07977
LJ           1.86411       -0.961976       -0.225594
LJ          -1.68682         1.48838        -1.01549
LJ         -0.578465       -0.340883      -0.0249358
LJ          -1.07503        -2.25205         2.06053
LJ         -0.320806          1.3042         1.17903
LJ          -2.22614        -1.63317        0.724607
LJ           1.29526        0.797928         1.77295
LJ          0.331579       -0.743952        -2.46611
LJ           1.32515       -0.330077         2.40919
LJ           1.27684       -0.669582           1.862
LJ          -1.27567         1.85832         2.32995
LJ           2.12804       -0.946491       -0.234197
LJ          -1.73089        -1.40352        -2.05453
LJ           -1.9809         0.20796       -0.489785
LJ           1.55587        0.337873        0.343365
LJ           -1.1923       -0.226268        -1.11156
LJ           1.81134        0.835882         0.78782
LJ          0.130141         1.60021         2.45303
LJ          -1.51944         2.10079          1.3072
LJ           1.13823        -1.15368        -1.88017
LJ          0.694382        -1.08122        -1.13953
LJ         -0.793985         1.99578         2.00347
LJ             2.015        0.628491        0.185176
LJ          -2.35026         0.51249        0.991157
LJ          0.858749        0.135057         1.97492
LJ          -1.77925        -2.06521        -1.73379
LJ          0.435118          2.5295         2.13223
LJ           1.93645        0.654384         1.09373
LJ         0.0641836         -1.6625       -0.158205
LJ          0.663645         1.47377       -0.286669
LJ         -0.330244         0.58815       -0.478208
LJ          -1.67601         2.28237        -1.73184
LJ           -1.7057        0.458944       -0.681594
LJ          -1.08675        -2.48336        -2.25567
LJ          -2.19965         2.08803         1.05481
LJ           2.39636        -1.93206        -1.16371
