108
#Comment!
LJ          0.504753            2.13        -1.23103
LJ          -2.14591        0.122051       -0.225224
LJ          -1.31207         2.49363        -2.19559
LJ           1.32739       -0.445824      -0.0225515
LJ         -0.479936       -0.138375        -1.64365
LJ         -0.173798        0.723334        -2.04504
LJ           2.01318        0.188685         1.04857
LJ           1.68618         1.66262        -2.06495
LJ           1.73255        -1.04899       -0.313736
LJ         -0.282631         1.66276        0.314791
LJ              -nan            -nan            -nan
LJ           -2.2238        -1.20955         -1.8343
LJ           2.42476        0.848098        -1.09889
LJ              -nan            -nan            -nan
LJ           0.89893         -1.1564        0.842433
LJ              -nan            -nan            -nan
LJ              -nan            -nan            -nan
LJ              -nan            -nan            -nan
LJ         -0.167056         1.15084        -1.49018
LJ              -nan            -nan            -nan
LJ           0.68055         2.44315       -0.185424
LJ          0.216473         2.01721        0.551004
LJ          -2.21436         1.05639         2.24767
LJ              -nan            -nan            -nan
LJ          0.712322        -1.10212         1.02255
LJ          0.966362        -1.66469         1.67606
LJ           2.08728      -0.0395772       0.0868766
LJ           1.79497        -0.94382       -0.171843
LJ         0.0180227        -1.75295       0.0742926
LJ          -1.63727         1.27705        -1.57625
LJ              -nan            -nan            -nan
LJ        -0.0530583       -0.725754       -0.136515
LJ              -nan            -nan            -nan
LJ           2.08662         1.63103          2.3279
LJ              -nan            -nan            -nan
LJ          -2.18429         2.41104         0.45665
LJ          0.441266        -2.38391        -0.15402
LJ          -1.68004       -0.375676        -2.11313
LJ         0.0563557         1.04866        0.424563
LJ          -1.44961        -1.28885      0.00635427
LJ           1.58797         2.28224        -1.47964
LJ          -1.56811       -0.634869       0.0874499
LJ         -0.107829      -0.0207328         2.20375
LJ         -0.906661         2.27862        0.619492
LJ            2.1431        -2.41483        0.700097
LJ           1.79573          1.2309        0.880779
LJ         -0.325581         1.85137         1.63005
LJ          -2.14208        -0.86859         1.02801
LJ          0.405147          1.4341         2.18797
LJ         -0.348992         2.36302         1.12708
LJ          0.439139         1.64286          2.3888
LJ           1.95784        0.261538        -2.32531
LJ              -nan            -nan            -nan
LJ            0.3775        -2.06028       -0.924666
LJ           1.24824       -0.466676         0.58428
LJ           -1.0924        -1.65081        0.290609
LJ          0.266702        -1.64765        -1.06366
LJ           1.38982         2.52001       0.0331929
LJ         -0.526962        0.226153         1.78547
LJ          -0.70627        0.900442      -0.0189494
LJ         -0.808066         2.23493        0.511869
LJ         -0.744264         1.39342         1.90621
LJ         -0.820261       -0.565458         2.31541
LJ              -nan            -nan            -nan
LJ              -nan            -nan            -nan
LJ           2.24811      -0.0317999        -0.88821
LJ         -0.528537        -1.27069       -0.638353
LJ              -nan            -nan            -nan
LJ           2.34275       -0.263239       -0.189812
LJ           -2.1189        -1.38533         1.77367
LJ         -0.428666        0.195945       -0.988632
LJ          0.783083        -1.78115         1.17018
LJ         -0.850993        -2.49956         1.91238
LJ           2.47068       -0.149548        0.609083
LJ         -0.871204         1.41243         1.35164
LJ           1.93146       -0.396358         -1.2259
LJ           2.55008        -1.32102        -1.26073
LJ          -1.50583        0.984999         1.33055
LJ            2.5509        0.345698        -1.88653
LJ           1.72274        -2.06624        0.192119
LJ         -0.194896        -0.96286       -0.580458
LJ          -2.46959        -2.31718        0.105352
LJ          -2.03313       -0.932226        -1.19559
LJ          -1.20087        -1.51668        0.975162
LJ           1.73745         2.21784        0.572388
LJ           1.77184        -1.83895           1.449
LJ         -0.187004        -2.16982       -0.189781
LJ          -2.28166         0.62047         2.06786
LJ          -1.75136        -1.91784         1.80974
LJ           -2.0488         1.73256         -2.1549
LJ              -nan            -nan            -nan
LJ           1.53656          2.0923        0.312208
LJ         -0.843591        -1.60278          2.1305
LJ         -0.298864         1.32965         1.25408
LJ          -2.38306         1.10293        0.609658
LJ         -0.804729         1.43708         -1.4293
LJ          -1.63923         1.50411         2.28343
LJ          -1.02484       0.0917557        -0.74491
LJ              -nan            -nan            -nan
LJ           2.08774         2.26955        -0.38351
LJ           1.09094         1.24331       -0.373109
LJ          0.561407         2.13873         1.74003
LJ           1.66019       0.0342166          1.6754
LJ           1.42304         2.07999         1.83362
LJ              -nan            -nan            -nan
LJ         -0.794407        -1.69677        0.739649
LJ           1.55131         2.17502       -0.485132
LJ              -nan            -nan            -nan
