108
#Comment!
LJ          -1.44449         2.23713         1.74618
LJ           1.23919        -2.44197          1.4367
LJ          -1.14989       -0.583085       -0.656535
LJ           1.62877         -1.0196         2.08489
LJ          0.244287       -0.296149        -1.72133
LJ            1.5804        0.871075        -1.47808
LJ           2.23524         -1.3099         1.90106
LJ          -1.53091        -2.40319        -1.24844
LJ           2.32734       -0.912845        -2.35945
LJ          0.244572         1.04294         2.13236
LJ              -nan            -nan            -nan
LJ          -2.03979        0.114909         2.11028
LJ          0.848687        0.037069        -0.21313
LJ              -nan            -nan            -nan
LJ         0.0736404         1.48168        -1.98908
LJ              -nan            -nan            -nan
LJ              -nan            -nan            -nan
LJ              -nan            -nan            -nan
LJ          -1.22681        0.650101         1.87525
LJ              -nan            -nan            -nan
LJ          0.106499       -0.724277         2.23185
LJ          -1.05004         1.19513        -1.13343
LJ           2.27717         2.37903         1.54531
LJ              -nan            -nan            -nan
LJ          -1.86762        -1.89327        -1.35841
LJ         -0.463916      -0.0649232      0.00890397
LJ          -2.37808         2.17632        -1.71102
LJ          -1.26591        0.564967       -0.610967
LJ         -0.833464        -1.07237         0.84613
LJ         -0.372305         1.95499      -0.0807231
LJ              -nan            -nan            -nan
LJ           2.40249         2.06352       -0.072166
LJ              -nan            -nan            -nan
LJ           2.48946        -2.31266         2.44054
LJ              -nan            -nan            -nan
LJ           1.56401        -1.67907         1.41849
LJ          -2.09237         2.28025         1.06914
LJ          -1.28638        -1.47666       -0.427984
LJ         -0.390132        -2.05382        0.595054
LJ         -0.487546         1.94918        -1.69549
LJ           1.23264        -1.62835         1.07228
LJ         0.0981897        -1.07611        -2.45627
LJ          -2.39385         2.35495         0.64769
LJ          -1.10077         -1.4082        -2.48948
LJ            2.4652        -2.22456         1.73747
LJ          -2.05148         2.50773         1.65174
LJ           0.67536         1.50984        -1.83033
LJ           -2.3807         0.65502         1.10529
LJ          -1.26765        -2.15586        -2.50645
LJ          -1.27882        -1.20629         -2.2277
LJ          -1.44367        0.616813       -0.360245
LJ           0.68419         1.43329         1.33325
LJ              -nan            -nan            -nan
LJ           1.67933          1.2291         1.23164
LJ         -0.342156        0.247698       -0.953533
LJ         -0.321994         -1.0897         2.20718
LJ          0.555715        -2.22329         1.32286
LJ           1.47271        0.100782        0.327708
LJ          0.380043         2.31135         1.49788
LJ           -1.3311          -2.103         1.53953
LJ           2.44709        -2.03168        -2.47565
LJ          -1.47711         2.09237       -0.586425
LJ          -1.74028        0.378033        -1.17523
LJ              -nan            -nan            -nan
LJ              -nan            -nan            -nan
LJ         -0.723541       -0.822057        -2.40107
LJ          -1.10648         1.56051        -1.65592
LJ              -nan            -nan            -nan
LJ          0.720187         1.20397        -1.43639
LJ           2.48051        0.410108        0.328451
LJ          -1.89743        -2.15442       -0.312195
LJ           1.98519        -1.66656         -1.1302
LJ          -1.82196        0.930383       0.0294855
LJ          -1.03383         2.37126        -2.22688
LJ          -1.18011        0.548832         1.71085
LJ           -1.4417          1.8546        -0.26314
LJ          -1.41279        -2.33594        0.208063
LJ         -0.678195        -2.43367       0.0446917
LJ          -0.96222         2.44582        -1.58185
LJ         0.0619185        -1.11347        0.901953
LJ           0.74042       -0.167649        -1.29648
LJ           -2.1484      -0.0158197       -0.710714
LJ         0.0588717         2.04845         2.36664
LJ         -0.117917          2.4203       -0.914957
LJ          -1.43088         1.82146        -1.06865
LJ           1.05419        0.664504        -1.41099
LJ           1.43194          1.9375         1.87972
LJ           1.09869          -0.237        -1.29583
LJ          0.854065         1.15556         2.49516
LJ         -0.640991        -2.42129         1.73946
LJ              -nan            -nan            -nan
LJ          -2.32423       -0.761588        0.784042
LJ          -1.60972         1.61587        0.225015
LJ          0.509193        -2.09625          2.5209
LJ          0.493049         2.37168        -2.33534
LJ         -0.491158        -1.70322       -0.227388
LJ          0.250395         1.16568        -1.53085
LJ           1.70206         1.16071        -0.58491
LJ              -nan            -nan            -nan
LJ         -0.380198         1.75915         -1.9003
LJ           0.54042         1.70649        0.159203
LJ           1.23142       -0.371481        -1.28908
LJ          -1.97533          1.9946       -0.183875
LJ         -0.693993        -1.10467        0.896086
LJ              -nan            -nan            -nan
LJ          -2.39441        -2.46899         1.47254
LJ          -1.13799      -0.0363249         -1.5529
LJ              -nan            -nan            -nan
