108
#Comment!
LJ          -1.58402       -0.289282        -2.06524
LJ          0.223532         -2.0233        -1.17516
LJ           1.27598         0.88124         1.87989
LJ          0.731997        -1.86445       -0.577787
LJ          -0.34025         0.05035        -1.48702
LJ           -2.0589        0.389163        -2.02108
LJ           1.75703        0.330965        0.458299
LJ          -1.56392        -2.03513        -1.88728
LJ           2.16817        0.636627         1.19618
LJ            1.4083          2.1127         2.02871
LJ              -nan            -nan            -nan
LJ         -0.365722          -1.471        0.442463
LJ          -1.26186         1.62912        -0.77585
LJ              -nan            -nan            -nan
LJ           2.41578       -0.027695         1.59703
LJ              -nan            -nan            -nan
LJ              -nan            -nan            -nan
LJ              -nan            -nan            -nan
LJ          -1.61991        -1.17318        -2.06359
LJ              -nan            -nan            -nan
LJ          -1.13437        -1.33853        0.625481
LJ           1.25822       -0.437108         1.49041
LJ          0.438881        -1.59678        0.495606
LJ              -nan            -nan            -nan
LJ          0.559175         0.65014        0.997414
LJ         -0.691713       -0.358907        -1.23521
LJ           1.61894        -2.19352         1.98737
LJ         -0.869982         1.59957        -1.39746
LJ           2.12356       -0.439876         2.41652
LJ           1.26221       -0.699474        -1.36318
LJ              -nan            -nan            -nan
LJ          -1.56972        -2.27328         1.09009
LJ              -nan            -nan            -nan
LJ          -2.35511       -0.108572        -1.90565
LJ              -nan            -nan            -nan
LJ          0.304906         1.66906        -2.11275
LJ           -2.1219        -1.43266         1.10523
LJ          0.874433        0.956719        0.422183
LJ           2.03048        -1.12024         1.75899
LJ          -1.67413         1.55717        -2.30143
LJ           2.50112         1.44642        0.582955
LJ          -1.80408       -0.320997        -1.40431
LJ          -1.30312        -2.29592        -1.90047
LJ         -0.404555         1.64488        -1.62691
LJ          -2.41914         2.27536        -1.39499
LJ          -2.48505        -1.14882         -1.3372
LJ         0.0285716       -0.709469        0.959204
LJ         -0.920212        -2.02523       -0.760869
LJ           1.58269         1.71254        0.295955
LJ         -0.904498        -2.13305       -0.596347
LJ          0.546881       -0.080737        -1.12931
LJ           1.19371         1.49303        -1.17418
LJ              -nan            -nan            -nan
LJ          -1.77553         1.52838        -1.21801
LJ         -0.690104        -2.46924         0.55206
LJ          -1.15739        0.791297        -2.22205
LJ           0.88913       -0.686059       -0.486946
LJ          -1.75276          1.4919        0.433741
LJ         -0.868555        -1.52337        -1.09984
LJ          0.799231         1.07761       -0.260219
LJ           -1.7623          2.0306       -0.373882
LJ           1.19968         0.44838       -0.611046
LJ         -0.605662        0.757716        -0.81222
LJ              -nan            -nan            -nan
LJ              -nan            -nan            -nan
LJ          -2.56249        -1.21987         0.19887
LJ           1.32031         -1.6569       -0.676903
LJ              -nan            -nan            -nan
LJ         -0.749163        -1.08152        0.988862
LJ         -0.695305        -2.17917        -1.85436
LJ          -2.55024        -2.38289       -0.495306
LJ          -1.10341        -1.29154        0.834598
LJ         -0.464525         2.35119         1.33837
LJ         -0.976319        -2.49172         -2.1304
LJ         -0.723334       -0.409697        0.929129
LJ           -2.5091        -2.36482        -1.11131
LJ           -1.0667        -1.01304        -2.30791
LJ          -2.08964       -0.712874        -2.45856
LJ           2.11543         2.52628       -0.842613
LJ          -1.92251        0.719379         2.32368
LJ          -1.86123       0.0212669         1.15329
LJ          -1.80374       -0.763368         2.19092
LJ           2.53708       -0.962633        -1.65235
LJ         -0.964338          1.0306         1.84193
LJ           1.87692       -0.810793       -0.144602
LJ          0.721035        -2.10952         1.68833
LJ           2.11921        -2.31618       -0.093089
LJ           2.40497        -1.76332         1.39856
LJ          0.777312       -0.967934        -1.93077
LJ        -0.0404338        0.903858        -1.83566
LJ              -nan            -nan            -nan
LJ          0.598677        -1.15613         1.52213
LJ           1.94451         1.48502        0.116632
LJ          0.704771       -0.812626         1.42513
LJ            1.9265        -1.30827        -1.81369
LJ          -2.30554       -0.695604        -2.40208
LJ          -2.27696        -1.53919        -1.91898
LJ           1.87657        -1.79979        0.998874
LJ              -nan            -nan            -nan
LJ            1.5713         2.20386         1.37784
LJ          -1.06315        0.320392         1.56232
LJ            1.5612        0.701632         1.85613
LJ          -1.45063       -0.331876       -0.576811
LJ          -2.18292          1.5172       -0.427404
LJ              -nan            -nan            -nan
LJ          -1.29507        -1.58916         2.10475
LJ         -0.420087        -2.10365         1.17776
LJ              -nan            -nan            -nan
