108
#Comment!
LJ           1.20379        -1.87838        -2.54926
LJ          0.168305         2.35638        -1.03005
LJ           1.54053        -1.66543       -0.964724
LJ          -2.27768        -1.84668         1.90468
LJ          -2.54023       -0.861028        -1.36527
LJ           1.93926           2.392        -1.29304
LJ           1.08507       -0.260458         -1.5444
LJ          -2.09924        0.123221         0.75907
LJ          -1.98751      -0.0175994            0.57
LJ           1.37338        -0.79341         2.45957
LJ              -nan            -nan            -nan
LJ          -1.02498       -0.742346         1.44508
LJ          -1.61027       -0.823523        -1.85313
LJ              -nan            -nan            -nan
LJ           1.44275        -1.43893        -2.20583
LJ              -nan            -nan            -nan
LJ              -nan            -nan            -nan
LJ              -nan            -nan            -nan
LJ          -1.88963        0.211441       -0.215968
LJ              -nan            -nan            -nan
LJ          -1.84691       -0.682552        -1.18801
LJ          -2.54037        -2.56158        -1.26781
LJ         -0.929504        -1.59867        -2.43121
LJ         -0.459146       -0.180042      -0.0558092
LJ          -0.76424        0.482107        -1.54925
LJ           -1.8602         2.03145         2.19715
LJ          -1.96701        -1.47697        0.529035
LJ          0.784283        0.618174       -0.345023
LJ           -2.0841       -0.593759       -0.271868
LJ          -1.45343         2.16665         2.33313
LJ              -nan            -nan            -nan
LJ           1.51194       -0.293988       -0.931157
LJ              -nan            -nan            -nan
LJ           0.52602         2.48726         1.22084
LJ              -nan            -nan            -nan
LJ           0.18512        0.179891       -0.679327
LJ        -0.0837734        0.813129       -0.894823
LJ          -1.32414        -1.75881       -0.200938
LJ          0.182531       0.0292201         2.34559
LJ           2.41903        -2.35399       -0.977556
LJ           1.38819         -1.6504       -0.911167
LJ         -0.739497        -1.53357          -1.564
LJ          0.346768         1.60284         1.21147
LJ           1.94609         2.34729       -0.949856
LJ         -0.355403          2.1282         1.00121
LJ          0.620714         1.08305         -0.4735
LJ          0.976722       -0.165407         1.25144
LJ          0.590342       -0.132077         2.33934
LJ           1.23541        -2.25244        0.905297
LJ           2.00838        -1.38914         -2.0739
LJ           2.43976         2.49523         1.32286
LJ         -0.423442       -0.999365        -2.35787
LJ              -nan            -nan            -nan
LJ           1.62411       0.0770565         1.03099
LJ         -0.228369         1.87668       -0.683726
LJ           2.08142        -1.30804         2.02461
LJ           2.51537        -1.80582        -1.09275
LJ          0.301657        -1.28368        -1.81332
LJ            1.3945        -2.12841        -2.32686
LJ         -0.539177        -2.17115       -0.301877
LJ          0.491487         1.43689       -0.577312
LJ           1.44947        0.862888       -0.939339
LJ          -1.92423       0.0185059        -1.26114
LJ          0.169533        -0.20923      -0.0959342
LJ              -nan            -nan            -nan
LJ         -0.667264        0.189847      -0.0015348
LJ           1.19375       -0.536575        -1.77998
LJ              -nan            -nan            -nan
LJ          -2.13001        -1.54411         1.65934
LJ            2.3333        -1.48008        0.557126
LJ          -2.22612         2.46909        -1.36898
LJ          -1.49965        0.812435        -1.79763
LJ           1.06489        0.746021        -2.32841
LJ           2.04427        -2.16099       -0.749933
LJ          -1.84272        -1.79412        0.561058
LJ        -0.0431495       -0.632457        -2.14048
LJ           1.67768        -2.07936        0.509418
LJ         -0.993941         1.47065        -1.92427
LJ           1.66182       -0.593207         0.09395
LJ         -0.797053       -0.275722        0.552741
LJ           1.23451         1.28721        0.794609
LJ           1.70703         1.46983       -0.102534
LJ          -1.17558         2.43309         0.81143
LJ           2.16642        -1.97184        -0.64972
LJ           2.29532         -1.9597         2.54016
LJ         0.0435082        -1.96492         2.28294
LJ           2.21934       -0.627024      -0.0844522
LJ          -0.16897        -2.45767        0.216624
LJ          -1.90832       -0.414415       -0.975594
LJ          -2.02835        -2.47962       -0.927289
LJ              -nan            -nan            -nan
LJ          -1.04655        -1.19664        0.675233
LJ           -1.5317         1.40207         1.75467
LJ           2.47937         1.82539        -1.49533
LJ           1.75369         0.67811         1.68732
LJ          -1.54322        0.534769         1.19056
LJ          0.308267       -0.711082        0.749557
LJ          -1.36572         1.72271        0.250586
LJ              -nan            -nan            -nan
LJ          0.124264       -0.522232         1.31085
LJ          0.624226      0.00227853         1.89112
LJ           1.19427        0.701844         2.41729
LJ          -1.79561         2.43938       -0.497003
LJ           -1.4843       -0.846421         2.01224
LJ              -nan            -nan            -nan
LJ           1.28472        -2.10171        -1.19926
LJ          0.353889       -0.366737       -0.794867
LJ              -nan            -nan            -nan
