108
#Comment!
LJ           1.76512        -2.17926        -1.73934
LJ          0.645578         2.34901       -0.545568
LJ           1.75073        0.151583       -0.304775
LJ          0.244506        -1.41162       -0.677703
LJ         -0.330668        -1.36257       0.0707015
LJ         -0.603171        -1.04124        -2.18539
LJ         -0.731301        0.427534        -1.07366
LJ         -0.978818         2.26909        -1.60289
LJ           1.33946         1.83126       -0.114131
LJ           2.50389         0.92011       -0.141806
LJ              -nan            -nan            -nan
LJ          0.886089        -1.02207        0.358091
LJ          -2.48496       -0.169731         1.83201
LJ           2.16732       -0.295486       -0.144521
LJ           1.98858        0.651599        -2.32493
LJ           1.67042        -1.47867         1.25112
LJ          0.699659        -2.03036         2.11217
LJ          -1.08979         1.59054        -1.46153
LJ          -1.06558         1.77102        -1.18199
LJ          0.526925        -2.31493         2.27659
LJ           2.56013         1.43941         1.78607
LJ        -0.0807592       -0.967684       -0.555894
LJ          0.309618         2.30115          1.2008
LJ          0.692129         1.07026       -0.637424
LJ          -1.26785        -0.24547         2.09072
LJ         -0.415232        0.955673         1.55742
LJ           2.31441       -0.351016        0.616668
LJ          -1.78299        -1.91952          1.0317
LJ          -1.29101         1.01974       -0.311041
LJ           0.44063       -0.828204        -1.72393
LJ           2.54899         2.37258         1.62509
LJ           2.33118       -0.918805         2.25349
LJ              -nan            -nan            -nan
LJ         0.0444376       -0.299983        0.576612
LJ          -1.43528      -0.0675609         2.54833
LJ         -0.737363         2.55843        0.493757
LJ          -1.75166       0.0446036        0.766072
LJ           1.37529        -2.45389       -0.173449
LJ         -0.670718        0.402504        -1.28475
LJ           1.55718        -2.48223       -0.231011
LJ         -0.760544        0.501499        0.479058
LJ           2.34742            1.24         0.45548
LJ             -2.14         2.49953        -1.41656
LJ           1.82426         2.47893       -0.596838
LJ           2.26289        -0.33833         -1.9042
LJ          0.229372      -0.0266489        0.626672
LJ          0.461549         1.35751        -2.17053
LJ          0.691358        0.887793         2.24985
LJ           1.27133      -0.0311374         2.38792
LJ           1.01174        0.783559        -2.50799
LJ          -2.56302         1.53367       -0.838922
LJ         -0.685411        -1.94113        -1.72492
LJ         -0.286057        -2.40399        -2.06425
LJ         -0.441731        -0.87942         1.07634
LJ           1.83159        -1.41939        -2.55196
LJ           2.30918        0.502807        -1.67202
LJ           1.87611         1.02438        -1.50802
LJ          -1.06815       -0.904506         1.09214
LJ         -0.232587        -2.24027       -0.549045
LJ          -1.08333        -2.06554       -0.718191
LJ         -0.833039         -2.0231        0.769937
LJ           1.29166        -2.13713        -1.89527
LJ          -1.91173         2.06085        -1.37196
LJ           1.45395        0.851053         2.27851
LJ          -2.09015       -0.567145       -0.815878
LJ         -0.545743        -1.06428         1.76941
LJ          -1.06443        0.883275         -1.3333
LJ         -0.834055         -1.2535         1.98755
LJ          -1.38576          -1.909        0.644156
LJ           1.42927        0.149387        0.508724
LJ           0.42183       -0.135442        -1.38629
LJ          -2.46157         0.65836       -0.422913
LJ           0.58375        0.325235        -1.82362
LJ          -2.01123        0.437363        0.922561
LJ          -1.88117        -1.11427       -0.501565
LJ          -1.83215        0.441167       0.0395146
LJ          0.610389         1.49287        -2.17046
LJ          0.940375        0.181389         2.35872
LJ          0.421394        -1.82728       -0.971544
LJ          0.818192         2.24666        -1.92546
LJ           1.41475         1.77993       -0.998732
LJ          0.773161      -0.0583053        -0.78584
LJ           1.96903        -2.54662        0.907805
LJ          -1.47824        -1.29025         1.15787
LJ           -1.9684        0.299513       0.0498181
LJ           2.28778        0.340713         2.54422
LJ           2.22693       -0.265399        -0.64208
LJ          -1.23609         1.63026        0.456202
LJ           1.05559        -2.35048        -2.31113
LJ          -2.44537       -0.410104        -2.19301
LJ            2.0372        0.688919         2.54161
LJ          -1.30741        0.294374         1.04511
LJ           -0.1968       -0.214942         2.42834
LJ         -0.867737        0.569137       -0.437718
LJ          0.535378         1.33146     -0.00229599
LJ           -1.9636         1.91005        -1.47713
LJ           1.42879       -0.923145         2.25072
LJ          -2.35276       -0.798942         2.42732
LJ          -1.10443       -0.524262        -1.21957
LJ           -1.2893         2.21306         2.43636
LJ          0.072824        -2.00739          2.3674
LJ           1.62636       -0.232432        0.341505
LJ         0.0326846        -0.89552        0.994845
LJ          -1.66493          1.2295        -2.25851
LJ            2.2535       -0.893336        0.137083
LJ          -1.82202         2.12606         1.70976
LJ           2.09466         1.23585        -2.37154
LJ          -1.71949        -1.78266        0.909379
