108
#Comment!
LJ          -1.55721        -1.98758         2.38986
LJ          0.932861        -1.18579       -0.064751
LJ          0.423508         2.22063         2.00774
LJ           1.44532        -1.63457        0.265142
LJ           1.76163         1.85552         -1.7395
LJ          -1.43398      -0.0946033        -2.24201
LJ          0.712094        0.452373        0.221524
LJ          0.190495        -1.32656        0.331911
LJ         0.0292861       -0.641483        -2.27821
LJ          -1.46801        -1.28772        0.895799
LJ              -nan            -nan            -nan
LJ            2.3285         2.38964       -0.170023
LJ         -0.346621        -2.55817        -1.45717
LJ           1.02673        -2.53151         2.40641
LJ         -0.105802       0.0328828         1.30526
LJ          -2.41852         1.74008        -2.12741
LJ              -nan            -nan            -nan
LJ              -nan            -nan            -nan
LJ           2.46903        -2.48698        -1.61288
LJ              -nan            -nan            -nan
LJ           1.60314       -0.102134          2.2369
LJ           -2.5086       -0.256379         1.24375
LJ           2.12915        -2.40466        -2.02246
LJ         -0.805675       -0.965391        -0.40791
LJ           1.74597         -2.5047        -1.87542
LJ           1.95594        -2.32499       -0.115532
LJ          0.138495       -0.724255        -2.46171
LJ          -1.25347         1.99314         1.23479
LJ          -1.87797         2.09361          2.1248
LJ          0.142731        -1.67041        -1.92897
LJ         -0.266157        -1.15508        -2.32888
LJ           1.69215       -0.950438         0.11826
LJ              -nan            -nan            -nan
LJ         -0.580257         -1.8399         -0.4649
LJ              -nan            -nan            -nan
LJ           1.86217        0.581713         1.07464
LJ           2.38797        0.897871      -0.0055851
LJ          0.136208       0.0492147         1.39507
LJ          -2.28495         1.84714       0.0566387
LJ           1.38162        -2.31635        0.783642
LJ           1.01765        0.597324       0.0759355
LJ          -2.45436          1.5845       -0.118914
LJ           1.61141         1.43479        -1.56087
LJ           2.48939         1.27254        -1.45142
LJ           -1.7793       -0.395826       -0.493821
LJ          -2.21116       -0.952064        -1.29924
LJ         -0.410426         1.24041         1.31163
LJ           2.34344        -1.81731         1.11033
LJ         -0.182134        0.876248       -0.772495
LJ          0.123424        0.778832         1.34868
LJ          0.345777        -1.26112        -1.52764
LJ          0.162921        0.714329        -1.52692
LJ              -nan            -nan            -nan
LJ          0.362108        -1.29315       0.0978617
LJ           2.39616       -0.803883         2.05001
LJ          0.210842        -2.00856        -2.49869
LJ           1.39198         1.93745       0.0557561
LJ          -2.05919        -1.31727         1.98956
LJ          -2.09624         0.18164        -1.63963
LJ           -1.0883        -1.70577         2.37306
LJ           2.46315        -1.21901         1.58405
LJ          -2.42765          1.1768       -0.499907
LJ           2.04777        0.077526        0.558926
LJ            1.1578         -2.5358        -2.04914
LJ          -2.55492         2.34578         1.22575
LJ         -0.319938        -2.42949        0.233349
LJ           1.81367         2.29089         2.04509
LJ              -nan            -nan            -nan
LJ           1.71393        -1.66069      -0.0669811
LJ           1.74613        -1.14718        -1.20907
LJ           0.59836         2.44767       -0.264861
LJ            2.0498         1.13504        -1.73092
LJ          -1.26181         1.43921        -2.19752
LJ          0.649496         2.29827         2.04018
LJ          -1.73737       -0.312354        0.408137
LJ         -0.112819        -2.53288        -2.00265
LJ          -1.64576         1.08009       -0.724112
LJ          0.393029       -0.646069       -0.661735
LJ         0.0201895        -1.95662         2.19812
LJ          0.344483         1.99629       -0.638134
LJ          -1.79636        -1.99829        -2.36453
LJ          -2.03212        -2.25789        -1.70917
LJ          -1.99816        -1.88318       -0.321207
LJ           1.79083        -1.08988        -0.25672
LJ           -2.5432        -1.12194        -1.24182
LJ            1.4367         2.44957        -2.49625
LJ           1.16452          2.1457        -1.21028
LJ         -0.872746         1.87841        -2.53611
LJ           1.32604         2.11817         1.24744
LJ          -2.00007        -0.83911        0.860624
LJ              -nan            -nan            -nan
LJ          -1.24859        0.333528         1.22637
LJ          -2.25449       -0.528106       -0.563681
LJ           2.54988        0.524002       -0.235918
LJ          -1.42955         -1.7455          1.1742
LJ           0.47388         2.39541        0.186132
LJ         -0.235611        -1.60116       -0.972193
LJ           1.11753       -0.546436        0.348953
LJ        0.00853032        -1.77281        -2.48468
LJ           2.46692         -1.5854        0.947469
LJ           1.17947       -0.763684         2.25757
LJ          0.534025         -2.2113        0.843201
LJ            1.1702         1.55378       -0.758383
LJ          -2.46956       -0.969553       -0.609466
LJ           1.49895         1.25336       -0.450744
LJ           1.59378         1.79384        -1.51852
LJ         -0.840468         1.53627        0.315799
LJ              -nan            -nan            -nan
