108
#Comment!
LJ          -0.90129        -1.18967        0.468821
LJ          -1.70805        -2.06078        0.368548
LJ          -2.12333         1.18542         1.30036
LJ          0.401738         1.06507         2.16588
LJ         -0.172911       -0.746437        -2.09628
LJ           1.37627       -0.272753          1.2094
LJ           1.34418        -2.06966        0.548504
LJ           -1.4198          1.3944         1.72123
LJ         -0.586235        0.334066       -0.933443
LJ          -1.98394         1.89472        0.804703
LJ              -nan            -nan            -nan
LJ           1.03745        0.974563         1.49232
LJ           -1.1055        -1.77351         2.13035
LJ         -0.649748         2.23485        -1.94902
LJ           2.26425        -1.84779        0.460975
LJ              -nan            -nan            -nan
LJ              -nan            -nan            -nan
LJ              -nan            -nan            -nan
LJ          0.605204        -2.12765         -2.3697
LJ              -nan            -nan            -nan
LJ           1.72271       -0.186638         2.40831
LJ          0.622526         1.29134        -2.35597
LJ           1.12222       -0.288159         2.27142
LJ           -2.2606        0.863904       -0.832086
LJ           1.65843        0.682103         2.25527
LJ            1.5424        -1.87421         2.13425
LJ          -1.44852        -1.10681         1.03521
LJ          0.765598        0.475509         2.10935
LJ          0.326601         1.94109       -0.125881
LJ          0.537877         1.97644        0.701399
LJ            -2.148        -1.76216        -1.02912
LJ         -0.713521         1.30349        -1.98142
LJ              -nan            -nan            -nan
LJ          -1.02944         2.17409       -0.307806
LJ              -nan            -nan            -nan
LJ          -2.53186        0.158604        -1.04792
LJ           2.05962        0.921245         -2.4287
LJ          -2.45898        -1.06421       -0.604278
LJ            1.8624         2.09665        -2.39985
LJ           1.67812       0.0746896      0.00374864
LJ           1.30494        0.649364         2.12397
LJ            2.5232        -1.89115       -0.510502
LJ           1.64074         -2.2477        -2.39483
LJ            1.7215         1.26441         2.32599
LJ          -1.54715         1.33747         2.36784
LJ          0.701898         1.03937        -1.87893
LJ           1.32122        -2.50355        -2.44028
LJ          0.294907        0.792356         1.44599
LJ           1.50966        -0.46319         1.88603
LJ          -2.43773       -0.219046        -1.83503
LJ          -1.29985         1.13813       -0.370404
LJ           1.13809        -1.60041        -2.54005
LJ              -nan            -nan            -nan
LJ           1.79681        -0.28951         1.32266
LJ           2.21416        -2.25168       -0.331203
LJ         -0.540948       -0.214747         1.97816
LJ          -1.66057        0.832606     0.000889994
LJ           1.14032         1.73568        -2.28044
LJ          -1.05613        -1.45737         1.54944
LJ          0.571406         1.13779         2.55632
LJ         -0.632879        -2.42178         -1.2924
LJ          -1.92883          2.1185        -1.36767
LJ         -0.909302        -2.20044         1.13745
LJ          -1.22832        -2.14197       -0.777039
LJ         -0.272237         1.80518         2.17456
LJ          -1.87866         1.42732         2.01917
LJ           2.24338        -1.26328         1.97711
LJ              -nan            -nan            -nan
LJ           1.61181         2.07744         -2.4238
LJ          0.629024       -0.857411        0.850366
LJ         -0.246531        0.468868       -0.911431
LJ         -0.239068       -0.110493       -0.320981
LJ           1.38501        0.595007          2.0349
LJ           0.23898        -1.98465         1.91272
LJ         -0.081426        -2.34626        -2.54576
LJ         -0.166912       0.0743181        -1.17067
LJ          -1.39057         2.50423        0.202383
LJ           1.31224         1.21612         2.41312
LJ           2.23267        -2.05796        -1.04828
LJ           2.00334         2.31479       -0.161617
LJ          0.321744       -0.720411        0.903022
LJ           1.67914       -0.891677        0.345315
LJ           1.09149         1.44626        0.603974
LJ         -0.482587        0.407373       -0.649854
LJ          -1.14345         2.32759         1.12954
LJ          -2.55287        -1.82434       -0.949989
LJ          -1.46082        0.447004        -1.30119
LJ         -0.208581         1.73919       -0.759828
LJ           2.27277        0.782202        0.888238
LJ          -2.43642        0.468772         0.84731
LJ              -nan            -nan            -nan
LJ           1.44516         1.09877          -1.971
LJ          0.219567         1.17611         2.10445
LJ           1.65451        0.550324        0.978678
LJ          -1.70724        -1.40664       -0.629904
LJ          -2.19508        0.672612        0.793491
LJ          0.904843         2.46495        0.617306
LJ          0.319945       -0.486773        -1.50461
LJ              -nan            -nan            -nan
LJ           2.21677        -1.34339        -2.33549
LJ          -1.70351        0.211921       -0.125893
LJ         -0.690494         1.72929          1.2322
LJ           2.17024         1.94084        -1.42348
LJ         0.0617521       -0.791615         1.31506
LJ           1.90899         1.85285      -0.0575188
LJ          0.737892       -0.979462         -1.3003
LJ          -2.43455        -1.79574         2.09459
LJ              -nan            -nan            -nan
