108
#Comment!
LJ          0.685131        -2.02447       -0.471431
LJ        -0.0410019         1.18088         1.83088
LJ           -2.1981       -0.928364         1.09668
LJ         -0.369131        -1.33324         1.49376
LJ          -1.85273         2.45882         1.77997
LJ          0.783761       -0.743576         1.13045
LJ          -1.41349       -0.458336         0.77075
LJ          0.890149      -0.0711138         1.14345
LJ         -0.641607         2.41837        -2.19707
LJ          -1.63057        -2.54085        -1.88791
LJ              -nan            -nan            -nan
LJ           -1.3397         1.79634         1.52114
LJ         -0.144265        -2.30494        -2.36254
LJ          -1.46679         -0.8074         1.07559
LJ          0.399335         -1.2076          0.1213
LJ              -nan            -nan            -nan
LJ              -nan            -nan            -nan
LJ              -nan            -nan            -nan
LJ         -0.313736       -0.978237         1.17692
LJ              -nan            -nan            -nan
LJ           1.95473         1.37899        -1.47158
LJ          -2.42545        -1.05249           1.408
LJ          -1.41975        0.146701         1.49793
LJ          -1.71236        -2.50032      -0.0287604
LJ         -0.618306          1.2873       -0.583615
LJ           2.37949       -0.993853         1.80336
LJ          0.278878        -1.68263        -2.35953
LJ          -1.58573        -1.72934         1.75718
LJ          0.310685        -1.07313        0.428328
LJ           1.14399        -1.94081         2.39345
LJ          -1.62915        -1.51546       -0.797454
LJ          0.742388        -1.34492         -1.8409
LJ              -nan            -nan            -nan
LJ          -1.90969         1.46292         0.79561
LJ              -nan            -nan            -nan
LJ          -2.21258        -1.90881        0.275719
LJ          0.398729         2.42418         -1.5004
LJ         -0.958014         -1.1389        0.909122
LJ          0.184775        0.739072       -0.542333
LJ           1.32958       -0.465608        -1.08297
LJ         -0.581071        -1.30519        0.912047
LJ         -0.850469         2.25301       -0.880462
LJ           2.12543       -0.128993        -1.45929
LJ           -1.1256       -0.185437       -0.933589
LJ         -0.854575       -0.437046        -1.31726
LJ          -1.67068       -0.852777        -1.60755
LJ          -1.83117         1.33545       -0.640443
LJ           -1.7289       0.0313802         2.20085
LJ         -0.127233         1.67343        -2.17032
LJ          -1.65846         2.15456        0.628053
LJ          0.349377       -0.111997       0.0739783
LJ         -0.578781        0.521963        -2.54494
LJ              -nan            -nan            -nan
LJ           2.22614        0.158759      -0.0167248
LJ         -0.852733        -1.26504        0.368594
LJ          -2.32187        -1.92571         1.57551
LJ           2.28389         2.13005        -1.80936
LJ        -0.0781314       -0.710081       -0.886575
LJ         -0.412721       -0.465636         1.49148
LJ           2.14911         1.72972        -1.50143
LJ           0.55122        -1.21419        0.623405
LJ         -0.996651         1.03524         1.01449
LJ             1.594         2.22407        -1.65435
LJ           1.14615         2.01301         1.42725
LJ          -1.60321       -0.175167        -1.13404
LJ          0.787149       -0.265507         1.39749
LJ           1.84062         1.74741         2.29854
LJ              -nan            -nan            -nan
LJ           -1.3165        -0.54505        0.333779
LJ          0.495231         0.38251        0.809457
LJ          -1.47306        0.912857        -1.91374
LJ          -1.17347       -0.283028        0.779521
LJ          0.442039         2.20577       -0.536182
LJ          0.982052          1.2895        0.605913
LJ             2.025        -1.44578        -1.93196
LJ          -1.76434        -1.85416        0.957612
LJ          -2.07147        -1.53562        -1.77185
LJ           1.36211      -0.0152936       -0.323467
LJ         0.0311877         1.88186         -1.8047
LJ         0.0397057        -1.66516       -0.814902
LJ          0.317013         2.47047        -2.22802
LJ           -2.2497       -0.846801        0.104127
LJ            -1.515         1.65577         1.11316
LJ           -2.4723         1.71572         1.07902
LJ           -2.3031         1.67357        -1.30642
LJ          -1.32472         2.09776        -2.52002
LJ          -1.49127        -2.16745        -1.74699
LJ         -0.569813        -2.40657        -1.87673
LJ         -0.740895        0.101971         1.47691
LJ           1.50578        -1.71665        0.756942
LJ              -nan            -nan            -nan
LJ          -1.55679       -0.630826         2.55003
LJ          -2.00779       -0.231599        -1.42824
LJ          -1.11299         1.96331        0.788797
LJ         -0.910806         1.42798        0.944995
LJ          -1.66887         1.45933        -1.92946
LJ          -1.50834          1.0411        -1.14663
LJ           0.20498          0.7638       -0.579405
LJ              -nan            -nan            -nan
LJ          0.312724         1.53941        0.369259
LJ          0.629622       -0.805532        0.408612
LJ         -0.436023        0.732075         1.55113
LJ         -0.976541        -2.44199         -1.0075
LJ          0.916523         1.21191       -0.711259
LJ          -2.22574       -0.743943       -0.152581
LJ          -1.96385        0.381063        0.150702
LJ           2.14709        0.505766         1.90321
LJ              -nan            -nan            -nan
