108
#Comment!
LJ          -1.69231         1.44939       0.0790386
LJ          -2.01719         1.30368        -2.26465
LJ          0.694812       -0.549776         1.59684
LJ           1.27033         0.70465         -2.4087
LJ        -0.0458265        -2.26477         2.51128
LJ          -1.59419       -0.695589        -2.17604
LJ          -2.16756         1.79363         2.51457
LJ          -1.65327        -1.85894        0.931411
LJ          -1.83942        0.462216       -0.809286
LJ         0.0167799         2.04075         1.86212
LJ              -nan            -nan            -nan
LJ        -0.0545357         -2.2307        0.128463
LJ         -0.164895        -1.80603         -1.7686
LJ           2.37313         2.21655         1.30064
LJ         -0.954273         1.70351       -0.707066
LJ           2.48172        0.476927       -0.661256
LJ              -nan            -nan            -nan
LJ              -nan            -nan            -nan
LJ          -1.10576        -1.54377       -0.909152
LJ              -nan            -nan            -nan
LJ           2.22692         2.49851        -1.49609
LJ           1.19896         0.16675        -1.12656
LJ           -1.1538       -0.676463         1.41158
LJ          0.909823        -2.11561        0.878846
LJ          -1.47941         1.81957         0.27526
LJ          -2.40661       0.0572479         -2.0626
LJ           1.56314       -0.212858         1.27195
LJ          -1.68769        -1.34946        0.450997
LJ          -1.81108        -2.15059        0.780197
LJ            0.8834        -2.05506        -2.21622
LJ          -1.36349        -1.72905         1.85586
LJ           2.52339        -1.67049        0.411154
LJ              -nan            -nan            -nan
LJ          -1.59366        -2.40353          1.0372
LJ              -nan            -nan            -nan
LJ         -0.916521         1.34366          1.9806
LJ          -1.60397        0.584296       -0.338447
LJ          0.926491        -2.12217         -2.0267
LJ          0.199818        -1.27112         1.84055
LJ           2.27915        -2.02768         -1.3734
LJ          -1.24997         -1.0475         -1.6257
LJ          -1.19781        -1.16767         1.31474
LJ           2.36141         -2.2909        -1.62409
LJ         -0.332011         1.02589          0.4246
LJ          -0.96797        -2.22718       -0.210091
LJ           0.99663      -0.0230742        -1.68596
LJ           -2.4349         1.68682        -1.26903
LJ          -2.13495         -1.0223       -0.665669
LJ           2.00944        -1.53967         1.58858
LJ          -2.31146        0.972697       -0.526548
LJ        -0.0390665          2.2893        0.718304
LJ          -1.98765         1.01082        -2.16795
LJ              -nan            -nan            -nan
LJ          -2.56409         1.85756         1.52678
LJ          0.763073        -1.70207         1.76299
LJ            1.6344        0.110799         1.22916
LJ        -0.0192274        -1.91295       -0.596101
LJ           2.12618          2.1087          2.5365
LJ           1.79678        -1.58575        0.589776
LJ          0.739357       -0.749047        -2.19116
LJ          -1.19714          1.9673        -2.02442
LJ             1.287         1.45851         1.17474
LJ         -0.226337        -2.16013        -2.25423
LJ           2.40853         2.00756       -0.249075
LJ          -1.31646        -1.67415        0.579736
LJ           1.95946         2.06452        -2.41425
LJ           -1.2154        0.345929         1.80006
LJ              -nan            -nan            -nan
LJ           2.02647         1.15924        -1.05245
LJ         -0.391438         1.93949          1.2254
LJ          0.623265         1.79233         1.66427
LJ         -0.304942       -0.165991        -2.48102
LJ          -1.35734         1.29831         1.65958
LJ           1.16952       -0.766538          1.8393
LJ         0.0488978        -1.56252         -1.9218
LJ           1.17354       -0.733494        0.784839
LJ          -1.25744        -0.14753      -0.0638562
LJ          0.247526         2.01141        -1.10691
LJ          -2.23582         1.36932         1.95126
LJ           2.27827         1.27121         2.18543
LJ          0.672487       -0.916592         1.00831
LJ          0.637052      -0.0825895        0.407581
LJ          -1.50703         1.37194         1.34926
LJ          -1.48237         1.17773        0.559432
LJ          0.102698         1.17375        0.907874
LJ           1.40519         2.50675        -1.40551
LJ           2.44172         2.11642        -2.53065
LJ          -1.38885        0.231102         1.96523
LJ           1.86169         1.32008       0.0327354
LJ           2.32981      -0.0753112        -2.35091
LJ              -nan            -nan            -nan
LJ         -0.271164        -1.24276        0.265053
LJ         -0.460095       -0.614687        0.205997
LJ          -2.55112          1.5224       -0.400942
LJ           -1.1098        0.912259         1.36708
LJ          0.668177        -1.49601        0.265976
LJ          -1.79116        -0.10954        0.846158
LJ          -2.21518         2.35176        -2.24386
LJ          0.914504         2.39034          2.2543
LJ           1.35057        -1.14882       -0.267075
LJ           1.66433        0.720228         1.73679
LJ          -2.39588       -0.172071         1.32463
LJ           1.23763       -0.256032       0.0926046
LJ           0.92313        0.233627        -1.12969
LJ           1.52058       -0.870982        -1.74763
LJ           1.92127          1.6123       -0.203686
LJ         -0.192666       -0.292549        -1.81951
LJ              -nan            -nan            -nan
