108
#Comment!
LJ           1.77715        -1.14719        -1.37531
LJ           1.15557        -2.13256        -1.89251
LJ          -1.19312       -0.146593         2.38315
LJ           -1.3651        0.146307       -0.507843
LJ           1.99773         1.41104         2.07646
LJ          0.760428         1.18552         1.39457
LJ          0.775345         1.37367        0.722215
LJ           1.72237         1.35308        -1.74444
LJ          -2.38261        0.374369          2.5247
LJ          0.423728         1.70003          2.4182
LJ              -nan            -nan            -nan
LJ           1.19581        -0.18411        -1.02687
LJ          0.578904         1.03938        -1.36845
LJ              -nan            -nan            -nan
LJ          -1.37016           0.165        -2.45432
LJ              -nan            -nan            -nan
LJ              -nan            -nan            -nan
LJ              -nan            -nan            -nan
LJ           1.05518        0.563736        -1.54646
LJ              -nan            -nan            -nan
LJ          -1.05269     -0.00818946        -1.84398
LJ           1.32021        0.598627         1.86616
LJ         -0.305003         1.62564         1.16221
LJ              -nan            -nan            -nan
LJ          -2.21701         2.29705         1.28586
LJ          0.760066         2.31814         1.35696
LJ          -1.57533         -2.1773       -0.232008
LJ         -0.163262        -1.00367        0.151882
LJ          -1.79167         1.51797         2.03805
LJ          0.344544        -1.46982         -1.9806
LJ              -nan            -nan            -nan
LJ           1.22681         2.32314         1.87443
LJ              -nan            -nan            -nan
LJ           2.40414         2.09272       -0.078659
LJ              -nan            -nan            -nan
LJ           2.14593         1.72344        0.900387
LJ          -1.11214        -2.53047         1.65919
LJ          -1.14478        -1.26674        -1.25358
LJ         -0.828356       -0.145567       -0.465657
LJ         -0.696567         1.81264        0.998751
LJ           2.14793        -2.49426       -0.853843
LJ          -2.33735         1.44298       -0.383225
LJ          0.315486       -0.553168       -0.282635
LJ          -1.18321         2.37418         2.25461
LJ            2.2923        0.597371         1.25022
LJ           2.00611        -1.89391        -1.84783
LJ          0.944636         1.94795        -1.84149
LJ         -0.117766        0.673529        0.908297
LJ         -0.842329         1.30897        0.184153
LJ          -1.05802        -1.72891         1.56616
LJ           2.43201        -1.80052        0.393543
LJ           1.83908         1.47516        -1.02244
LJ              -nan            -nan            -nan
LJ         -0.265445       -0.239438        -1.97521
LJ         -0.978074        -1.51489       -0.638205
LJ          0.107721        -1.04505         1.55782
LJ           1.43454         2.25586        0.459055
LJ          0.790418        0.539864         1.36534
LJ          -1.60646         1.27558         1.59584
LJ         -0.547016        0.138875         1.62641
LJ           1.00504        0.756887        -1.12449
LJ          -1.21757         2.08174        -2.30388
LJ          -1.96726        -1.55067       -0.012051
LJ              -nan            -nan            -nan
LJ              -nan            -nan            -nan
LJ           -1.7963         -0.8605         2.33445
LJ          0.433973         1.07941       -0.108101
LJ              -nan            -nan            -nan
LJ          0.777243        -2.03829        -1.54887
LJ         0.0178963        -1.93109        0.873472
LJ          0.491237         2.21484         1.95173
LJ           2.07702       -0.558588       -0.947113
LJ           -2.0399        -1.28753        -1.84272
LJ           2.04665        0.153685        -1.86419
LJ          -1.31466        0.149336         2.28661
LJ         -0.683972         2.06311        0.738845
LJ          -2.20759        -2.17174        0.283439
LJ          -1.00193        -2.10783       0.0176582
LJ          0.673937         2.06911        0.976845
LJ           1.25003        -2.37711         1.59407
LJ          0.775899        0.505837        -1.18863
LJ          0.563711         1.41914          2.2413
LJ           1.30204         2.37766        -1.91218
LJ          -1.16594        -2.26394        -2.31724
LJ            2.2716        0.428354          1.8952
LJ          -1.40432        0.289067       -0.915821
LJ           1.53082        -1.08657         2.15883
LJ        -0.0371727         2.10634         2.55248
LJ          -1.32517        -1.71075        0.803997
LJ           0.95127         2.39738         1.75774
LJ              -nan            -nan            -nan
LJ          -1.47148        -1.42552       -0.966372
LJ            2.2195        -1.59135         -2.4842
LJ       -0.00588123         1.66716        -2.37583
LJ           1.58507       -0.674414       -0.354386
LJ           1.13904          0.6494         1.57317
LJ           1.19812         1.30254        -1.49784
LJ           1.67891        0.883782        -2.37966
LJ              -nan            -nan            -nan
LJ           2.11854       -0.257065        0.767311
LJ         -0.125547        -1.12563        -2.50317
LJ         -0.647257        -1.34083        -2.54338
LJ         -0.404597         1.91126        -1.78549
LJ          -1.96896        -0.18211       -0.903045
LJ              -nan            -nan            -nan
LJ          -1.32106         1.50154        0.419738
LJ           1.23412        -1.24377        0.319864
LJ              -nan            -nan            -nan
