108
#Comment!
LJ          -1.86677         1.05176        -1.72085
LJ           2.05355         1.40879         1.42799
LJ         -0.890912      -0.0762809         2.20443
LJ           1.79158        0.529668      -0.0567766
LJ         -0.800841         -1.9467       -0.501524
LJ          0.775108         1.27418         1.46878
LJ           1.72401       -0.621213         1.26387
LJ          -1.25014        -0.22686         2.37059
LJ           1.48474       -0.683007         2.27543
LJ           2.27757         1.83887         1.78698
LJ              -nan            -nan            -nan
LJ          -2.30842       -0.130195         -1.0422
LJ          -1.81218        0.670087         1.40282
LJ           -1.2683        -1.21748       -0.240204
LJ         -0.721632         -1.2444         1.34282
LJ          0.527491         -1.5457       -0.222732
LJ           1.39982        -1.42464         2.04239
LJ        -0.0562562        -1.36212        0.985263
LJ          -1.51095        -2.32789       -0.454396
LJ          0.303264        -1.40979         -1.1798
LJ           2.22187        -1.34124        -1.59237
LJ          -2.33221        0.857307       -0.851683
LJ          -1.69684         1.86958         2.04133
LJ           1.65883          1.4622       -0.303099
LJ           1.75466       -0.768115         1.49776
LJ          -2.41418        0.529412         0.84165
LJ            1.2131        -1.51425        -1.30915
LJ         -0.637291        0.191122       -0.095317
LJ        0.00128292          -1.515       -0.475897
LJ          -1.00652        -0.37762        0.568353
LJ         -0.399739       -0.826475        -2.39269
LJ         -0.741134         1.51327        -2.45032
LJ              -nan            -nan            -nan
LJ         -0.676279        -2.35816         2.55362
LJ         -0.638472        0.105923       -0.136648
LJ           0.67541        -1.46651        -1.17457
LJ           2.41742      -0.0841466        -1.35002
LJ         -0.310649        -2.33087        -1.19301
LJ         -0.275729        0.662631        -1.27048
LJ         -0.282285       -0.789535          1.6634
LJ         -0.992416        0.536864       -0.199625
LJ          0.769643         0.50163        -2.01555
LJ         -0.790651         2.00131       -0.316395
LJ          -0.87649       0.0827271         1.81873
LJ          -2.36192        -1.40985         1.03351
LJ         -0.184845        -1.30974        0.439881
LJ          -0.90612         1.61253         2.33433
LJ          0.808362        -1.48534        0.168829
LJ          -1.26845         -1.8621        0.556175
LJ         -0.401265         1.16399         1.13191
LJ          -1.47221        -1.22677            1.55
LJ         -0.341962        0.979134       -0.469439
LJ          -1.77421        -2.39488        -1.44838
LJ           1.25181        -1.43458       -0.600662
LJ         -0.531539         1.11065        -2.10203
LJ           0.97227         1.90911         2.21372
LJ           2.18462        -1.44799         1.31041
LJ           1.38374        -1.87581        -0.31482
LJ           1.79679        -1.32467         2.15838
LJ          -1.24518       -0.571875        -1.51345
LJ           1.14219        -2.08396       -0.475032
LJ         -0.968253        -1.83479          1.2716
LJ           -2.3942         -2.2008       -0.630599
LJ          -2.45651        0.972945        -2.22727
LJ           1.14724         1.84958       -0.228466
LJ        -0.0583576         1.13727        -2.56061
LJ          0.590984         -1.8497        0.802784
LJ         -0.235687        0.481456        -0.73063
LJ          -1.92417         1.40005        0.537252
LJ          0.780568        -0.12214        0.971351
LJ          0.850763         1.00905     0.000208682
LJ           1.51395         1.38555       -0.905111
LJ         -0.490773        -1.35887        -1.95246
LJ          -1.16206         2.22063       -0.669884
LJ           1.17247       0.0583275        0.612144
LJ          -1.30891       -0.222198        0.713753
LJ         -0.241986         1.99716        -1.67314
LJ          -1.12442       -0.659851       -0.164658
LJ           0.74563         2.27012        0.146532
LJ          -2.13777       -0.273606         2.10501
LJ          0.800964      -0.0649147        -1.85185
LJ          -1.82459       -0.851642          1.7228
LJ           1.89196        -2.02482       -0.254765
LJ          0.132038       -0.901124         1.70671
LJ           -1.7024       -0.325196        -2.09309
LJ         -0.872422        -1.66174         1.94592
LJ           -1.6038        -1.29137        0.502295
LJ           1.35508       -0.207307        -1.40231
LJ          0.656369      -0.0803089         1.90211
LJ          -1.43187         2.01072         2.50098
LJ         -0.198725        -0.42835        -1.80521
LJ         -0.835146         1.86736        0.121986
LJ            1.0255      0.00415314         2.28931
LJ          0.828189         2.28114        -1.91924
LJ           1.95642       -0.462573        -2.52358
LJ         -0.531793         1.60363       -0.918002
LJ         0.0897592         1.80747         1.47178
LJ         0.0421399        -1.01984        0.571593
LJ          0.280967       0.0959858         1.44589
LJ           2.30557        -0.21911        0.514796
LJ          -1.74743         2.27578         1.09442
LJ           -1.5493         2.52829         1.90964
LJ         -0.936278         2.27435        -1.99526
LJ         -0.505546       -0.126233          1.7822
LJ          -2.35512       -0.871292        -1.84478
LJ        -0.0631541          0.9322        0.594909
LJ          0.505171         1.95805        -1.41109
LJ          0.154401         1.67154       -0.356305
