108
#Comment!
LJ           2.48409       -0.651464         1.83584
LJ           -1.6748          1.6585          1.1207
LJ          0.643065      -0.0268898        -1.32408
LJ         -0.531053         1.14566        -2.54157
LJ           2.36119        0.371882      -0.0514412
LJ           1.08416        -2.30095        -0.37543
LJ          -1.27527        0.474963        -1.43997
LJ           1.82843       -0.312932         2.44267
LJ         -0.919027         1.56972         2.15469
LJ          0.588373        -1.93372        -1.25206
LJ              -nan            -nan            -nan
LJ           1.53598      -0.0316916      -0.0583816
LJ         -0.781616         2.50065         2.35164
LJ          -2.00093         2.55013         1.44842
LJ           1.17196         1.05479       -0.970714
LJ              -nan            -nan            -nan
LJ              -nan            -nan            -nan
LJ              -nan            -nan            -nan
LJ          -0.80011        -2.12962         1.07718
LJ              -nan            -nan            -nan
LJ           1.16894       -0.301047        -1.77305
LJ           1.17977        -1.50213        0.830638
LJ           1.60714        -1.72629        0.418238
LJ         -0.411236          1.8807         1.79407
LJ          -2.03418       -0.494329          2.0263
LJ          0.275749        0.141254        0.149106
LJ          -1.53246         1.06659         1.73473
LJ          -1.22816        -2.33135         2.05517
LJ           1.45568        0.833829       -0.867363
LJ           1.25058        0.438026         2.18806
LJ         -0.575137         1.33794         -1.9162
LJ          -2.28509       -0.438929       -0.282868
LJ              -nan            -nan            -nan
LJ          -1.74786        -2.13326      -0.0936384
LJ              -nan            -nan            -nan
LJ         -0.819827        0.617282         1.89479
LJ             1.356        0.257477         2.47023
LJ           -2.1819         1.41358         2.01889
LJ           0.97594        0.150178         2.10689
LJ           2.08181         1.74577        0.162225
LJ          -2.49472        -2.55847       -0.390438
LJ         -0.817869       -0.521921        -2.54987
LJ         -0.509572         1.63041       -0.567071
LJ          -1.75207          2.0365         1.89356
LJ         -0.216006       -0.821452        -1.40708
LJ            2.1053         1.38201         1.94747
LJ          0.566433         1.08906        0.411387
LJ         -0.498451         2.15048        -2.53181
LJ          0.633802       -0.407087         2.38045
LJ         0.0194847        -1.04819        0.889119
LJ           0.63585        -1.48756         -1.0221
LJ          -2.45429        -1.70377        0.629044
LJ              -nan            -nan            -nan
LJ          -2.50624          2.2898          1.7097
LJ         -0.316392       -0.157518        -1.03021
LJ          0.839148        0.603427         2.46807
LJ          0.733844         0.83696          1.5027
LJ          0.854685         -2.4246         1.94572
LJ          -1.82469        -1.14392         1.65189
LJ            2.0781       -0.891819        -2.20075
LJ         0.0283327         1.70702        -2.00206
LJ           -1.4092        -1.88252         2.36631
LJ          0.645606       -0.371237         2.44583
LJ          -1.83166         -1.0513        0.510633
LJ          -1.85187        0.231448         1.78832
LJ          0.824468        0.689526         2.07515
LJ         -0.831869       -0.120792        -1.54055
LJ              -nan            -nan            -nan
LJ          0.694711        -1.96278       -0.103099
LJ          0.318764         1.58621        -1.03979
LJ           1.26983         1.85403       0.0482247
LJ          0.233144        -1.18135        0.203267
LJ           1.70835        -1.59441         1.57837
LJ         -0.411931        -2.30804         0.26104
LJ          0.173406         1.57187        -1.11727
LJ          -1.64768       -0.757547        -1.61925
LJ           2.20297       -0.602219        0.485741
LJ          -1.91964        -1.48932           1.224
LJ          -1.00066       -0.376517         2.48284
LJ            1.5607        0.399856         1.12398
LJ           2.08749        0.452475         2.03665
LJ           0.56215         1.82005        0.304864
LJ          -1.24452       -0.123023        -2.20776
LJ           1.89198        -1.97506        0.478792
LJ         0.0703596         1.06832         1.76187
LJ           2.03051         2.00892       0.0197788
LJ          0.981565        -1.89656        -1.87364
LJ         -0.603777        -1.84642         1.86834
LJ           1.20399     -0.00141616         1.65357
LJ          0.553437        -1.23079         1.88945
LJ              -nan            -nan            -nan
LJ          -2.55641        -2.03581       -0.621298
LJ           2.49357        -1.31083        0.716668
LJ         -0.437836         1.12961        -1.57289
LJ           -1.7705        -1.38009       -0.344931
LJ          -2.41931         1.29107       -0.698114
LJ          -2.39089         -1.2935        -1.43324
LJ           -1.3854          1.3931        -1.38033
LJ              -nan            -nan            -nan
LJ           2.08256        0.733721         2.48004
LJ            1.5114       -0.525159        0.880542
LJ          -2.22253         -1.7361       -0.342195
LJ           1.48856       -0.564581         2.47214
LJ           1.92271        -2.55542        0.929091
LJ          -1.16716        -2.28492        -2.29904
LJ         -0.885406         2.05361        0.712017
LJ          0.555412        -1.93934        -2.39632
LJ              -nan            -nan            -nan
