108
#Comment!
LJ          -1.62438       -0.170125        0.332074
LJ         -0.828727        -1.60537       -0.531097
LJ          -1.75436        -1.89503         1.81777
LJ         -0.318536         1.82724         2.22269
LJ          -0.61783         2.05051         2.10594
LJ          -1.54003       -0.888278        -1.39536
LJ          -1.06435        -1.10457        -1.04017
LJ           1.77235         2.40673       -0.784251
LJ          -2.09069        0.696072         2.39826
LJ          -2.38973         1.47652       -0.148266
LJ              -nan            -nan            -nan
LJ           1.92547       -0.490671       -0.512059
LJ            1.9478         1.22366         1.41233
LJ              -nan            -nan            -nan
LJ          0.880504        -1.16038         -1.6657
LJ              -nan            -nan            -nan
LJ              -nan            -nan            -nan
LJ              -nan            -nan            -nan
LJ        -0.0658142         1.08978       -0.715755
LJ              -nan            -nan            -nan
LJ           1.83723         1.37246         1.99999
LJ         -0.699004        0.379115        0.431306
LJ         -0.402476        0.335096         2.24626
LJ          0.365044        0.250564        -2.38691
LJ           1.09706        -1.12818         1.34235
LJ          0.344146        -1.08013         1.83455
LJ         -0.568188         2.43839        -2.24294
LJ          0.231216         1.07452        -2.05082
LJ          0.276131        -1.13844         1.57661
LJ          -2.06829       -0.673173        -2.15401
LJ              -nan            -nan            -nan
LJ           1.53578       -0.184671        0.203349
LJ              -nan            -nan            -nan
LJ          -0.31313        -0.85701       -0.970018
LJ              -nan            -nan            -nan
LJ          -1.04051       -0.531309        0.707811
LJ         -0.941167        -1.28899         1.56486
LJ           2.17395        -1.22556       -0.537958
LJ           2.37049       -0.713265        -2.44352
LJ          -1.59698        -1.02836         -2.1242
LJ          -1.30052       0.0685403      -0.0722478
LJ         -0.731077          1.4356        -2.53526
LJ          -1.73203          1.8192        -2.41622
LJ           1.73035        -1.74421         1.70771
LJ           1.68825         -1.5613        -1.55429
LJ         -0.733789       -0.683816       -0.912183
LJ         -0.497323        -1.56176         1.22523
LJ           1.94051       0.0174775         1.41715
LJ           1.58482        0.257059       -0.231874
LJ          -0.35799        -2.48525        0.743351
LJ        -0.0869897        0.158889        -1.80655
LJ           -1.7662        -2.35637         1.05051
LJ              -nan            -nan            -nan
LJ          0.176701       -0.999105        -2.29749
LJ          0.323708        -2.27876        0.883786
LJ         -0.577809         2.06054        0.450722
LJ         -0.792188        -1.93946        0.490543
LJ         -0.666137          1.5767        -1.04259
LJ           2.13763         1.37784        -2.49358
LJ             2.114          2.5184         1.58036
LJ          -1.78178        0.760277         -2.2421
LJ          -1.58015         1.54616         2.43618
LJ          -2.27931        -1.90348         1.43177
LJ         -0.673014         1.08008        -1.98137
LJ              -nan            -nan            -nan
LJ          -1.87856       -0.334518       -0.853944
LJ          -0.17368         2.22593        0.910463
LJ              -nan            -nan            -nan
LJ          -1.01738        -2.31916       -0.084149
LJ          0.710752       -0.584861         2.27842
LJ          -2.56281         2.33714        0.387038
LJ         -0.811834        -1.39954        -1.49988
LJ           1.21039         1.33297        -1.26136
LJ           1.74526        0.686569        0.817327
LJ          -0.63544       -0.652781       0.0821554
LJ           2.15149         -1.5109        -2.44155
LJ           2.29847        0.326175       -0.266796
LJ         -0.997831       0.0707595       -0.408613
LJ         -0.749653         1.86568        0.836505
LJ           2.51075        0.665659         1.30379
LJ          -2.32948        -2.08588        0.996859
LJ           1.57273        -2.50143         -1.1072
LJ           1.80162       -0.463318        -2.16208
LJ           1.18845        0.789623         -2.3075
LJ           1.68232        0.355758        -2.10375
LJ           1.20131       -0.108023         1.05088
LJ          -1.83095        0.533709         1.14692
LJ         -0.307079          1.5055        0.584168
LJ         -0.671562       0.0121027        0.984152
LJ            1.6397        0.282658       -0.629467
LJ              -nan            -nan            -nan
LJ         -0.561651         1.20881       0.0741962
LJ         -0.572621       -0.209862        0.738585
LJ           1.60554        -1.08284         -2.1738
LJ           1.33739        -1.13711        -1.28852
LJ           1.60673        0.672047         2.47719
LJ           2.30717        -1.86135        0.163007
LJ          -2.20567       -0.167142        -1.37593
LJ              -nan            -nan            -nan
LJ          0.848521       0.0811127        -1.47339
LJ         -0.943967        -2.30624      -0.0996476
LJ          -2.05686         1.95944       -0.190998
LJ           2.02039        -1.00593         2.45918
LJ          -0.58665        0.921091        0.427303
LJ              -nan            -nan            -nan
LJ          -1.80383        -2.55022        -1.46936
LJ          0.224005        -2.03661        -2.21038
LJ              -nan            -nan            -nan
