108
#Comment!
LJ           1.77837        -2.04642         1.41539
LJ          -1.23356         1.44735         -2.3157
LJ           1.98896       -0.389158        0.903658
LJ            1.3237         2.40481         1.86435
LJ           1.73825        -2.29233        -2.46037
LJ           -2.0958       -0.120871        0.547338
LJ         -0.550306        -1.83973        -1.61902
LJ          -1.57762         -1.8962         2.12675
LJ         -0.969162       -0.891115        -1.89171
LJ          0.460572        -1.35156        0.931696
LJ              -nan            -nan            -nan
LJ          -1.89965         1.25064        0.980476
LJ          -2.41287         2.31353        -1.69201
LJ              -nan            -nan            -nan
LJ         -0.951001         2.41854         0.28421
LJ              -nan            -nan            -nan
LJ              -nan            -nan            -nan
LJ              -nan            -nan            -nan
LJ           2.44252        0.872079        0.419562
LJ              -nan            -nan            -nan
LJ          0.549343        -2.54385          1.8355
LJ           2.33384         2.42724        -0.23009
LJ         -0.870425        -1.55818       -0.234907
LJ              -nan            -nan            -nan
LJ           0.20252         2.47166        0.219266
LJ         -0.202292         -1.4897        -0.95805
LJ           2.44684        0.528481        -1.15228
LJ           1.54557       -0.889743         1.62334
LJ         0.0907937        -1.54091         1.12115
LJ           1.23135        -1.97787       -0.773017
LJ              -nan            -nan            -nan
LJ         -0.428884       -0.571827       -0.509365
LJ              -nan            -nan            -nan
LJ            2.5426        0.403376        -1.57514
LJ              -nan            -nan            -nan
LJ          0.811244         1.09608       -0.154715
LJ        -0.0252337         -1.4103         2.13634
LJ           2.12788         2.11675        0.696757
LJ        -0.0130184        0.116405         1.36769
LJ          -2.24314         2.42631        -2.10961
LJ          -1.64786       -0.190342         1.66479
LJ          -1.46833        -2.24023         -1.5448
LJ           1.26848         1.53816         2.04072
LJ          -2.22698        -1.93083        -1.14609
LJ           2.38583         2.16556        -2.23535
LJ           1.65653         1.43595         1.72062
LJ           -2.2755         1.75309        -2.21112
LJ         -0.175375         1.77698        0.415738
LJ        -0.0709181        0.958655        -1.54608
LJ          -1.02412        0.624984        -2.46332
LJ          0.398988        -2.08285       -0.633347
LJ          -1.08847        -1.27176         2.40091
LJ              -nan            -nan            -nan
LJ          0.898833         1.84548        -1.72892
LJ          0.733291        -1.04633        -1.23279
LJ         -0.538249         1.63757       0.0290239
LJ          -2.50129        0.860477         2.16815
LJ           1.25586         1.35648         1.74852
LJ         -0.497275        -1.17566       -0.552896
LJ          -2.18686         2.49899        0.367785
LJ           -2.3079       -0.585233        -2.31949
LJ          -1.64165        -1.85943        -2.14183
LJ         -0.849334         2.23404         2.32545
LJ              -nan            -nan            -nan
LJ              -nan            -nan            -nan
LJ         -0.782214        0.749877       -0.591848
LJ          -1.95997         1.17682        -1.45986
LJ              -nan            -nan            -nan
LJ          0.702359       -0.431615        -1.18222
LJ          -2.22748        -1.78224         2.17091
LJ           2.43475      -0.0669478        -2.19812
LJ           1.70881         -2.4095         -2.5617
LJ         -0.481416        0.841187         2.08585
LJ           1.62266         1.58589       -0.999082
LJ         0.0173058        -0.96094       -0.665325
LJ          -1.59917        0.570728        -1.70098
LJ          0.961402       0.0540493        -2.14855
LJ           2.18233        0.199132       -0.423774
LJ           1.38088        -1.16315         1.18636
LJ           2.53345          1.8328         2.21523
LJ           2.10787        -1.27819        -2.08179
LJ           1.53649       -0.775582         1.67959
LJ          0.639346         1.41126        0.316829
LJ          0.731624        -2.34429       -0.690142
LJ           1.21301         2.38157        0.127615
LJ          0.841508         1.99499        -1.73112
LJ           1.91386        -2.27455        0.946948
LJ         -0.266929        0.582219          1.0939
LJ          -1.23714        -1.88021        0.604076
LJ         -0.547122         -0.5555        -1.01195
LJ              -nan            -nan            -nan
LJ           1.20554        -1.68687       -0.502906
LJ          -2.50727         1.69827        0.222393
LJ          -2.08154        -2.40305       -0.134659
LJ           2.52837        0.768149         1.50008
LJ           1.98551        -1.17134       -0.871337
LJ          0.593678         2.55953        0.464157
LJ          -1.82288        -2.04632        -1.60795
LJ              -nan            -nan            -nan
LJ           1.21714         1.14373        0.756982
LJ          -1.37423       0.0879883        0.772745
LJ          -1.16723       -0.870163        -1.67131
LJ           1.65718        -2.27888        -1.58872
LJ          -1.02131        -1.98486        -1.66768
LJ              -nan            -nan            -nan
LJ           -1.7696        0.984535         2.52101
LJ           1.15523       -0.696837        -1.51169
LJ              -nan            -nan            -nan
