108
#Comment!
LJ         -0.937139        -2.40643        -2.00544
LJ           1.20314         1.18112         1.04478
LJ          -1.38725        -1.08815        0.615651
LJ           2.39388        -2.24394         -0.2736
LJ          0.989699         2.46517        -2.04277
LJ           1.71315        -1.43393        0.307814
LJ          -1.15982       -0.375358       -0.309163
LJ          0.211613         2.20028         -1.3657
LJ           2.42168         1.19154        -1.46102
LJ         -0.690602         1.24101         2.19448
LJ              -nan            -nan            -nan
LJ           1.68466         2.08748        0.643683
LJ          0.663839         1.51581       -0.108495
LJ              -nan            -nan            -nan
LJ          -2.20427        0.236397         1.80789
LJ              -nan            -nan            -nan
LJ              -nan            -nan            -nan
LJ              -nan            -nan            -nan
LJ          0.969729         1.44603         2.44414
LJ              -nan            -nan            -nan
LJ           2.23338       -0.418178        0.148731
LJ         -0.441449         1.55894        -2.33986
LJ          0.231204          -2.226        0.610304
LJ          -1.54097       -0.559447         1.23624
LJ           2.27363        -1.87684        0.872784
LJ         -0.940426        -2.28649        -1.25818
LJ          0.551529        0.941107         2.03597
LJ          0.745967        -1.05285         1.30023
LJ           2.38165         2.33295        -1.14316
LJ          0.726502        -1.48761       -0.214471
LJ              -nan            -nan            -nan
LJ           1.19237       0.0681308       0.0304356
LJ              -nan            -nan            -nan
LJ           1.40869        0.909374         1.00412
LJ              -nan            -nan            -nan
LJ         -0.418649        0.985746        0.436426
LJ          0.184197        -1.98062         1.30101
LJ         -0.711896        -1.32849         0.79429
LJ           2.46034        0.636031         1.62284
LJ           2.55102        -1.86691        0.135471
LJ          0.118255        -1.43941         1.39227
LJ          -0.70949        -2.19615       -0.190553
LJ            2.4615         2.47473        0.206384
LJ           1.15623         2.12006         2.07328
LJ         -0.912577        -1.48645         2.03668
LJ          -1.28308        -1.70923         -1.9895
LJ          -0.22377         1.82732        0.911793
LJ          0.906725         2.05431         1.41797
LJ           1.51425        -1.43062          1.7216
LJ         -0.438304        -2.19066         2.20805
LJ           1.29178         1.81919       -0.132606
LJ          0.282506       -0.708953        0.732946
LJ              -nan            -nan            -nan
LJ         -0.503214         -2.1993         1.22615
LJ            2.4832         2.32184       -0.873367
LJ          -1.88241       -0.315454       -0.234523
LJ          -2.31892        0.934056       -0.645747
LJ          -1.24188        -2.31854         2.36871
LJ        -0.0591081        -2.01823         2.06224
LJ          -1.86042        -1.30945       -0.226019
LJ          0.794996        -2.45463        -2.55125
LJ          -1.45632         1.68505        -1.05881
LJ           1.06864         1.93672       -0.776635
LJ         -0.755239         2.55188          1.9513
LJ              -nan            -nan            -nan
LJ           2.43351         1.23059        -2.04309
LJ            1.5597        -2.33406         1.77091
LJ              -nan            -nan            -nan
LJ           2.08214        0.671031        -1.74533
LJ        -0.0177885         -1.7055        -2.52648
LJ          -2.16687       -0.224911         -2.0986
LJ         -0.125966        0.972186         1.06397
LJ           1.19868        -2.53841        -1.20144
LJ           1.65941         1.34125       -0.829997
LJ         -0.504827         1.44993        0.232548
LJ           1.16956        -2.40857        0.402145
LJ          0.173225         2.54439       -0.918272
LJ          -2.06259         1.83818         1.31998
LJ          -1.11715         1.04006        0.671733
LJ          -1.60008         2.09816        -2.48474
LJ           -2.4647         1.57848         1.15123
LJ          -2.30535       -0.118774       -0.979973
LJ           1.52057         1.44055       -0.316355
LJ          -1.80152        -2.13695         1.09892
LJ         -0.114262        0.119634        -2.49157
LJ          -1.03996        -1.64361       -0.195653
LJ          -1.99125      -0.0537074        -1.82345
LJ           1.13327         1.88609        -2.18979
LJ         -0.384142       -0.783692         2.13464
LJ         -0.669435      0.00310343          1.9462
LJ              -nan            -nan            -nan
LJ          -2.26933        -2.52499        0.435372
LJ          -2.13833         1.24077         1.89553
LJ          -1.40544        0.484431       -0.464935
LJ          0.538883        -2.32038         1.11843
LJ          -2.18101       -0.164534         2.27703
LJ         -0.446787        -1.84828        0.443781
LJ          -1.23005         1.89082         1.07193
LJ              -nan            -nan            -nan
LJ           2.06899        -2.01748       0.0658404
LJ          -1.53926        -1.50922         1.32765
LJ         -0.498258        0.409751         0.81556
LJ          0.599812        -1.22126      -0.0806383
LJ          -1.07792        0.329819         2.36226
LJ              -nan            -nan            -nan
LJ           1.78645       -0.488144        -1.79921
LJ          0.202267        -1.41612        -1.62104
LJ              -nan            -nan            -nan
