108
#Comment!
LJ        -0.0652152        -2.14322        0.217061
LJ        0.00867133        -2.36282         2.26824
LJ          0.233503        -2.55839       -0.134097
LJ           0.53033         -0.1357         1.20512
LJ          -2.21835         1.38274       -0.963864
LJ          0.650485        -2.25435        -2.24137
LJ          -2.54638         2.52939        -1.59054
LJ          -1.88419         -2.2426       -0.681984
LJ         -0.193285        -1.57767         2.19936
LJ         -0.705799       -0.410528        -1.23906
LJ              -nan            -nan            -nan
LJ         -0.988711        0.750364         2.50571
LJ         -0.826163         1.94685        -1.67251
LJ           1.34693         2.35783        -2.18869
LJ           2.19252       0.0666764       -0.219299
LJ              -nan            -nan            -nan
LJ              -nan            -nan            -nan
LJ              -nan            -nan            -nan
LJ         -0.400974        -2.48303       0.0681035
LJ              -nan            -nan            -nan
LJ         -0.647272        -2.32475         1.51848
LJ           2.10246       -0.229869         1.30247
LJ          -2.08361         2.29275       -0.223723
LJ          0.851537       -0.732616        -2.39368
LJ           1.11758        -1.76292        -1.42967
LJ          -0.68505         1.78146         1.07088
LJ          0.587189        -1.95531         1.72071
LJ           1.09604         1.19817        -1.37088
LJ           2.56118       -0.147173         2.18743
LJ           2.28333       -0.835217        -1.19254
LJ          0.874633       -0.371769          1.7024
LJ          -2.23235         2.38598         1.99324
LJ              -nan            -nan            -nan
LJ           1.07948       -0.551829        0.755093
LJ              -nan            -nan            -nan
LJ           2.44506        0.266922       0.0350719
LJ           1.42218         0.93026         2.16278
LJ         -0.511595        0.762411         2.47906
LJ         -0.288222        -1.18849        -1.90841
LJ          -1.90811         2.40568       -0.574098
LJ         -0.618309       -0.456902       -0.520047
LJ           2.08059        -2.27179       -0.837432
LJ            1.3969        0.461239        0.838022
LJ          -2.35422        -1.60113        0.730546
LJ            2.0229         2.40713        0.466244
LJ         -0.470692         1.18096        0.865238
LJ           2.47217        0.884894       -0.681544
LJ           0.34359         0.18797         1.43511
LJ          -1.91097       -0.809779         1.32226
LJ          -1.04495        -1.67023        0.418356
LJ          -2.31864        0.126182       0.0273357
LJ           1.40468         1.06709       -0.755544
LJ              -nan            -nan            -nan
LJ          -1.78322        -2.05947         2.08408
LJ          -1.09599         1.83554       -0.332814
LJ          -1.38327       -0.900015        -1.70164
LJ           2.55366        0.597994         0.64294
LJ          0.359993        0.586606       -0.973664
LJ          0.852277        0.513318         1.66749
LJ           -2.0627        -2.17604         1.76722
LJ          -1.30469        -2.43966          1.0963
LJ          -1.70209        0.401022         1.29175
LJ         -0.023386         2.11048         1.08758
LJ          -1.50638        -2.42316         1.94116
LJ          -1.04117        -2.42166         1.87781
LJ          0.338513        0.932255        -1.40654
LJ          -2.07665        0.763192       -0.189907
LJ              -nan            -nan            -nan
LJ          -2.28694        0.830667       -0.563417
LJ          -0.72182          1.8675        0.696305
LJ          -1.84322        0.621569         2.38876
LJ          0.136585         1.26798        -1.46415
LJ           2.23283        -1.78292        -1.59042
LJ          0.278445        -1.23187       -0.427006
LJ           2.46019        -2.52132         1.91706
LJ          -1.25835         -2.3105        -1.78144
LJ         -0.675403         1.54261       -0.878118
LJ         -0.560377         1.90924       -0.178484
LJ           -0.8496        -1.74808         2.11656
LJ            1.0362         2.34169         2.12095
LJ         -0.368023        0.759939        -0.64569
LJ         -0.260394         2.14537         2.29002
LJ          0.908076         0.41772        0.428516
LJ          -2.23284        -1.04491        0.267993
LJ          -2.08251         2.24356        -1.95071
LJ          -1.69792          1.6102       -0.725132
LJ          0.389726       -0.738898         1.30234
LJ          0.664714        0.107096         1.10422
LJ         -0.425076       -0.580848       -0.645408
LJ           1.81125        -1.16014         1.61648
LJ              -nan            -nan            -nan
LJ          0.780562         0.29849       -0.119177
LJ           1.53036         2.12298         1.77705
LJ          -0.73358        -1.25154         2.47953
LJ           1.84885       -0.109612         1.78549
LJ         -0.149061        -1.38556        -1.37261
LJ           2.32886          2.0882       0.0370556
LJ          -1.30702        0.288018        -2.51926
LJ              -nan            -nan            -nan
LJ          -1.02281         2.40421        0.205681
LJ          0.918562         1.83731        0.304164
LJ           1.10709         1.21083       -0.744027
LJ          -2.04884          -1.797       -0.243753
LJ          -2.42519         1.81807        -1.07405
LJ          -1.35105        -1.48109        0.337246
LJ          -2.16669         1.58901         -2.2016
LJ          0.337441         0.70693         2.04857
LJ              -nan            -nan            -nan
