108
#Comment!
LJ           1.92249        -1.20616        0.850081
LJ          -2.03831         2.33272        -1.55797
LJ         -0.962385         1.91404        0.501133
LJ          -1.53653       -0.227455         1.18549
LJ           1.67302        -1.57206        0.967956
LJ         -0.695081        -1.89103        0.159707
LJ          0.753137       -0.753576       -0.316956
LJ         -0.501524        -1.05994        -1.73528
LJ          0.387847          2.1895       -0.557151
LJ            1.7558         1.75014        -2.08031
LJ              -nan            -nan            -nan
LJ          -1.25083       -0.346775        -1.39141
LJ             2.209         1.53207        -1.77825
LJ          0.280854        0.160561        0.866427
LJ         -0.974729        -1.76648         1.68297
LJ         -0.197828       -0.141479      -0.0672283
LJ            2.1097         2.33358       -0.967289
LJ          -1.70382         1.16406        0.484911
LJ          -1.14895        -1.32617        -1.50142
LJ          0.476542         2.32691        -1.33652
LJ           2.15021       -0.156523         1.25603
LJ           2.37124       -0.678185       0.0171942
LJ          -2.44497         2.09248        0.137987
LJ          -1.37911        -1.65267         2.28053
LJ           1.20312         2.07676        -1.08039
LJ            1.1886        0.520209         -1.5896
LJ           1.26577        -2.50391       -0.180903
LJ         -0.447037         2.25685        0.725787
LJ          -1.42319        0.629982        -1.24262
LJ          -1.85396        0.434647         1.20312
LJ           0.96784        0.645839         1.14725
LJ          0.834845       -0.613848        -2.28356
LJ              -nan            -nan            -nan
LJ         -0.424704         1.14254       -0.684408
LJ          0.980305         1.32542        -2.11693
LJ          0.220395        -1.95187        -1.40386
LJ          -1.41632         2.45335       0.0649743
LJ          -1.85415       -0.342938         2.42911
LJ         -0.869454        -2.42492        0.523833
LJ           1.52198        -1.36974        -2.11411
LJ          0.919554         2.49874       -0.572559
LJ          0.510429      -0.0706054          2.2629
LJ           2.14684        0.261542         1.96747
LJ          -2.08247        -1.00505      -0.0071981
LJ          -0.18362        -1.75537         2.39227
LJ         -0.485683         1.84241       -0.389669
LJ           2.03287       -0.889715        -2.38028
LJ        -0.0241329        -1.63974        0.040366
LJ          -2.11213         1.92523         2.39634
LJ          0.730582        0.411373         1.66729
LJ           1.82495        -2.29316       -0.774463
LJ         -0.538324       -0.465009        0.595865
LJ          -1.57921         1.53648        0.734125
LJ          0.657651       -0.826621         1.25175
LJ          -1.84785       -0.661658       -0.161331
LJ         -0.928343         2.49408        -2.07521
LJ           1.22635       -0.355006         1.41662
LJ           2.36861        -0.68593        -2.28141
LJ           -2.0198         1.58959        -1.03588
LJ            1.7767        -1.56389         2.14518
LJ          -1.12116       -0.793514       -0.257124
LJ         -0.217175       0.0700145        -2.50271
LJ         -0.924424        -1.33791        -2.15178
LJ            1.5131         1.18479         -1.1913
LJ           1.21618        -1.23662        0.707186
LJ          0.940143       -0.613368       -0.544698
LJ          -1.12455        -2.42078         1.56134
LJ          -2.14114        0.144168        -1.44185
LJ         -0.778124        -1.37797         1.16579
LJ          -0.47068       -0.287384        0.468012
LJ          0.917423         1.99153        0.587312
LJ         -0.247903        -1.77184        -1.46168
LJ          0.567957         1.63326        -1.02613
LJ          0.400927          1.6299       -0.877509
LJ           1.67807        -1.57906      -0.0376807
LJ           1.60437        -1.47073        0.869568
LJ           1.80495        -1.02039        0.133678
LJ         -0.778228        -2.12227        -1.78854
LJ          -1.89685         1.98475       -0.259767
LJ          -2.07165        0.627648        -2.11877
LJ          0.201829       -0.599517        -1.29311
LJ          0.631316         -1.9238        0.776799
LJ          -1.46731       -0.310167      -0.0346517
LJ           1.63584         2.47073        -2.41055
LJ         -0.240091      -0.0572185        -1.53966
LJ           1.34621       -0.149186       -0.830938
LJ          0.746916         1.94888         -1.1848
LJ         -0.386996        -1.31885        0.852966
LJ          0.106589        -1.83166        -2.08543
LJ         -0.877209       -0.809683         2.37589
LJ          0.716899          2.1485       -0.842599
LJ          0.555555        -1.07037       -0.595985
LJ          0.662109        -1.20478         1.03601
LJ          0.260196        -2.14635         -1.9475
LJ         -0.768041        -1.74152         1.25958
LJ         -0.804391        0.199075       -0.479922
LJ          -1.10191        -1.24337        -1.34548
LJ          -1.72925         1.00054        0.422732
LJ          -2.25303        0.501596       -0.287706
LJ          -2.43538        -1.47367        0.786069
LJ          0.530518         2.11557         1.00033
LJ         -0.951574          0.6085         1.09515
LJ           1.62676        0.983495        -2.23946
LJ          0.619973        -1.89189        0.462724
LJ          0.819585        -1.09045         -1.7859
LJ          -1.12357        0.999082        0.815953
LJ          0.140664         2.40023        -2.37455
LJ           1.09812        -1.85409         1.85076
