108
#Comment!
LJ           1.96685        -1.04038       -0.824344
LJ           2.23509        -1.25963          1.9408
LJ           2.15695         0.42645       -0.200306
LJ          -1.05368        0.887914       0.0177708
LJ          0.553274       -0.534431         2.34437
LJ          -1.28901        -1.74912        -1.12954
LJ         0.0615405        -1.59838         1.82168
LJ           1.60715        0.159117       -0.984321
LJ         -0.542577         2.17055        0.222153
LJ           2.30977        0.770477        0.424132
LJ              -nan            -nan            -nan
LJ           0.38062         2.38201        -1.37052
LJ          -2.04281          -1.867         1.64229
LJ           2.24743         -1.2684         0.73117
LJ          -1.65507        0.575741         2.21473
LJ          -1.38436         1.02553        -0.15585
LJ           1.77865        -1.40765         2.34989
LJ         0.0926519         2.05093         1.04023
LJ          -1.22651       -0.622206         1.59454
LJ          0.121666         1.70472        -0.77907
LJ         -0.526125         2.21249        -1.82217
LJ          0.831846         2.44358         1.79563
LJ           1.75112         1.53684       -0.828522
LJ           1.92434        0.910348        -1.61327
LJ          -2.41374        -2.49344        -0.23118
LJ          -2.44147        0.563218        0.117796
LJ          -1.75798        -2.32725        0.232832
LJ          0.985525         1.19293        -1.97888
LJ           1.30074       -0.511302        -0.34579
LJ          -1.91058         0.40561       -0.111076
LJ          0.654388         1.86593        -1.37818
LJ           0.93047       -0.487837        -1.04697
LJ              -nan            -nan            -nan
LJ           1.97339         1.21956        -1.34668
LJ              -nan            -nan            -nan
LJ           2.40793        -2.40567         0.27259
LJ            2.2526         1.73802        -2.43602
LJ          0.209227        -2.51236        -1.85061
LJ         0.0884269         0.62755        -1.60933
LJ          -2.21712        0.600118        0.426888
LJ           -2.2758        -2.51194          1.7762
LJ          -0.22947      -0.0222511         2.28522
LJ          0.323438        -1.95397        0.754147
LJ          -1.74975        -1.57991         0.34734
LJ         -0.247706        -2.01655          1.3776
LJ          -1.25711         2.01041        0.959196
LJ        -0.0589285         2.09133        0.432254
LJ           2.38367        -2.22561         1.42856
LJ           2.45016        -2.25747        0.452383
LJ          -1.07272        0.441187         1.22137
LJ          -1.22869       -0.839903        -1.60699
LJ          -1.19111        -2.36098         1.31183
LJ          -1.58309         1.77944         2.17045
LJ          -1.91764        0.135115        -1.41458
LJ           1.46891        0.500918         1.40196
LJ           1.73563         0.52099     -0.00482381
LJ         -0.287662         -1.2014        -1.44996
LJ         -0.439827       -0.987911       -0.980479
LJ         -0.827837        0.647416         -1.1296
LJ           1.03113         1.37096        0.985197
LJ          -2.04456         0.21964         0.23478
LJ          -1.16207       -0.779755       -0.468807
LJ           1.96794         1.17061        0.696483
LJ         -0.247967         1.18649        -2.24453
LJ           -1.6747         1.17435         1.16463
LJ          -2.38041         2.25781        -1.19907
LJ          -1.72588        0.931601         1.76119
LJ              -nan            -nan            -nan
LJ           -2.3171       -0.795855         1.35921
LJ          0.443412         2.01313        -2.56273
LJ           1.08658       0.0961822        0.553334
LJ           1.42104        -2.44393       0.0720601
LJ           1.70945        -1.03952        -2.27858
LJ         -0.266512         1.82114       -0.212473
LJ         0.0647093         1.93061        0.958057
LJ          -2.43254       -0.930791         -1.8136
LJ          -2.13155         1.83273        0.642219
LJ            1.7557        -2.05795         1.27656
LJ           1.99858        0.912769         2.03453
LJ           0.93544          1.4142       -0.364896
LJ          -2.18166        0.244756        -2.02179
LJ         -0.651333         1.12343       -0.290024
LJ           1.80809         1.74404         1.30725
LJ          0.314061        -1.50433       -0.170911
LJ            1.9035         1.21313        0.310868
LJ            1.0856       -0.519581         1.60379
LJ          0.472355       -0.952272         2.08171
LJ          0.979214         1.46622         1.60586
LJ          0.394042        -2.19467        -1.27816
LJ          0.116831         1.95328       -0.117136
LJ            1.4867      -0.0652163        0.275086
LJ          0.104985         1.99998        -1.46299
LJ          -1.54387        -2.00536       -0.439001
LJ           1.69163         1.28731        0.523177
LJ           2.21377       0.0218463        0.155029
LJ          -1.34583         -1.7272      -0.0736885
LJ          0.261441        -0.29138        -2.04894
LJ         -0.676309        -2.25453         2.33878
LJ          -2.55702        -1.21654         1.08882
LJ          0.686464        -1.15855         2.29419
LJ            0.8194        -2.10032       -0.968529
LJ          -1.03941      -0.0742519         -2.3882
LJ         -0.649504        -1.33408        -1.16512
LJ          -2.15454       -0.513864        -1.20705
LJ          -2.15019         1.15937         2.33955
LJ          -1.96246       -0.950047         -1.2012
LJ         -0.302111         1.94157        -1.75636
LJ           1.87014         1.95114        -2.00712
