108
#Comment!
LJ          -1.34301        -1.05984       -0.322046
LJ           1.06477        0.698562        -1.55717
LJ           0.48917         2.23086        0.247321
LJ           2.14289        0.431119         -1.1511
LJ           1.60704        -1.10334        0.244439
LJ          0.552079         1.83583        -2.33656
LJ           1.59521         1.54684         1.13213
LJ           -2.3263        -1.64919        -2.44581
LJ           -2.0096      -0.0450747       0.0105437
LJ          -1.67631         0.46378       -0.172911
LJ              -nan            -nan            -nan
LJ           1.84303        0.871055         1.41832
LJ         -0.737045         2.31749         1.48613
LJ              -nan            -nan            -nan
LJ           1.14671       0.0387766        -1.31619
LJ              -nan            -nan            -nan
LJ              -nan            -nan            -nan
LJ              -nan            -nan            -nan
LJ          0.719874        -1.09779        -1.97356
LJ              -nan            -nan            -nan
LJ         -0.902129        0.331846         1.42068
LJ          -1.82081        0.292256       -0.127433
LJ           -2.4052        -1.37835         1.75087
LJ           1.69679        -1.65426         2.32941
LJ           1.25305         1.31016        0.602232
LJ          -1.53985        0.856901        0.979921
LJ          0.914979         2.51171       -0.773631
LJ         -0.560424        -0.83547        0.149206
LJ          -2.17573        -2.29103         1.25046
LJ          0.994988       -0.396949        0.652221
LJ              -nan            -nan            -nan
LJ          0.437578         2.48073         1.64989
LJ              -nan            -nan            -nan
LJ          0.168898        0.621727        0.166406
LJ              -nan            -nan            -nan
LJ          0.301727         0.22998        0.319034
LJ           2.43022       -0.100683        0.426322
LJ          -1.27616       -0.913339         1.01315
LJ           1.93145         1.15748        -1.30297
LJ          -1.64037        -1.54973       -0.803521
LJ           1.52465        -2.25516         -2.3615
LJ          -1.67678        -1.91298         1.64466
LJ          -1.18195         2.14352        -1.97259
LJ          -1.06083         2.40502         2.47408
LJ           1.95429         1.88004       -0.537435
LJ        -0.0837153        0.613006        -2.20684
LJ           2.36297         1.77381       -0.179705
LJ          -1.71115        -2.18883          2.3187
LJ           2.11487        -1.43491        -1.53563
LJ           -1.8743         2.48806        -2.20909
LJ            -1.892        -1.54283         1.44045
LJ         -0.137499        -1.42533         1.85832
LJ              -nan            -nan            -nan
LJ          0.252224       -0.641544         2.34873
LJ         -0.860364         2.21752         1.98061
LJ          -1.76295        -1.98574        -1.96408
LJ          -2.09003        -1.27388         1.89184
LJ          -1.54796        -2.20233        -2.25774
LJ          -1.15394           2.505         1.02021
LJ         0.0656525          2.5177         1.06676
LJ         -0.738377          2.4664        0.193433
LJ          0.564112         1.58943        0.437921
LJ           1.46269       -0.863508        -1.53326
LJ          -1.15791         0.60474        0.657097
LJ              -nan            -nan            -nan
LJ          -1.82092        -2.54069        -1.61245
LJ          -2.24739       -0.559062         1.56774
LJ              -nan            -nan            -nan
LJ          -2.37049        -1.54072        -1.74167
LJ         -0.869322         1.23241         1.26441
LJ           1.27951       0.0109462       -0.610181
LJ          0.831293         1.06016        0.275362
LJ          -1.98517       -0.828268        0.429295
LJ           1.50011        -1.69978        -1.68521
LJ          0.559778         2.38466         2.52805
LJ           1.17036        -2.32442         2.18301
LJ          0.127552         2.41576        0.413464
LJ          0.685426         2.00766         1.93251
LJ          -1.51589        0.561535        -1.58562
LJ          -1.14244         1.74806         2.27224
LJ          -1.42237         1.17008        -1.23094
LJ           1.71608        -2.25979       -0.770809
LJ         -0.317016         1.60591         1.11415
LJ            1.9888        -1.68499        0.223564
LJ           -2.0554         1.11938        -2.55677
LJ             2.028        -2.18299        0.401963
LJ        -0.0359134        0.674688        -1.59637
LJ          -1.75829       -0.610787        0.106964
LJ         -0.296438        -1.13754         1.75236
LJ          -1.13656         1.44671        -1.10263
LJ              -nan            -nan            -nan
LJ           1.52617         1.78328         1.66049
LJ           -1.7439         -1.9962        -2.09452
LJ          -2.49711     -0.00645513        0.469003
LJ           1.23321         1.05815        -1.80305
LJ           2.04032         1.49373      -0.0601669
LJ          -2.34931        -1.85334         -1.6411
LJ          -1.54897        -1.60428         2.22746
LJ              -nan            -nan            -nan
LJ          0.842583       -0.987221       -0.538269
LJ          -1.12608        -1.50212        -2.44909
LJ          0.189379       0.0303211        -2.11624
LJ          -2.31871          1.8251         2.46737
LJ        -0.0457886         1.57185        -1.54924
LJ              -nan            -nan            -nan
LJ          -2.32442         1.01079         2.41895
LJ          -1.71465       -0.352105         1.34891
LJ              -nan            -nan            -nan
