108
#Comment!
LJ           2.54004         2.40395        -1.67867
LJ          -1.48144         2.47661        -2.16211
LJ            2.0324         1.62413       -0.847692
LJ          -1.83313         -1.9756        0.425209
LJ          0.346185        -1.98335       -0.282807
LJ         0.0976849        -1.21364          1.0179
LJ          -1.83657         2.13078        0.691827
LJ          -2.31303         1.59448         1.38264
LJ         -0.616746         2.54517         2.07901
LJ          -2.12404        -2.52944        -1.74033
LJ              -nan            -nan            -nan
LJ          0.757606       0.0974017       -0.274799
LJ           2.54972         2.53122         2.12548
LJ           2.09437          1.2735       -0.991697
LJ         -0.679808         1.18059        -2.06736
LJ              -nan            -nan            -nan
LJ              -nan            -nan            -nan
LJ              -nan            -nan            -nan
LJ          -2.21151        -1.61467        -1.27014
LJ              -nan            -nan            -nan
LJ          0.490518        -2.43553        -0.81378
LJ           1.44386         1.41356        0.646656
LJ           1.67379        -1.69486         2.41337
LJ          -0.71223        -2.15997      -0.0275093
LJ          -1.40041        -1.60512       -0.929693
LJ           1.71527         1.36733        -2.51751
LJ          -2.20584        0.122987       -0.781585
LJ         -0.257142        0.793817        -2.35803
LJ          0.285094        -1.71134        -2.19903
LJ          -1.58691       -0.195492         1.90866
LJ         -0.422595        -1.00918        -0.43563
LJ          0.618247         2.52177         1.89912
LJ              -nan            -nan            -nan
LJ           1.07511        -1.15539         2.23273
LJ              -nan            -nan            -nan
LJ          -0.90126        -1.01753       -0.246907
LJ           1.96878        -2.30103        -1.64918
LJ         -0.456777       -0.797935        -1.85765
LJ          0.235521         2.40472         1.01904
LJ         -0.267365        -2.10999         2.04378
LJ           2.42797        -1.25952        -1.92845
LJ           1.75107       -0.935771      -0.0485502
LJ          -2.20338        -2.06697        0.210375
LJ          -2.39754         1.58062        -2.52685
LJ           2.46459         1.83168        -1.31299
LJ         -0.968434       -0.803249        0.577535
LJ         -0.457868         2.42743        -1.78184
LJ           2.48963         2.35841         2.47236
LJ          0.829161       -0.588742        0.501962
LJ          0.569928        -0.59208         1.70085
LJ          -1.44841        -1.24855         1.65074
LJ          0.828171       0.0229133        0.838513
LJ              -nan            -nan            -nan
LJ           1.82457         1.56177        0.424144
LJ          -2.30297        0.855821        0.194195
LJ          0.465662         2.22608       -0.132963
LJ          -1.53627        -1.69186       -0.133102
LJ           2.17627        0.629931        0.662449
LJ           1.08325       0.0510147       -0.687292
LJ          -1.39581         1.73788        0.413195
LJ          -1.54255          1.9317         -1.9743
LJ          -1.19725        0.647435        -2.14187
LJ         -0.850909        0.182334        -2.51066
LJ           1.47476        0.754412        0.989512
LJ           1.41923        -1.07706         1.10535
LJ          -2.16637        -1.78949        0.638347
LJ         -0.617994        -2.12149         2.22111
LJ              -nan            -nan            -nan
LJ           -2.4087        -1.03755       -0.922044
LJ           1.94704          0.3356        0.327313
LJ         -0.573862          1.3625       -0.304013
LJ           2.14814        0.513863       -0.168497
LJ          -1.43434        -1.86281        -1.27443
LJ           1.80022         2.17922        -1.44743
LJ          -1.01859       -0.168918         2.21983
LJ          0.300477           2.354        -1.77372
LJ          0.300019        -2.42931         2.02342
LJ         -0.418105         1.64258         1.95293
LJ           1.87828       -0.244843       -0.541986
LJ          0.461679         1.27814        0.942624
LJ           1.81435       -0.923008         1.32865
LJ          -2.13661        -1.10165         1.97444
LJ          -2.00473       -0.893547       -0.377567
LJ          -1.27896        0.601373        -1.60827
LJ          -2.40088        -1.33603         1.55179
LJ           1.50812         1.51276        0.146898
LJ          0.885816        -1.22408         1.94123
LJ          0.932273         -1.2299         2.30914
LJ          -1.28878        0.875521        0.205935
LJ          0.649228         1.86841       0.0772058
LJ              -nan            -nan            -nan
LJ           2.45948        -2.46156         1.96925
LJ           1.61516       -0.876444       -0.220131
LJ           0.48186       -0.190888        -1.52097
LJ          -1.15827       -0.176951        -2.03887
LJ         -0.399154          2.5448        -2.31729
LJ          -1.93152      -0.0827881       -0.933242
LJ           1.77286        -1.38428        -1.16106
LJ              -nan            -nan            -nan
LJ         -0.535414         1.47291        0.533108
LJ         -0.361709        -1.82466         1.75708
LJ         -0.727069       0.0309017       0.0883606
LJ           1.58393       -0.184201         2.55483
LJ          -2.32257        -2.24294        -1.35863
LJ          -2.30901         1.41565        0.763058
LJ          -1.72354       -0.141774          1.9449
LJ           2.46898         1.06856        -1.01733
LJ              -nan            -nan            -nan
