108
#Comment!
LJ           1.80203         1.93728         1.01521
LJ           2.56381        0.631515         1.78354
LJ          -1.61017        -2.11013        -1.34706
LJ         0.0537491      -0.0685878        -1.72432
LJ           2.01423        0.187277         1.97372
LJ           1.93352         2.15512       -0.962216
LJ            1.0894       -0.525197         2.33674
LJ            2.0481         1.67247        0.296466
LJ         -0.663711        0.361194        -1.93889
LJ         -0.116516       0.0258987        0.624909
LJ              -nan            -nan            -nan
LJ          -1.75607       -0.431676        -1.87967
LJ           2.24157         1.25392       -0.106548
LJ           1.33557         0.83721       -0.620041
LJ           2.51455         1.83864         2.16813
LJ           2.29521        -1.92193        -1.59732
LJ              -nan            -nan            -nan
LJ              -nan            -nan            -nan
LJ           1.80349        -2.33784         2.23491
LJ              -nan            -nan            -nan
LJ          -0.78706         2.00021          1.5957
LJ             1.603         1.63257        -1.83322
LJ           1.56504       -0.821481       -0.620916
LJ         -0.339653         2.41213        -2.44315
LJ          0.411274        -1.34107         2.08795
LJ         -0.827791         1.55695        -2.16108
LJ           1.33902        -2.35564      -0.0253759
LJ           1.76956       -0.258158        0.521341
LJ          0.225307         0.95955       -0.772798
LJ           -2.5048       0.0127918         2.00528
LJ           1.99733         1.94493         1.92484
LJ           1.04812       -0.797826        0.565357
LJ              -nan            -nan            -nan
LJ         -0.818087          -1.176          1.1082
LJ              -nan            -nan            -nan
LJ          -1.75521         2.30593          2.0735
LJ          -1.85929         1.20625        -1.73284
LJ         -0.819946        0.702286        0.291773
LJ          0.418915        -2.03111       -0.665891
LJ           2.36038        -1.75609       -0.984337
LJ         -0.624115       0.0863512         2.02105
LJ          -2.19816        -1.98398         1.87865
LJ           1.08164         -1.1976        -2.41048
LJ          -0.65709         1.95036        0.733807
LJ          -2.26086        -1.92414       -0.202181
LJ         0.0804028       -0.610329       0.0695537
LJ         -0.623916        -1.81662       -0.176349
LJ            -1.844        -1.37966        -2.34105
LJ            -2.038       0.0501345         1.03452
LJ           1.45725          0.7854         2.00833
LJ         -0.526788       -0.649532       -0.833551
LJ          -1.01739        0.608805       -0.427785
LJ              -nan            -nan            -nan
LJ         -0.176971       -0.603062       -0.961649
LJ          -2.03998         2.47438        -2.35179
LJ           1.24739         1.27648        -2.10299
LJ         -0.694905         1.86542         1.77606
LJ           1.05854         -1.3555        0.126079
LJ          -2.34349        0.590164        -1.30134
LJ           1.73614        -2.23904         1.32926
LJ          -1.34409         2.22936          1.0445
LJ         -0.515945        0.288785       -0.269496
LJ         -0.418039         1.13342        -1.37714
LJ           -1.1418       -0.966063         1.33576
LJ          -2.21853           -1.37       -0.627146
LJ          0.584909        0.186039         -1.1226
LJ           1.88291        -1.71674         1.48276
LJ              -nan            -nan            -nan
LJ          0.372699        0.663146         2.45536
LJ           1.42006      -0.0738087            1.62
LJ          -1.96394         2.36052        0.912335
LJ           1.89773         1.79566         2.11681
LJ           2.48562         2.03927        0.668252
LJ           1.11813         2.07557        -1.04617
LJ          -2.12673       -0.413252         1.25087
LJ          -1.40291         2.00381       -0.354977
LJ          -2.05465         2.48827        0.918586
LJ           1.90902       -0.249886        0.718355
LJ         -0.723077       -0.780176        -1.61525
LJ            -1.228        0.302459         1.06581
LJ          0.562968        0.556643         1.34058
LJ            1.4667         -2.0598          0.2203
LJ          -1.20408         1.43724         2.38944
LJ          -1.73874        0.948441        -1.56033
LJ          -0.71071         2.36366         1.02312
LJ          0.935787       -0.402805         -2.2985
LJ           1.01659         1.69607         2.43005
LJ           1.13123        0.691943          1.7805
LJ          -2.26249       -0.494856        0.483049
LJ          0.664312         1.04962         1.36401
LJ              -nan            -nan            -nan
LJ          -2.17927       0.0478756       -0.850078
LJ           1.46859       0.0503574         1.21376
LJ         -0.817255       -0.298315        0.520556
LJ         -0.795528         1.07044        -1.83589
LJ          0.188255        0.264095       -0.631122
LJ          -2.15506        -1.13603      -0.0626548
LJ         -0.723024        0.683446        0.862045
LJ          -2.51048        0.991222       -0.987776
LJ          -2.38161        -1.36763         1.58111
LJ           2.48417       -0.573915       -0.836924
LJ           1.84771       -0.872273        -2.39931
LJ           1.32969        0.412836       -0.574132
LJ          0.481704        -0.45781         2.19948
LJ            1.6514         1.24965        -2.36729
LJ          -1.66439        -1.39966         1.41644
LJ          -1.40835         2.24091        -2.42756
LJ              -nan            -nan            -nan
