108
#Comment!
LJ           0.32045        -1.90742       -0.259902
LJ           2.24964        -0.84585       -0.352452
LJ           2.15735         1.16595         2.20199
LJ          0.930153         1.33004         2.00222
LJ          0.798591       0.0728701         -1.1219
LJ         -0.811505          1.3322         2.18463
LJ          -2.52534        0.300101        0.622639
LJ          0.984918        0.114223        -1.31504
LJ           1.32784         1.95484       -0.601676
LJ         -0.607382        -1.22424        0.434585
LJ              -nan            -nan            -nan
LJ          -1.74351            1.02         2.54353
LJ          -1.39582        -1.32059         1.88393
LJ           0.93074         2.47436          1.7479
LJ          -1.29649       -0.806306       -0.441776
LJ           2.13566         2.42199        -1.10286
LJ              -nan            -nan            -nan
LJ              -nan            -nan            -nan
LJ         -0.887386        -1.55776      -0.0570635
LJ              -nan            -nan            -nan
LJ         -0.988885      -0.0310723        -1.81455
LJ          -1.18708       -0.374376         2.29043
LJ          -2.27439        -2.02301        -0.41636
LJ            1.8489        0.224234       -0.126271
LJ           1.51814         1.93517         -2.4162
LJ           2.38956         1.38246          1.8344
LJ         -0.117104         2.02108         -1.5019
LJ        -0.0124065          1.0713        0.911295
LJ        -0.0323849        -1.98747         2.26742
LJ         -0.702062       -0.994721       -0.374167
LJ          -1.79245        -1.66754        -2.43329
LJ           1.20436       0.0178677      -0.0314457
LJ              -nan            -nan            -nan
LJ         -0.707547         1.62192       -0.731365
LJ              -nan            -nan            -nan
LJ          0.192659         1.30414        -1.66638
LJ           -2.3917        -1.36923        0.816815
LJ          -1.11391          1.8917         2.06314
LJ          -1.30263          0.2405        -1.70576
LJ           1.50482       -0.622753        -1.71562
LJ          -2.01388        -1.11812        0.850843
LJ          0.320967        -2.29294        -2.09868
LJ         -0.815034        0.480743       -0.421117
LJ          -1.65856        -1.10728         2.30608
LJ           1.87256        -1.27256        0.635428
LJ            2.2244      -0.0343322         1.29315
LJ          0.893156        -1.83146          2.1161
LJ           2.23945        -2.50612        -2.39259
LJ          -1.25989         2.20523         1.26037
LJ          0.925279        0.833055       -0.986104
LJ            2.2809        0.839824         -1.0807
LJ          0.194192        0.160544        0.168067
LJ              -nan            -nan            -nan
LJ          0.899168         1.59636       -0.461058
LJ           2.28037        0.172022        0.778265
LJ           2.18557        -1.68325         0.41913
LJ          -1.04425         2.16619        0.741973
LJ          -2.03649        0.762567        -2.44116
LJ          0.811508         1.54563        0.432645
LJ          0.237662         -1.9177        0.806598
LJ          -1.01849        0.887567         2.42156
LJ           2.36991       -0.946517        -2.12283
LJ        -0.0912405         -1.9056       -0.939589
LJ          -2.15644       -0.539471         -1.3032
LJ           1.08185        -1.10795         1.60403
LJ          0.618401         0.96104        -1.66472
LJ          0.185273         1.66551         1.58581
LJ              -nan            -nan            -nan
LJ          0.617187         1.76664        -2.44453
LJ           2.38042        0.396295        -1.79977
LJ          0.233311        0.973494        0.809878
LJ          -1.57178        -1.23084        -1.38915
LJ           2.46679         2.13023       -0.187322
LJ          -1.96977        -1.78378        -1.67793
LJ           1.24617         -1.7175       0.0176698
LJ           1.68544        -1.40267       -0.013796
LJ           1.15387        0.662383        -1.43117
LJ           1.99985       -0.915111         2.19421
LJ           1.37951       -0.648556       0.0699326
LJ           2.03543        -2.24993          0.1241
LJ         0.0106947         1.18759         1.85119
LJ           1.04537        -0.62581        -1.03135
LJ          0.153302         2.09143        0.426246
LJ         -0.663097          2.0829        0.881852
LJ          -1.71582       0.0838214         1.90554
LJ           0.93697        -1.15505         1.35398
LJ           -1.0811         2.19941        -2.18544
LJ          0.437416         2.02558         -1.9618
LJ           1.32017        -1.31384        -1.30969
LJ          -1.02978         0.48761         1.72871
LJ              -nan            -nan            -nan
LJ           2.10838         -1.8625          1.7424
LJ          0.222142        -1.16956          1.3215
LJ           1.24296       -0.159016         2.22016
LJ           2.29879         2.13432         2.23359
LJ            1.9116        0.493121        0.771952
LJ           1.73253        -2.23841        0.383407
LJ          -2.13412        0.915022        -1.65383
LJ          0.782751        -1.06105         -0.6219
LJ          0.776353        0.305984        -2.51648
LJ         -0.832927       -0.464234         1.95324
LJ           2.00882         1.54825         1.92126
LJ          0.167189        -2.19399         1.87222
LJ         -0.799692        -2.05736        -0.67278
LJ           0.18997         1.75873        0.452135
LJ         -0.479083         1.64014         1.19704
LJ          -2.49699        -1.94232         1.33921
LJ              -nan            -nan            -nan
