108
#Comment!
LJ           2.12559        -2.17025       -0.226836
LJ          -2.54108       -0.507465        -1.53413
LJ            1.0199        -1.56946         -1.8497
LJ         -0.365785       -0.575898        0.552901
LJ           1.31324         1.94408        0.212003
LJ           1.67645        0.111828        0.867238
LJ           1.14063         -1.0304      -0.0891349
LJ          -0.91724        0.513382        0.150351
LJ           1.52296         2.36157        0.333267
LJ           -1.0137        -1.09866         1.56748
LJ              -nan            -nan            -nan
LJ          0.638585      -0.0264738        0.747922
LJ          0.749059        -1.24342         2.08322
LJ          -2.18832       0.0966542       -0.238042
LJ        0.00575424         1.66227         2.30707
LJ          0.300354         1.44691       -0.411343
LJ         -0.846742         1.30169       -0.802155
LJ         -0.875916       -0.972269          2.3415
LJ          -2.26635        0.769239        -2.47763
LJ          0.723496         1.76469        -1.89795
LJ          0.631145         2.05101         2.00805
LJ          -1.07624        -2.03384        -1.84052
LJ         -0.459874        0.797735        -1.48452
LJ          -2.54358         1.71073       -0.573843
LJ           2.40646        -2.30678        -2.52768
LJ           1.65974        0.264006           2.068
LJ           1.43457        -1.66667        -1.59048
LJ           -1.6878       -0.912112        0.655427
LJ        -0.0322781       -0.961094        -2.33962
LJ           2.13266       -0.218294        -2.12024
LJ          0.573168        0.864825       -0.517933
LJ         -0.049076       -0.989022        -2.02044
LJ              -nan            -nan            -nan
LJ          -1.86792         2.25264       -0.886759
LJ         0.0987114        -1.80108         2.54801
LJ         -0.742712       -0.315341        -2.53862
LJ         -0.134551         2.46633         -1.5232
LJ          -1.71678         2.43872          1.0624
LJ          -1.20602        0.552934         -1.1397
LJ          -1.61785          -1.001        -1.72249
LJ          0.497984        -2.38449        -1.69602
LJ          -2.34276        -2.34699        0.334038
LJ          -1.29665        -1.84192      -0.0532823
LJ           1.20337        -1.97216        0.555946
LJ          -1.06725       -0.152535         1.62913
LJ         0.0697042         1.22024        -1.38951
LJ         -0.645061       -0.277369       -0.729636
LJ          -2.39792          1.3477       -0.489742
LJ          -2.49661         1.31761         1.32638
LJ           2.20139        -1.58327       -0.617203
LJ           2.04342       -0.304583         1.82354
LJ         -0.414072        -2.51679        -1.20712
LJ          0.265172        -1.84324         2.07519
LJ            0.4595        0.105521        0.715996
LJ         -0.570724         1.63689         1.72084
LJ          0.287553       -0.733396         2.19827
LJ           1.15944        -0.76614        -1.72709
LJ           1.62103       -0.239058        -2.02807
LJ          0.421363          2.2805       -0.357406
LJ          -1.70816         1.35833        -1.32771
LJ           1.35904        -0.94903        0.629986
LJ          -1.51728        0.670855         1.87854
LJ           1.44646       -0.395251        0.948829
LJ          0.459677         1.97645        -2.41928
LJ            2.5531         2.38704           2.373
LJ         -0.763551         2.41572        0.278714
LJ           2.10991       -0.747914          0.1282
LJ           1.17449         2.11792         1.98379
LJ           2.51843        -1.34765        -1.53786
LJ           1.05379       -0.643516        0.328869
LJ         -0.750147        0.615947         -1.0207
LJ            1.6973        -1.30103        -1.92104
LJ         0.0116098        -0.93229         1.36573
LJ           1.25692        0.439953         1.89964
LJ          0.934463         2.46402        0.668134
LJ           1.54488         1.49767        -1.45857
LJ          0.680583       -0.281282         -1.8243
LJ         -0.535441        -2.37447         1.20974
LJ          -2.21324       -0.656553       -0.328868
LJ           1.14434        0.526246         1.99983
LJ        -0.0779506        -1.69487       -0.501714
LJ          -1.17401        -2.47172         1.87303
LJ            0.7278        -2.43642         2.25793
LJ          0.602059        -1.65985        -1.40857
LJ           2.08037        -1.47705         1.83121
LJ           2.08258       -0.814542         -1.7325
LJ         -0.749564        0.737177        0.541454
LJ           1.06613         2.34576        0.240138
LJ          -1.58632         2.25589        -1.52471
LJ         -0.392714        0.289277         1.83972
LJ         -0.842936        0.117631        -1.01912
LJ           2.13679        0.181494         -1.6516
LJ           -1.3077        0.134421      -0.0982945
LJ           2.30325       -0.223599         2.14886
LJ          0.600718          1.0825         1.98323
LJ          -2.55152         1.43123         2.27097
LJ           0.78007        -1.88023        0.232695
LJ          -1.56782        -1.99026        -2.44519
LJ           1.88343       -0.214016         1.40978
LJ          -2.33616         2.49776       -0.788276
LJ          -2.03781        -1.65122        -1.40904
LJ         -0.617237         1.91958        -2.53276
LJ          0.453421       -0.109101        -1.63611
LJ           1.41578        0.554292         1.74588
LJ          0.037774        0.316196        -2.41795
LJ          -0.42081        0.229621       -0.990048
LJ          -1.76987         2.17204       -0.537355
LJ         -0.535508         1.13939         -1.7276
