108
#Comment!
LJ          0.189203        -1.15456        0.544509
LJ          0.605281        -2.03522        -1.73667
LJ         0.0417081       -0.902657       -0.927552
LJ          -2.15947      -0.0259514        0.244912
LJ          -1.91365        0.955208        -1.43583
LJ           1.32364       -0.314306        0.252039
LJ          -2.47848        -2.17331        -2.37957
LJ           1.59212       -0.202826        0.943032
LJ           1.54671        -1.70257          1.4716
LJ          -1.52888         2.43945        -0.59016
LJ              -nan            -nan            -nan
LJ           1.89138       -0.775173         1.65828
LJ           2.14181       -0.311018        0.192991
LJ          0.438441         1.47362        0.371786
LJ          -2.47649        0.438124        -1.74284
LJ           1.61234         1.06301         2.51443
LJ           1.56005       -0.560053         2.50121
LJ           1.39127         1.91308        0.873886
LJ           1.54557           2.303        0.889372
LJ         -0.913413       -0.141921        0.798884
LJ          0.974002        -1.54817         1.83414
LJ         -0.783841        -2.18291        -2.15974
LJ          0.631453         1.18473         2.45284
LJ          0.793132         1.05829        0.719145
LJ          -1.73002       -0.964261         1.41612
LJ           1.82655           2.197         1.35504
LJ          -1.14557         0.54547         -1.3476
LJ           1.50861        -1.10052        -1.59475
LJ            2.1257          -1.312        0.486064
LJ           2.05482         1.51874        0.821719
LJ         -0.945024        -1.38877        -2.13944
LJ         -0.520661         2.44222       -0.865944
LJ              -nan            -nan            -nan
LJ           2.27362        -2.40598         0.17473
LJ              -nan            -nan            -nan
LJ           1.13039         1.20562        0.866012
LJ          0.974512        -2.22203         2.55072
LJ          -1.31921        0.593143        -1.46429
LJ          -2.43297     -0.00276537        -1.59847
LJ           1.63187        -0.91562        -1.14625
LJ           0.25962        -2.30388         1.88516
LJ          -1.41746      -0.0790606       -0.351197
LJ           0.47124        0.134421        -1.47381
LJ           2.52163        0.927086        -1.05371
LJ           1.04214       -0.223461         1.58251
LJ           1.99889         1.33108         1.80973
LJ           1.64642        0.382295         1.34167
LJ          -2.48192       -0.876711        0.508566
LJ           1.72239       -0.129393        -2.23756
LJ          0.924021        -2.25142        0.850652
LJ          -2.31235         1.46506        0.789368
LJ          -1.65297        -2.28269         1.36254
LJ           2.02747         -2.5051        -1.05773
LJ          -1.49216       -0.245611       -0.622333
LJ          -1.41119        0.339439        -0.08858
LJ         -0.799745        -2.28801         2.27718
LJ          -2.25845        -2.27755       -0.743408
LJ          -1.68303        0.279771         1.66739
LJ           1.14637         1.70837         2.14703
LJ          -1.96362        -2.03719      -0.0201176
LJ          -2.44127        -2.52753         1.20057
LJ          -1.63474         1.88641        -2.34456
LJ           0.64267        0.814457         2.06376
LJ           1.22752         2.39113        -1.90281
LJ         -0.989876        0.323654        -1.16189
LJ           2.42452       -0.234135          -1.564
LJ          0.344344         2.26874       -0.659119
LJ              -nan            -nan            -nan
LJ        -0.0402533        -1.96889       -0.688664
LJ           1.39069        -2.45648        0.303419
LJ           1.42167        0.492187         2.54833
LJ          -2.11942       -0.495494       -0.199014
LJ          -2.28027       -0.121651       -0.404611
LJ          0.047355         1.10397        -1.86622
LJ          -1.40201          2.1639        -1.79621
LJ         -0.303465         -2.3595       -0.486315
LJ        -0.0168058       -0.744174        0.527983
LJ           1.75788        -1.15228         1.83115
LJ          -2.39663         1.57571        -1.42041
LJ           1.71666       -0.354327        -1.92272
LJ           1.79137         1.19681         1.17239
LJ          -1.94484         2.32099        0.784503
LJ          0.887432        0.544169        -1.98664
LJ          -2.17657        -2.07825       -0.656022
LJ           1.42514       -0.120264         1.80529
LJ         -0.672951        -1.23301         1.65267
LJ           1.85379         1.50469       -0.903368
LJ           1.58451        -1.61359        -1.36921
LJ           2.53259        -1.25574       -0.392902
LJ           1.61072         1.41446        -1.90895
LJ           0.26368        -2.11084         1.20818
LJ          0.620111       -0.534374       -0.967058
LJ          0.283209         2.00593         2.42738
LJ         -0.458566        -1.50677         1.88234
LJ          -0.53154         -2.1271        0.272332
LJ          -1.82987        -1.40648       -0.801535
LJ          -0.56201         2.09823       -0.775703
LJ          0.590723        -2.12326        0.982941
LJ         -0.820086        -1.82996          1.2449
LJ         -0.173069         1.88385        0.476178
LJ          0.408126       -0.187418       -0.210354
LJ            2.5037         2.32717       0.0688511
LJ         -0.529017         1.31373       -0.815376
LJ          -1.52114         2.51732         1.45277
LJ         -0.591718        0.233349       -0.309912
LJ         -0.879699        0.137494         1.88491
LJ          -1.25333       -0.957319        0.694282
LJ          0.432125         0.90692       -0.375246
