108
#Comment!
LJ           2.46869         1.66384         0.65944
LJ          -0.89109        0.105257          -2.072
LJ           1.04182         1.09556         -1.1111
LJ          0.631713        -1.19909        -1.06246
LJ          0.359719        -1.76361         1.60717
LJ          0.442638       -0.387613         2.07207
LJ          -1.42098         1.44248         1.34777
LJ          -1.61909       -0.209447         1.41235
LJ         -0.792914         1.52469         2.33052
LJ          -1.10032        -1.13224       -0.395279
LJ              -nan            -nan            -nan
LJ          0.687818        0.707282        -1.84966
LJ          -1.77541        0.345952        -0.90707
LJ           1.79007       -0.304562         1.90302
LJ          -1.47694         1.74653         1.07748
LJ              -nan            -nan            -nan
LJ              -nan            -nan            -nan
LJ              -nan            -nan            -nan
LJ          0.461382       -0.328122        -1.64283
LJ              -nan            -nan            -nan
LJ         -0.560482         0.31746         1.38624
LJ          -1.88537         1.85811         2.32561
LJ         -0.496594       -0.783247        0.109956
LJ         -0.169354        -1.95723        0.665974
LJ         -0.761733        -1.63759         1.44297
LJ         -0.643223       -0.870454         1.33046
LJ         -0.487488         0.35539        -1.12883
LJ          -1.91767        -0.45214         -1.8019
LJ           1.99015         -2.1815        0.481497
LJ          0.970616        -1.91139        -2.53994
LJ         0.0628668      -0.0928502         0.81668
LJ         -0.436141         2.14675        0.270787
LJ              -nan            -nan            -nan
LJ          0.117812        -2.09949        -1.10422
LJ              -nan            -nan            -nan
LJ          -2.42868         1.51124        0.991385
LJ           1.38708        -1.57758         2.04366
LJ         -0.282202          0.2684       -0.433976
LJ           1.12454         2.07814       -0.371944
LJ           1.54416        -1.58327        -2.12455
LJ          -1.18251        0.799701        -2.41438
LJ         -0.931792       -0.718767        -1.07827
LJ          -1.49556        -2.24049       -0.457147
LJ         -0.612454        -2.18143         -1.5161
LJ          -1.25561        -2.48291         2.52367
LJ          0.913005        -1.20477       -0.707676
LJ          -2.50441       -0.279225         2.54149
LJ          0.551352       -0.335479        -1.31689
LJ         -0.110648        0.807739       -0.517377
LJ          -2.44815        -2.23123        -1.69433
LJ           1.24883        -0.33609        -1.98044
LJ          0.670865       -0.339281         1.24446
LJ              -nan            -nan            -nan
LJ          0.885816         1.26013        0.430927
LJ           1.46199       -0.594119        -1.36994
LJ           1.22197      -0.0652477         1.69249
LJ          -1.95336        0.356355         1.70033
LJ          -1.85407        -0.80502        0.511512
LJ          -2.31007         2.20982        0.909518
LJ          -1.37191         1.98515       -0.819471
LJ           1.02714         2.35525       -0.365885
LJ           2.10413        -1.65112       -0.623489
LJ           2.44179       -0.256039        0.268175
LJ          -1.52169         2.14866         2.00858
LJ          -2.13008         2.49141        -0.33645
LJ          0.219422        0.354522       -0.205275
LJ           2.11003         -1.4334        -1.29326
LJ              -nan            -nan            -nan
LJ          -1.41643       -0.728555         2.13031
LJ          0.673822        0.229944        -1.02347
LJ          -2.30988         1.08369        -1.66351
LJ          0.113281         2.03813        0.726489
LJ           0.61224         1.41372        -1.68963
LJ            1.9149        0.249251         1.33551
LJ          0.686494         2.20651        0.511421
LJ           2.24528        -1.84055         1.50985
LJ           1.85129        0.635523         -1.6735
LJ          -2.27784         1.23492         1.38459
LJ          -1.30784        -0.57429       -0.172766
LJ           1.94057        0.777596         1.79771
LJ          -2.36914        -1.01789        0.269273
LJ           1.18269        -2.40606       -0.567503
LJ          -1.18959        -2.27404        -2.43994
LJ         -0.241729         -1.7335        0.768458
LJ         0.0984062        -1.13615         1.37898
LJ           2.36939        0.472606         -1.0873
LJ         -0.115446        -1.44327         1.10322
LJ          -1.23048         1.05772        -1.77243
LJ           1.51077         2.29915        -1.76058
LJ         -0.762085         1.64038         1.74637
LJ              -nan            -nan            -nan
LJ          0.169287        -1.63255          2.2488
LJ          0.736746        -1.55657        -1.55965
LJ           1.89273      -0.0121801        0.554041
LJ           1.51864         2.07583        0.274947
LJ          -1.47162        0.286693          1.7993
LJ          0.749027        -2.49691       0.0561208
LJ          -1.84633         1.93907        0.807651
LJ              -nan            -nan            -nan
LJ         -0.510303      -0.0100643        -2.04389
LJ          0.463297        -1.21608       -0.228193
LJ           2.04048        -1.72685      -0.0394024
LJ           1.56386        -2.38659        0.645518
LJ           1.37962          1.0565        -1.09606
LJ          0.187943        0.471576        -1.81624
LJ          0.534281        -2.35077       -0.903885
LJ          0.587574        -2.10089        -0.89089
LJ              -nan            -nan            -nan
