108
#Comment!
LJ           -1.9987        -1.37504         1.21118
LJ          -1.29001         0.96714        -2.28106
LJ           2.28579          1.4937        -2.02715
LJ         -0.456111        -1.39257       -0.999873
LJ           -1.5558         2.23665        -2.03994
LJ          -1.17635        -1.65181         2.48431
LJ          -1.11018        0.707254         2.41901
LJ           -1.9283         2.36198        -1.83876
LJ           1.49542      -0.0861459         1.38272
LJ           -2.2734        -2.36266        0.834067
LJ              -nan            -nan            -nan
LJ           0.45357       -0.572847        -1.90827
LJ          -1.96287         1.13691        -1.99479
LJ              -nan            -nan            -nan
LJ          0.752143        -1.48414       -0.199907
LJ              -nan            -nan            -nan
LJ              -nan            -nan            -nan
LJ              -nan            -nan            -nan
LJ         -0.848667       -0.250057       -0.719233
LJ              -nan            -nan            -nan
LJ          -2.19145         0.38106        0.652171
LJ           1.91912        -1.40299        0.704348
LJ         0.0401869         2.28761         1.77386
LJ              -nan            -nan            -nan
LJ         0.0833464          2.5412         1.77153
LJ           2.48596     -0.00195112        -1.66384
LJ          0.407458        0.818473        -1.16428
LJ          0.795597         2.28722        0.264295
LJ           2.05262       -0.539871       -0.176618
LJ           2.33579        0.502669         2.16645
LJ              -nan            -nan            -nan
LJ           2.56441        -1.99849         2.02224
LJ              -nan            -nan            -nan
LJ          0.647039       -0.917659         2.10694
LJ              -nan            -nan            -nan
LJ          0.127952        0.131654         2.07925
LJ           -1.2351         1.43801         -1.4925
LJ          -2.36046        -2.50878         0.80522
LJ           2.14406       -0.743362        -1.14825
LJ          -1.17787       -0.142277        -2.54233
LJ           1.11198        0.685225        0.183079
LJ           1.95542       -0.694996        0.281103
LJ           1.72309        0.618332         2.09708
LJ          -1.34727        -1.47097          1.4956
LJ           1.16199        -2.11926          1.7546
LJ           2.55629         0.17709         2.46627
LJ         -0.571961       -0.253358       -0.247352
LJ           1.18032         1.62879        0.391244
LJ          0.616655         -1.8386         2.02813
LJ          -2.00077       -0.294843        0.507045
LJ           -2.4006         1.08029        -1.87138
LJ           -1.5576         1.98625         2.52204
LJ              -nan            -nan            -nan
LJ           1.92436         2.55088         2.09275
LJ          -1.55746       -0.304988         1.29759
LJ        -0.0977306         1.07259        -2.18916
LJ          -1.20025        -2.08966        -2.15269
LJ           2.34071         1.25633         1.73212
LJ          -1.16102         1.09686         1.18413
LJ           2.23502       -0.543755         1.76646
LJ           1.73089        -1.79349         1.60683
LJ           2.10667       -0.384307        -1.23481
LJ         -0.153902        -2.37131         2.00317
LJ              -nan            -nan            -nan
LJ              -nan            -nan            -nan
LJ          -2.34065          0.9163        0.616266
LJ          0.422442         1.26695       -0.194078
LJ              -nan            -nan            -nan
LJ          0.799284       -0.917381          1.9313
LJ          0.967451        -1.39946        -2.48099
LJ         -0.810579         1.36397        -1.76806
LJ           2.48854        0.158004        -1.76419
LJ          0.724379        0.641944        -1.79295
LJ          -2.21095        0.655465        -2.47511
LJ           2.12389        -2.45829       -0.555753
LJ          0.299426       -0.657304         1.06832
LJ          -1.93051       -0.325974        0.638862
LJ            1.1983        -2.28839        0.807422
LJ          -1.51368       -0.378805        -1.43474
LJ           2.10842        -1.87554        -2.51167
LJ          -2.39675         0.12862         1.84336
LJ          -1.91656        0.552839         2.04888
LJ           2.39187        -1.30747        0.820493
LJ         -0.393736        -2.32071         1.47513
LJ         -0.523596       -0.437359       -0.472441
LJ           0.55846        -2.43589         0.81714
LJ           1.64376       -0.918766       -0.507526
LJ          0.868959        -2.14012         1.09909
LJ          -1.74711       -0.745999       -0.598919
LJ           1.21852        0.282193        -1.15303
LJ              -nan            -nan            -nan
LJ         -0.865747       -0.510411        -1.00391
LJ           1.25369        -1.15981         1.10967
LJ           1.23758          -2.517       0.0713244
LJ          -1.21731        0.729836        -2.25317
LJ           2.35603         0.32233       0.0404311
LJ          0.474499        -1.24834        0.737331
LJ          -0.45234         1.70876         2.54485
LJ              -nan            -nan            -nan
LJ          -1.54614       -0.964005           1.499
LJ           1.68777        0.625309       -0.955615
LJ          0.357787         1.30583        -1.31033
LJ         -0.667258         2.20349       -0.401468
LJ           1.33691        0.734299       -0.111383
LJ              -nan            -nan            -nan
LJ          -2.52144        -1.80307        -0.16177
LJ          -2.16118        -2.43159        0.427434
LJ              -nan            -nan            -nan
