108
#Comment!
LJ         -0.828178         1.49463       -0.193417
LJ           1.06359        0.623963        0.177508
LJ          0.294909        0.240269         1.32485
LJ        -0.0248954        0.322634        0.805677
LJ           1.92063        -2.45616         0.13129
LJ          -2.38972        -2.37985        0.584441
LJ           1.20677        0.424635       -0.600002
LJ        -0.0833665        0.687381          1.7384
LJ          -1.74938        0.160036        0.966533
LJ          -2.12812        0.840427        -1.12507
LJ              -nan            -nan            -nan
LJ         -0.850995        0.549642        -0.63167
LJ          0.953638        -1.61994       -0.263271
LJ              -nan            -nan            -nan
LJ          0.275871       -0.673515       0.0393786
LJ              -nan            -nan            -nan
LJ              -nan            -nan            -nan
LJ              -nan            -nan            -nan
LJ           2.49097        -1.17086       -0.163819
LJ              -nan            -nan            -nan
LJ           1.35221        0.423284        -2.24447
LJ           1.21393       -0.543961      0.00281364
LJ           1.81175       -0.422083         1.48723
LJ              -nan            -nan            -nan
LJ          0.940401          2.2558        -0.89741
LJ          0.284123         1.29405        -2.33231
LJ           2.32662        -2.24791        -2.38531
LJ            2.4006        -2.45399         2.00182
LJ          -1.74932         1.89369       -0.538929
LJ          0.889535        -1.89208        -1.37439
LJ              -nan            -nan            -nan
LJ          -1.50649        -1.82844       -0.467228
LJ              -nan            -nan            -nan
LJ           1.20924        0.901789         1.42637
LJ              -nan            -nan            -nan
LJ          -1.12288        0.359817         1.15342
LJ          0.674516        0.922274        -1.94981
LJ         0.0676884         2.05358         1.48657
LJ            2.5582         0.90783         1.49135
LJ          0.487251        -1.81451        0.151203
LJ         -0.292483         2.28534         2.55066
LJ           1.51345         2.55629         1.18906
LJ          -1.86026       -0.542178         2.45071
LJ          0.343519         2.22085         1.63414
LJ           2.56107        0.367884         1.64656
LJ          0.298854        -1.67133        0.322216
LJ        -0.0078148        0.313151        -1.23128
LJ           1.35778         1.84519         -2.4514
LJ          0.981194        0.103246         2.14613
LJ           2.53934      -0.0372181         1.17781
LJ          -2.29702        -1.91104      -0.0470154
LJ          -1.04367        -1.63748         1.46085
LJ              -nan            -nan            -nan
LJ           0.25292       -0.934241       -0.756281
LJ           2.22703         2.13874         1.56613
LJ           1.63546        -1.36231       -0.657114
LJ           1.59178        0.835942         1.68928
LJ          -1.13617         2.32905          1.1931
LJ           2.01115        0.377048         2.22036
LJ         0.0189726        0.516725         1.84491
LJ          -1.87766         1.97227         1.96483
LJ         -0.513048        -1.60031         1.14638
LJ          -1.48361        0.894599        -2.45656
LJ              -nan            -nan            -nan
LJ              -nan            -nan            -nan
LJ          -2.06026       -0.180325        -1.85011
LJ           1.32524         2.02056         1.30409
LJ              -nan            -nan            -nan
LJ           1.83092       -0.457206         1.92287
LJ          0.199232       -0.418982       -0.498814
LJ           1.78117        0.587648         2.46129
LJ           1.74553         1.96292        0.193602
LJ           1.27726       -0.230622        -1.15004
LJ         -0.777022         2.43727        0.588356
LJ          -1.94498       -0.629831        0.672708
LJ          0.925666        -2.32119         2.14035
LJ           1.48077        0.291346        0.632552
LJ          -2.46858        0.833495       -0.786574
LJ          -1.39517        -2.52211       -0.467029
LJ           1.67413        -1.79702        0.111608
LJ            2.3327         1.73486         1.08966
LJ          0.503705        -1.12753        -0.21146
LJ           1.44975        -2.17993        -1.54436
LJ         0.0948399         2.20308       -0.467561
LJ          -1.51869        -1.18046        -2.41378
LJ          -2.10849        -1.60423        0.248283
LJ         -0.712498       -0.759212        -1.57724
LJ           1.57234       -0.254708        -2.03367
LJ           1.38891        -1.32869         1.59483
LJ         -0.252251        0.250201         2.37661
LJ              -nan            -nan            -nan
LJ          0.969552        0.665378        -1.13285
LJ           1.70236        -1.40495        0.949696
LJ         -0.243447       -0.494357       -0.623778
LJ           1.00752        -1.92572        0.711101
LJ           2.01912        -2.06596         1.60665
LJ         0.0963352        -2.23601        0.690856
LJ           1.79227         1.64626         1.40239
LJ              -nan            -nan            -nan
LJ            2.0573        -1.33448          1.6118
LJ          -1.51788         2.26595         1.34624
LJ           1.19389         2.29747        -2.33302
LJ         -0.854004        0.407023        0.487948
LJ          -2.23157         -1.0235        -2.26226
LJ              -nan            -nan            -nan
LJ          0.108822        -1.69862         1.28043
LJ            1.3596       -0.300096        -2.15494
LJ              -nan            -nan            -nan
