108
#Comment!
LJ           2.18411         1.24302          2.0882
LJ          -1.59918        -2.40992         1.33437
LJ           1.54969         1.22818         1.28314
LJ           1.33882        -1.28358         2.16271
LJ          -1.50522        0.874658         1.26681
LJ          -2.24089       -0.899034        0.895488
LJ           1.14789        -1.22146       -0.712365
LJ           1.98595          1.4197        -2.09643
LJ          -1.85826        -1.07009        0.828783
LJ           2.21342         1.28811        0.757535
LJ              -nan            -nan            -nan
LJ          -2.48548         2.20809         0.14411
LJ         -0.411874        -2.51709       -0.335273
LJ          0.894681       0.0263148        -1.59851
LJ          0.567775        0.665349        -2.07292
LJ          -1.98762          1.6932         2.48453
LJ              -nan            -nan            -nan
LJ              -nan            -nan            -nan
LJ         -0.399286         2.50838        0.685978
LJ              -nan            -nan            -nan
LJ          -2.41181        0.258716        0.773476
LJ         -0.191089       -0.070984         -1.0456
LJ         -0.477435       -0.819451        0.215327
LJ          -2.43979       -0.253254        -2.54299
LJ           1.67742        -1.48888        -0.10015
LJ          0.769943       0.0444544       -0.268299
LJ           1.63201         1.43109         1.89681
LJ           -1.4359        0.999726       -0.271937
LJ          -1.44962         1.84498        -2.23512
LJ          0.646463       -0.129604         1.39142
LJ           2.51622           2.265       -0.391458
LJ           1.38906         2.07219        -1.04956
LJ              -nan            -nan            -nan
LJ           1.38389         1.71598          1.3667
LJ              -nan            -nan            -nan
LJ          0.951062        0.572943        -1.77108
LJ         -0.557669        0.756832      0.00622164
LJ          0.362938        -2.16221       -0.432789
LJ         -0.243088       -0.260435        -0.36632
LJ          -1.25864        0.333264        -2.39974
LJ         -0.904537       -0.368141        -1.46338
LJ          -2.36738        0.379601         1.94029
LJ          0.076944         0.37122        0.900643
LJ         -0.974077        0.154196         1.30965
LJ           2.04885        0.521019        -1.35273
LJ         -0.505136       -0.134061       -0.713698
LJ           1.53525       -0.338485        -2.38377
LJ           1.27408         1.02086         -2.0984
LJ           -2.1346        0.606957        -1.03532
LJ          0.156581        0.722082        -1.68061
LJ           1.60314       -0.512745         1.60439
LJ          -1.29826         2.08884        -2.23367
LJ              -nan            -nan            -nan
LJ          -2.07943        -1.77452         1.41994
LJ          -0.58149         1.09138         1.09255
LJ           1.13814        0.965331       -0.954625
LJ          -1.54672         1.71652        -2.29972
LJ          -2.10105        -1.95936        0.194948
LJ        -0.0717192        -2.15818       -0.601064
LJ         -0.327402        -1.28884        0.604754
LJ             1.826        -1.54636         2.48754
LJ          -1.37497        -0.72615        -2.17081
LJ          -2.32372        -2.04292         2.06909
LJ          -1.34742         1.58513         1.30657
LJ         -0.155037        0.362532        -1.24075
LJ         -0.168248       -0.042834       -0.565417
LJ          -1.93519         1.53693        -1.61044
LJ              -nan            -nan            -nan
LJ           2.38966         1.54428         2.55031
LJ           1.08474        -2.33901        0.551109
LJ          0.503264         2.24719        -2.37729
LJ          0.500038         2.47924        -1.22842
LJ           2.28097        -1.23733          2.3133
LJ          -1.06886        0.748068         1.37339
LJ           1.70979         1.60262        0.110667
LJ           1.62616        -2.02099      -0.0427795
LJ         -0.419624         1.99879         1.40978
LJ          -1.09144         2.49437       -0.948815
LJ          0.391678       -0.565154         0.96793
LJ         -0.790428        0.491348       -0.310182
LJ          -2.55326         -2.4893       -0.792259
LJ           2.42767         1.86511        -2.47265
LJ          -1.25403        -0.97658         2.21568
LJ          -2.30593       -0.943356        -2.35128
LJ          -1.67697        0.475515       -0.619795
LJ          -1.06391         1.25724        0.342436
LJ         -0.315123         -2.4961         1.95337
LJ          -2.40548         2.47365         1.56416
LJ         -0.658104        -0.37377        -1.04381
LJ         -0.350198        -1.06134       -0.340751
LJ              -nan            -nan            -nan
LJ          0.953143         1.14033         1.87436
LJ          0.525229        0.300614        -2.42046
LJ          -1.81405         1.05029         -1.9777
LJ          -2.55613         2.51131         1.30606
LJ           1.24979        -2.15078         2.30921
LJ         -0.594101         2.17091       -0.110481
LJ          -1.02616       -0.895626         1.56572
LJ           1.10118         1.25819        0.738977
LJ           1.18483        0.379054        -1.13786
LJ        -0.0492924        -1.32064         2.18282
LJ          -2.53216        -2.35935        -1.93036
LJ          0.252766       0.0922658        0.189686
LJ          0.118947        -2.20744       0.0795184
LJ           1.47697          1.6998         1.89733
LJ          -2.52934         1.00411        -1.90799
LJ          -2.20029         1.27222         2.05334
LJ              -nan            -nan            -nan
