108
#Comment!
LJ          -2.29029        -2.02876         0.20055
LJ          -1.17168         1.22515       -0.306912
LJ           1.34127          2.1211        -2.39727
LJ           1.74957        -0.15218         1.15788
LJ          -1.96431        0.722347         1.68636
LJ           1.47182         2.32483         2.55589
LJ         -0.766986        0.966125        -2.11307
LJ          -2.07646         -2.0505         1.84879
LJ          -1.06406       -0.135956       -0.526173
LJ          0.156735        0.132023        0.701126
LJ              -nan            -nan            -nan
LJ          0.417959         2.08955       -0.111195
LJ          0.986015         2.45792       -0.301281
LJ              -nan            -nan            -nan
LJ          -2.39516         1.60708       -0.758743
LJ              -nan            -nan            -nan
LJ              -nan            -nan            -nan
LJ              -nan            -nan            -nan
LJ          0.719018        0.230749        -1.14507
LJ              -nan            -nan            -nan
LJ        -0.0354137        -1.83582         0.64601
LJ         0.0246439           2.536       -0.949184
LJ         -0.117114         2.46137        -1.10678
LJ              -nan            -nan            -nan
LJ           2.32111         -1.0138        -2.34883
LJ          0.954723         1.53185         1.98915
LJ           2.48695         1.88715        0.603294
LJ          0.972845         0.24133         2.20005
LJ          0.518229        -1.42933      -0.0858372
LJ          -2.55071       -0.550899        -1.53818
LJ              -nan            -nan            -nan
LJ           1.73635       -0.727547        0.917596
LJ              -nan            -nan            -nan
LJ          -1.99895         1.25403        -1.47539
LJ              -nan            -nan            -nan
LJ           2.14343        -0.27093        -2.33051
LJ         -0.741424         2.51523        -2.01037
LJ          -0.76294        -1.48078       -0.595065
LJ           1.58525        -2.41917        -1.74501
LJ          0.869603         1.44594        0.171211
LJ          -2.19836        0.861939      0.00253511
LJ          -1.97255        -1.88488        -2.30543
LJ          0.451484        0.609869        -1.54633
LJ           1.83893        -2.49038         1.02488
LJ          0.461079        0.985587        -1.78001
LJ          0.426183         1.37694        -2.05852
LJ         -0.524617          1.3963        -1.04255
LJ         0.0324437         2.09491        0.482935
LJ         -0.744513        -0.65096         1.86964
LJ       -0.00403816        -2.31632         2.33856
LJ           1.29939        -1.98081         1.31192
LJ          -2.18371        -2.30991        -1.24964
LJ              -nan            -nan            -nan
LJ         -0.997008       -0.454795        0.760403
LJ          -1.94164       -0.326077        -2.00228
LJ          0.876013          1.5868        0.768831
LJ          -1.92759        0.513573         -1.0319
LJ           2.17854       -0.728609         1.42262
LJ          -2.53857        -1.18958        -1.47462
LJ          0.581909        0.428148         1.69876
LJ          0.578585       -0.356877         1.20038
LJ          -1.64516          2.1332        -2.17322
LJ           1.30514       -0.246026         0.47626
LJ              -nan            -nan            -nan
LJ              -nan            -nan            -nan
LJ           0.69905        -1.62578        -1.66365
LJ           2.36943        0.398572        0.111588
LJ              -nan            -nan            -nan
LJ         -0.591167       -0.224494         1.95807
LJ          0.233452        0.369782         2.38662
LJ          -0.25069       -0.815206        -1.02826
LJ         -0.892229        0.994009        0.161715
LJ          -1.23088         1.84463       -0.728181
LJ         -0.659315        0.544038        0.945963
LJ           1.87842       -0.338467        0.192052
LJ         -0.773274       -0.261287         2.53051
LJ         -0.704793         1.09444         2.42981
LJ         0.0646176       0.0156118        -2.06054
LJ           1.46908         -1.8099        0.812592
LJ          0.190634         2.31228        -1.73761
LJ          0.307135        -1.03585        0.754408
LJ          -1.18024        -1.82471       -0.978741
LJ           1.24808        -1.10039        -1.23682
LJ          -2.21394       -0.479511         1.86124
LJ          -2.50427        0.302845         2.23242
LJ          -2.42903        -1.05431         2.11639
LJ          -2.42803         2.52768        -1.93284
LJ          0.948913      -0.0826933       -0.678784
LJ          0.414945        0.159565          1.6923
LJ          -2.40254        -2.43308         0.31199
LJ              -nan            -nan            -nan
LJ         -0.414613        -1.56723      0.00843121
LJ          -0.89453        -1.92265         1.55072
LJ          -2.01504         1.08179         1.37628
LJ          -2.33799        0.119955     -0.00290702
LJ           2.26879        0.875301          2.2517
LJ         -0.707115         1.38066      -0.0796141
LJ          -1.12895         1.24476       -0.520303
LJ              -nan            -nan            -nan
LJ         -0.181219        -2.56309       0.0531665
LJ           1.40897         1.52085         1.82002
LJ        -0.0614574        0.411625         1.21218
LJ           -2.0164         2.42929          2.1218
LJ          0.398264        -2.04347          -1.276
LJ              -nan            -nan            -nan
LJ        -0.0792995        -2.17541        0.836206
LJ           1.81418       -0.356207        -2.03205
LJ              -nan            -nan            -nan
