108
#Comment!
LJ          0.685086        0.255753        -2.13859
LJ          -1.47921        -1.90333      -0.0479291
LJ         -0.380766        0.441704        -2.28599
LJ          -1.62637         0.36251       -0.745953
LJ          -1.60862        0.371389       0.0936667
LJ         -0.288687        -1.59711       -0.791855
LJ          -1.69058        -2.44801        -1.37207
LJ           2.04335         1.93835         0.58298
LJ           1.72263         1.54649       -0.728281
LJ           1.32838        0.849659        -2.08303
LJ              -nan            -nan            -nan
LJ           1.85322        -2.12308       0.0813425
LJ          0.609015          1.3115         2.47496
LJ              -nan            -nan            -nan
LJ          -1.21959        0.697569         0.82386
LJ              -nan            -nan            -nan
LJ              -nan            -nan            -nan
LJ              -nan            -nan            -nan
LJ         -0.669119        -2.36964        0.499479
LJ              -nan            -nan            -nan
LJ           1.33295         1.34494         2.30404
LJ           2.23505         2.52514         -1.2641
LJ            -2.049         0.70091       -0.947453
LJ            1.8257         -1.5512        -1.19617
LJ          -2.36737        0.631188       -0.367512
LJ          -1.42745        -2.06709         2.41055
LJ          -1.56168         1.53202        0.569386
LJ          0.552401        -1.02467        -1.42072
LJ          -1.56081        -1.30661         1.40405
LJ          0.059606       -0.504902       -0.780089
LJ              -nan            -nan            -nan
LJ          0.689231         2.53249        0.986493
LJ              -nan            -nan            -nan
LJ         -0.993473        -2.10344        -2.24547
LJ              -nan            -nan            -nan
LJ         -0.169825        -2.28176        -1.16592
LJ         -0.318662        -1.91976        -1.55093
LJ           1.32555        -1.90064         -0.3581
LJ          0.174806        -1.74015        0.385506
LJ        0.00764756       0.0153569        -1.93273
LJ          -1.26593        -0.61045         2.31632
LJ          -1.11481        0.623242         -2.5198
LJ           2.01872          1.2915       -0.815238
LJ           2.43324        -1.13704         1.64524
LJ          0.410892         1.12461        -2.18123
LJ          0.672834       -0.186668       -0.825731
LJ           2.19699        0.350072        -2.33253
LJ         -0.289175         0.80265        0.667695
LJ           -2.4403         0.61511        -0.39306
LJ          0.410458          1.3809         1.70862
LJ          -1.15316        0.658368         2.25069
LJ          0.685369         1.98064         2.53377
LJ              -nan            -nan            -nan
LJ            1.7823         1.10616        -1.50554
LJ         0.0791793        -1.35071         1.55497
LJ          0.702312        -2.16121        -1.40488
LJ           2.40443         1.27648      -0.0477903
LJ          0.387359         2.11893        0.891248
LJ          -1.97676         2.51723        -2.03872
LJ          -2.35157        0.947208        0.922391
LJ           1.75003       -0.154744        0.939899
LJ           -1.2417         2.52012         2.07321
LJ          -1.68992        -1.46471        0.242737
LJ           1.28408        0.154338       -0.229161
LJ              -nan            -nan            -nan
LJ          -2.10749       -0.837186        -1.04682
LJ          0.477897       -0.772184         2.33357
LJ              -nan            -nan            -nan
LJ          0.823976        -2.21213       -0.780301
LJ         -0.349387         -1.2482       -0.925438
LJ           -2.2582         1.45366         2.16508
LJ           1.94863        -2.08891        -0.47981
LJ         -0.806849        -1.45519        -1.01512
LJ          -2.13441         2.46644         1.40041
LJ          -2.02087         2.35226        -1.47081
LJ         -0.689764         1.30527        0.292251
LJ           2.26891         1.03024         1.78671
LJ          -2.35321       -0.745952         1.59407
LJ           1.23539        -1.14865        -1.89751
LJ          -2.44667        -0.34374      -0.0408907
LJ          -2.07096         1.62833        0.382469
LJ          -1.58457         1.53701         2.39922
LJ          -2.46311        0.282899        -1.42696
LJ          0.017244        -1.02936       0.0135781
LJ         -0.965768          1.7237        0.532179
LJ          -2.01539         1.97937        -1.61999
LJ          0.284545       0.0670481        0.492543
LJ           2.13581        -1.69188       -0.207293
LJ          -0.39054        -1.15338         1.48787
LJ          -2.19177       -0.905047        -1.02518
LJ              -nan            -nan            -nan
LJ          -2.40079       -0.683932        -1.69139
LJ         -0.152141        0.516364       -0.323698
LJ           2.52511       -0.139499        0.775049
LJ          -2.03591        0.586878        -1.74209
LJ          -1.30588         1.70886        -1.58021
LJ            0.3143       -0.784149       -0.481768
LJ         -0.528676        -2.39971        -0.93279
LJ              -nan            -nan            -nan
LJ          -1.70376        -2.07916       -0.781243
LJ            0.6124         1.31181        -1.09561
LJ         -0.723223         1.87305         -1.1101
LJ          0.621373        0.449843         1.12336
LJ         -0.608414        0.738122         2.06082
LJ              -nan            -nan            -nan
LJ          0.891638         1.92549        -1.77132
LJ           0.12975      -0.0192988          2.4023
LJ              -nan            -nan            -nan
