108
#Comment!
LJ          -2.16879        -0.27356        -1.31332
LJ       -0.00223418         -1.8172        -2.01761
LJ           1.19803         2.11839        -1.12482
LJ           -1.7728       -0.417515         2.24753
LJ         0.0910986        -2.08672        -2.20291
LJ          0.290854        -1.56394         1.51355
LJ           2.36222        0.316108        0.573386
LJ           1.04345         2.35101        -1.56789
LJ         -0.555723         1.19706         -2.2487
LJ           2.15473        -1.49222        -2.06615
LJ              -nan            -nan            -nan
LJ           1.33642          2.0908         2.38764
LJ          0.873644       -0.520571         2.08976
LJ           1.38533         1.30357        -1.14124
LJ           1.10819        -1.37739        -2.20871
LJ              -nan            -nan            -nan
LJ              -nan            -nan            -nan
LJ              -nan            -nan            -nan
LJ          0.323418        -1.49277        -1.47965
LJ              -nan            -nan            -nan
LJ          -1.12229        -1.82474        -2.07582
LJ          -2.03825        -1.32166        0.592725
LJ          -1.21193          1.3291         1.20784
LJ         -0.863111        -2.36096        -2.10377
LJ             -2.53       0.0343503        -2.36909
LJ          -1.68344        0.755283       -0.302663
LJ           -1.4687         2.17002        -1.96829
LJ          -1.78694        0.565925      -0.0958358
LJ           1.35753         1.48941        -1.01683
LJ          -2.00784        -2.19384         0.78423
LJ          0.484688         1.27685        -2.20698
LJ          0.585252        0.342934       0.0544024
LJ              -nan            -nan            -nan
LJ          -2.40469        -1.10229         2.06402
LJ              -nan            -nan            -nan
LJ         -0.467098        0.652355        0.891881
LJ          0.437899         2.19381         1.56783
LJ          0.711348        0.620948        -1.63502
LJ           1.96457        -1.66023        0.347589
LJ          -1.06222         1.71689        0.764532
LJ          0.360637       -0.429311        -1.06467
LJ           1.64721         1.70409         1.37322
LJ          0.921449        0.989645        -1.97688
LJ          0.306839         1.35932          1.8488
LJ          -1.05666        -2.07827        0.834994
LJ          0.617248        0.876825        -2.28265
LJ           2.12822        0.339233        -0.74612
LJ          -2.14724        0.750718         2.24241
LJ           1.93155        0.830385        -1.89737
LJ           2.49012       0.0688039        0.189972
LJ        -0.0600872       -0.129143        0.534005
LJ          -2.21615         1.60118          1.8542
LJ              -nan            -nan            -nan
LJ          -1.17367        0.342933        0.580554
LJ          -1.72834         1.73567        -0.76366
LJ          -1.42381         1.79635         -1.2505
LJ         -0.100808        -1.36426         1.66468
LJ          0.934884        -1.04461       -0.761221
LJ          -2.11936         2.50662         2.05746
LJ          -2.09763       -0.207308         -1.5637
LJ           1.64223         1.75273        -1.99757
LJ        -0.0573735        -1.74756        -1.84391
LJ            -2.216         1.14988         2.45527
LJ           0.90436         2.48469         1.11434
LJ           2.13726        -1.63935        -1.42069
LJ           2.13107        0.455364        -1.47993
LJ           1.18892        -2.23439        -1.35639
LJ              -nan            -nan            -nan
LJ           1.42943        0.161497       -0.770058
LJ           2.43626         2.18142        -2.08232
LJ         -0.563211        0.368093        -1.70635
LJ          -2.07952        0.681422         2.56121
LJ           -1.2206        -0.59711         1.08907
LJ          0.968106          0.2979         1.56065
LJ          -1.07257         1.56624         1.23366
LJ          -2.56343        -2.01605         2.16571
LJ          -1.55796        0.419243        -2.22795
LJ          0.513321         2.40493        0.177163
LJ          -2.36242        -1.96083         -1.6377
LJ           2.45588         2.12845        -2.23123
LJ           1.72885         1.81795         1.84095
LJ          0.975463        -1.07173         1.69476
LJ           1.51377        -1.89716        -2.12824
LJ           1.24196         1.39463          2.4544
LJ            1.3688        0.332116        0.143911
LJ          -1.81014        -0.74415       -0.864627
LJ           2.21818        -2.35208       -0.570454
LJ          -2.00105        -1.90608         2.33057
LJ          -2.35686         -1.5973         -1.6503
LJ           1.93765       -0.197421        -2.47922
LJ              -nan            -nan            -nan
LJ         -0.479183        -1.44429        0.312637
LJ          0.234781         -2.3064        0.727971
LJ          -1.95604       -0.824364       -0.495989
LJ          -2.37333         1.06373        0.501727
LJ            1.1429       -0.218207       -0.292491
LJ          -1.92942         1.94369         1.49347
LJ           -0.5374        0.421983        -2.23781
LJ              -nan            -nan            -nan
LJ            1.1386        -2.27415        -2.34806
LJ          0.241524         1.24512       -0.780496
LJ           1.00266        0.152061         1.02319
LJ          -1.47093         2.32083         2.09105
LJ         -0.565519       -0.759657       -0.719196
LJ          -1.32801        -2.07935         1.15496
LJ           0.44982         1.10455        -1.92789
LJ         -0.795387         2.51235         2.01291
LJ              -nan            -nan            -nan
