108
#Comment!
LJ         -0.194107        -2.41982       -0.850489
LJ              0.75         0.21875          2.3125
LJ           1.82703           1.676        -1.52564
LJ         -0.265521        0.897018        -1.89984
LJ           2.34325        -0.64168         2.39476
LJ          0.447737      -0.0478956        0.508048
LJ          0.930583        -1.90905        -1.57441
LJ          0.764023        -2.47124        -2.54846
LJ          -2.11237         1.10521        -2.08655
LJ           2.39989       -0.162609        -1.38215
LJ          -2.48801         0.64325        -1.03302
LJ       -0.00862697        -1.02608        -1.41277
LJ          -2.42264        0.509201       -0.327708
LJ        -0.0542339         1.17433         1.02595
LJ           1.77982        0.261416       -0.954968
LJ          -1.73621       -0.471776        -2.28511
LJ          -2.24968        -1.99556         2.11183
LJ          -2.41995        -1.98393        0.153303
LJ            -2.375         0.59375         -2.4375
LJ        -0.0145419         2.30272         2.07531
LJ         -0.354276       -0.142945        0.580921
LJ           1.48513        -1.83909        0.589405
LJ         -0.400005        0.821041        -1.51557
LJ           2.31681       0.0223748        -2.04052
LJ         -0.826473       0.0193626        0.773991
LJ          -1.10954       0.0326917        -1.40547
LJ          0.908082         1.72559        0.023189
LJ           1.80668         -2.3076         2.00842
LJ          0.517713       -0.534703       -0.753281
LJ         -0.115803        -2.25215        0.335696
LJ         -0.994002         1.93009        -2.44856
LJ         -0.675952        -2.12298        -1.35935
LJ          0.849364        -1.81857         1.25415
LJ          -1.86342        0.313336        -2.54183
LJ          0.136009        -2.01898        -0.62289
LJ           2.31988        0.722843         2.45391
LJ           1.85085        -2.05778        -1.94147
LJ           2.30528        -1.87748         1.52377
LJ          -2.35036       -0.987552         1.70368
LJ           1.15568         -1.3944        -1.36617
LJ         -0.605149        0.500945       -0.632186
LJ           1.12356       -0.543459         1.66101
LJ           1.79651        0.150972     -0.00063684
LJ            2.3645        -2.03859         2.19071
LJ          -1.15143       -0.909426        -1.16692
LJ           1.87229        0.769009       -0.500191
LJ          -1.58529         -2.4668       -0.166662
LJ       -0.00679965       -0.652474           -1.77
LJ           1.15547        0.649847        -1.20021
LJ           1.50564         1.69584       -0.408946
LJ            1.6244        -0.28749       -0.730568
LJ         -0.662991         1.72014       -0.981385
LJ          -0.86901        0.145065      -0.0130791
LJ         -0.830958         1.35191         1.21525
LJ          -1.15075        -1.11995        0.401767
LJ           1.36393       -0.406077        0.910369
LJ          0.959986         2.08073        -1.88326
LJ        0.00530798        0.532517      0.00942883
LJ           -1.4783        0.361551        0.941397
LJ         -0.236437        0.915542        0.203428
LJ          0.434327         2.08224       -0.741422
LJ           1.50838         2.12805         2.31507
LJ         -0.900254        -2.06162         1.83976
LJ          -2.28933       -0.961721       -0.940517
LJ          -1.65602       -0.307393       -0.541439
LJ         -0.350545       -0.796584         -1.1214
LJ          -2.49491        -2.55461        -1.75249
LJ          -1.81037         1.75803         -1.4181
LJ           2.19209         2.27204       -0.768584
LJ            2.4644        -2.03193         2.51251
LJ           1.74968       -0.902952         1.54968
LJ          -0.12649        0.224404        -1.90604
LJ          0.307321       -0.344979       -0.442236
LJ           2.47966        -2.54842        0.408549
LJ          -1.92643         1.91044        -1.73153
LJ          -1.75186         1.10684        -1.95497
LJ          -1.45068         1.86825        -2.43052
LJ          0.336977         2.23115          1.0592
LJ          -2.30592       -0.392368         1.52302
LJ           2.32771         2.02332         2.33569
LJ         -0.598695        -1.20995       -0.899596
LJ          -1.00376       -0.446361         1.90252
LJ         -0.619643         1.78612        -1.44564
LJ          -2.38843        0.777642        0.881934
LJ          0.991489       -0.392294         1.61021
LJ          0.374164        -2.49815        0.539834
LJ          -1.52339           1.954         1.83566
LJ           2.13361         1.97098         2.16555
LJ          0.311543       -0.292071         1.38153
LJ          -1.84801       -0.705062       -0.112407
LJ          0.713697        -2.36028        -1.39487
LJ          -1.23673        -2.12324        0.113822
LJ          -1.02542       -0.730599        0.539341
LJ         0.0539021        -1.38207         1.25156
LJ         -0.426517       -0.856182         1.69751
LJ          0.993183         1.46053        0.309834
LJ           2.24585        -1.22306        -1.38957
LJ           -1.8862       -0.323786       -0.131861
LJ           1.06419        -1.17364       -0.346875
LJ          0.419739         1.29839        -2.14352
LJ           -1.1931         1.54547        -1.39823
LJ           -1.2458        -1.46054       -0.759443
LJ         -0.683373       -0.991376        0.374523
LJ          -1.04235        -2.28246         1.33962
LJ           1.02834         1.97126         1.96522
LJ            -2.035        -0.68661         1.35209
LJ          -1.98851         1.81878        -1.82716
LJ           1.04377         1.58101        0.716761
