108
#Comment!
LJ          0.536369         1.72603        -2.04487
LJ           2.08646       0.0175334         2.43356
LJ           2.05229         1.74118        0.721437
LJ           1.01677         1.80782        -1.40333
LJ         -0.947333          1.9493        0.525452
LJ         -0.703649        -1.07755        -0.50433
LJ          -1.67748        -1.58288        -1.44228
LJ          -1.95915         -2.4163        0.451738
LJ           0.50696          1.5171       -0.560223
LJ           1.59495         2.35996        0.706256
LJ              -nan            -nan            -nan
LJ           1.09748         1.30341       -0.426562
LJ           1.56095         1.90996          1.5304
LJ              -nan            -nan            -nan
LJ           2.11899       -0.200417        0.789195
LJ              -nan            -nan            -nan
LJ              -nan            -nan            -nan
LJ              -nan            -nan            -nan
LJ          -1.91837        -1.05916        -1.49955
LJ              -nan            -nan            -nan
LJ           1.58351         -2.3952        0.040739
LJ         -0.138814        -2.52248       -0.483391
LJ          0.315748         1.20679         1.10695
LJ              -nan            -nan            -nan
LJ          0.854458       -0.800324        0.528332
LJ          -2.33229       -0.411462       -0.729392
LJ          -2.40415          1.1498        0.638764
LJ           1.30744         1.04185       -0.875308
LJ           0.28314        -2.18269        -1.10202
LJ          -2.42259        -2.45182        -1.57412
LJ              -nan            -nan            -nan
LJ         -0.233457        -1.25353        -2.06934
LJ              -nan            -nan            -nan
LJ           2.56484         2.48543       -0.754518
LJ              -nan            -nan            -nan
LJ           1.98397        0.866129        -2.03474
LJ           1.40586        0.313895        -1.08273
LJ           1.32671         1.74237       -0.890469
LJ           1.09484        -2.36788         2.28273
LJ         -0.702121        -1.05738          2.2615
LJ         0.0171657       -0.765868       0.0610004
LJ           2.02358          1.1835        -2.22828
LJ           1.90475        -2.35761       -0.817102
LJ          0.761882       -0.525012       -0.511267
LJ          -1.64586        -1.23402         1.75212
LJ          0.080291        0.408327        0.637498
LJ           1.55342        0.155958       -0.130483
LJ         -0.476656         1.89459       -0.970648
LJ           2.32193         1.37176       -0.545041
LJ          -2.37718        -2.53685         2.25165
LJ          -1.15135         1.04025         1.87917
LJ          -1.52724        -1.02801        0.963891
LJ              -nan            -nan            -nan
LJ            1.8364         1.44651         2.28131
LJ           -1.7921        -1.29249        0.166438
LJ           -2.0697         2.11595          1.4682
LJ           0.68258        -0.45749        -1.51693
LJ          -1.79015          2.2242        -1.65746
LJ           1.82466         2.12411         1.46819
LJ         -0.948706        0.408603         1.86855
LJ         -0.520151        -2.53962        -0.25417
LJ         -0.376591         1.49751         1.48349
LJ          -1.27927        -1.52112        -1.26521
LJ              -nan            -nan            -nan
LJ              -nan            -nan            -nan
LJ           1.56195        -2.52382          0.7687
LJ         0.0134115       0.0308529         1.90459
LJ              -nan            -nan            -nan
LJ            1.9232         -1.2106      -0.0685743
LJ          -2.42175        -2.49182         1.60807
LJ          -1.85426          2.0679        -2.03215
LJ          0.569548       0.0430342        0.520738
LJ           2.42768         1.86668       -0.546133
LJ         -0.425172        0.785814      -0.0185476
LJ         -0.360653        -1.91372       -0.197115
LJ           2.47624       -0.463718         1.19126
LJ          0.520971         1.01848      -0.0178349
LJ          -2.02616       -0.418589        -2.54135
LJ          -0.34558        -1.65428         1.62726
LJ           1.23981         1.85807         2.15435
LJ           2.44972         2.42275        -1.64758
LJ          0.111149        0.634394         1.28106
LJ           2.26576       -0.705333        -1.87617
LJ         -0.521509        -2.45288       -0.367763
LJ            2.1145         1.92307         1.30724
LJ           1.13267       -0.556573       -0.507535
LJ          0.403238         1.57092        -1.95223
LJ           0.95635         1.24532        0.116551
LJ          -1.99396        -1.11339        -1.57717
LJ          0.605649        0.806173         1.82686
LJ              -nan            -nan            -nan
LJ          0.978524       -0.761477       -0.717135
LJ           -1.3244        -1.91695        -1.08861
LJ           1.52022        -2.54446        -2.26813
LJ           1.49686        -1.72038         1.81921
LJ           1.68295         1.70265        -1.70815
LJ           2.38408        -2.38603        -2.10144
LJ           1.30387        0.546868        -1.23662
LJ              -nan            -nan            -nan
LJ        -0.0503158       -0.015348        -1.85743
LJ           2.34769        -1.70478        0.241794
LJ          0.624465         1.67504        -1.31039
LJ           1.70071         1.86455        -1.97423
LJ           2.21231       -0.517808        0.355188
LJ              -nan            -nan            -nan
LJ          0.728121        -2.14247       -0.568252
LJ          0.543575        -2.18284         -1.9955
LJ              -nan            -nan            -nan
