108
#Comment!
LJ          -2.06985        -1.11999        0.966303
LJ          0.992706        -0.55037         1.88032
LJ          -1.84102         1.40166         1.55393
LJ          0.270847        0.954232        0.350241
LJ         -0.225251        -1.89184         2.46416
LJ           1.31634        0.778819        -2.51036
LJ        -0.0619886          1.6893        -1.08589
LJ          0.156756         2.11904        -1.50918
LJ          -1.08903        -1.67811        0.408198
LJ           1.01965        -1.80784        -1.05509
LJ              -nan            -nan            -nan
LJ           1.66363        -1.99564         1.23143
LJ           2.42463        0.747143        -1.50726
LJ         -0.525955        0.301752        0.471392
LJ          -1.52772        0.223008       -0.544727
LJ           1.50919         1.89195        -1.38703
LJ         -0.575917       0.0571572       -0.573366
LJ           1.89305         1.56133         1.50245
LJ           2.55283        0.644356        -1.38099
LJ          -2.14005        -1.62881       -0.427513
LJ          -1.92454        -2.46097        -2.23704
LJ            1.3814        -1.54004        -2.08372
LJ          0.653647        -1.08466        -1.31063
LJ          -1.38057        -1.95652         2.29347
LJ          0.945369         0.94126        -2.15544
LJ          0.372506        -1.75797        -1.11803
LJ           1.25872        -1.94102        -1.85975
LJ           -1.6723        -1.25036         2.19542
LJ          -1.96259        -1.60617        0.242718
LJ          0.881977        -2.08942          2.4431
LJ            1.2664       -0.288922         1.36619
LJ          -2.05286       -0.103297        -1.01172
LJ              -nan            -nan            -nan
LJ          0.491046         1.40404        -1.66912
LJ          -2.31842         1.35392       -0.766822
LJ          0.475763         2.50722        -2.36459
LJ         -0.044093        -1.14842        -1.94054
LJ           2.50484       -0.733826        0.394958
LJ           1.13839        0.775571         2.29975
LJ         -0.810043        -1.37932        -1.99295
LJ          0.220838        -1.41478        -1.91071
LJ          0.332046        -1.10957        -1.05498
LJ           2.04015         2.27771       -0.283861
LJ         -0.509023        -1.22963         1.03177
LJ          -1.55621        -1.10324         2.13809
LJ          -1.01935        -1.85043       -0.933604
LJ           2.20105        -1.16407       -0.162805
LJ           1.91657          0.1922         2.42121
LJ         -0.555063        -2.30558          1.5286
LJ          0.103348         1.54567         -1.0597
LJ        -0.0790435         -2.2811        -1.92067
LJ         -0.113756         1.38537         1.96823
LJ           -2.2896        -1.14635        -1.54253
LJ          -1.48684        -1.51346       -0.808262
LJ          -2.45775       -0.582469         2.49525
LJ          -1.57401         2.23037       -0.999614
LJ          -1.94957         1.92393         1.11334
LJ           1.74551        0.173171         2.41941
LJ         -0.435407       -0.950672         1.53478
LJ          -1.17083         1.29268       -0.365282
LJ           1.01542       -0.844778         2.12573
LJ          0.997478       -0.361228        -2.31351
LJ           1.53023        -2.50945         2.12363
LJ           1.17299        -0.23775         2.20634
LJ          0.125445      -0.0601909        -2.41372
LJ             0.208        0.569464           0.396
LJ           1.00076      -0.0890309        0.359424
LJ           2.24689        0.997628         1.61343
LJ           2.03635         2.44383        -1.54489
LJ          -1.99137        0.738641        0.022136
LJ         -0.868575         2.36405        -0.78437
LJ           1.75623         1.89704        0.099246
LJ          0.187661         2.25533        -1.39609
LJ           1.68254        0.962899       -0.125787
LJ           1.13507        -1.70752       -0.919891
LJ         -0.404779          2.1414          2.0848
LJ          0.848281         2.27292         1.66729
LJ           1.22777         1.42052        -1.36004
LJ          -1.01045         1.26269        -1.57925
LJ          -2.27867         1.72478        -1.90943
LJ         -0.581467         -1.8578       -0.455277
LJ          -1.47218         1.21051         1.73081
LJ          -1.27346       -0.663608        -1.07914
LJ           1.05174        -1.64563        0.455742
LJ            1.0469         1.01525        0.965416
LJ           0.35959         1.70244        -1.37331
LJ         -0.100226        0.819389         1.19278
LJ         -0.187827        -2.12282       -0.325989
LJ          -2.32231         1.28233        -1.81135
LJ        -0.0627813         2.08418        -2.32256
LJ           -1.1073       -0.219591        -1.90435
LJ         0.0951122        -2.19555         2.20789
LJ           1.54295        -2.16394        0.445107
LJ         -0.979507        -2.22267      -0.0498708
LJ           2.30752         1.09561         2.54586
LJ          -2.15607        0.641489         -1.2124
LJ         -0.909016         2.45541         2.22703
LJ           1.56205         1.81754        -1.36784
LJ           0.99996         0.76935       0.0984222
LJ           1.80109         -1.8416       -0.725501
LJ          -1.90729        -1.84546        -2.15752
LJ           1.02458         1.05313          2.3977
LJ          0.422672       -0.236121       -0.236208
LJ           1.38117        -1.21321          1.4044
LJ            2.3614        -1.64078          1.7469
LJ          0.448196       -0.682617        -1.00024
LJ         -0.605158         -1.3726         1.93118
LJ          0.849519        -2.01608       -0.525464
