108
#Comment!
LJ           1.77838       -0.976316        -1.95965
LJ           1.63913       -0.147086          0.7441
LJ           1.97466       -0.250292       -0.665483
LJ          -2.23843        -1.62673         2.08653
LJ          -1.23032         1.85773        -1.93666
LJ         -0.546609         1.24888        -2.08109
LJ          -1.25943        0.804348        0.434133
LJ           -1.9869        -2.22048       -0.952288
LJ           1.03937       -0.512795         2.19959
LJ          -1.68157        0.694839        -2.54436
LJ              -nan            -nan            -nan
LJ           1.20375        -1.57898      -0.0751476
LJ         0.0461054         1.08045        -1.12629
LJ           1.71112       -0.539403         2.45536
LJ         -0.210114       0.0954685        -1.56647
LJ           1.88943        -1.52787        0.757848
LJ              -nan            -nan            -nan
LJ              -nan            -nan            -nan
LJ           0.31079        0.293608      -0.0330543
LJ              -nan            -nan            -nan
LJ         -0.838234       -0.852057        -2.06428
LJ           1.23664        -1.14588         2.08177
LJ            2.2001         1.94915        0.658005
LJ         -0.920221         1.92722         0.90435
LJ          -2.25694        -2.37831       -0.995541
LJ          -1.86601        0.602176       -0.747315
LJ           -1.8567        -2.11876        -1.30251
LJ          -2.04967       -0.545019        -1.04831
LJ          0.786436       -0.144087         2.38334
LJ         -0.891189         2.23418        0.948572
LJ          -1.02063         -2.1513        -1.27063
LJ         -0.726956           -2.32          2.2353
LJ              -nan            -nan            -nan
LJ           1.40639       -0.395534        -1.77797
LJ              -nan            -nan            -nan
LJ          -1.64509       -0.157346        0.925664
LJ         -0.086749        -1.10296       -0.964505
LJ           1.84805       -0.396405       -0.514055
LJ          0.662241         1.27626        0.858228
LJ          -1.72084        0.908451         1.19254
LJ           1.18879      -0.0419757        -1.58292
LJ           1.82715         1.04452        0.153157
LJ         -0.120623        -0.24112       -0.546811
LJ          0.812698        -1.19799      -0.0779313
LJ           1.72119        0.915463        -2.38536
LJ          0.719718       -0.163465        -1.60842
LJ         -0.772815        0.796011       -0.970269
LJ           1.76663        0.182913        -2.54151
LJ           2.48235        0.414828         2.14172
LJ         -0.730701            0.44        -1.56741
LJ          0.157713        -2.17857        0.212971
LJ         -0.436964         2.32632        -1.69351
LJ              -nan            -nan            -nan
LJ         -0.126474         1.41304         1.80143
LJ          -1.50183        -1.48771        0.244596
LJ        -0.0556507          2.0918         1.73806
LJ          -1.68523     -0.00525051         1.05476
LJ      -0.000429587        0.331217        -2.56446
LJ           1.48224        -2.03308        -1.54989
LJ           1.72788        -1.21366        -1.20174
LJ          -2.24835        0.976246        -1.05352
LJ            1.4383          2.2737         1.59563
LJ         -0.527648        0.692486         0.31458
LJ           -1.1475         1.90766       -0.216708
LJ           2.45616       -0.662271         2.00656
LJ           2.46724        0.385296        0.658341
LJ           1.49135        0.456377         1.08626
LJ              -nan            -nan            -nan
LJ          -1.70061        0.574726        0.831571
LJ            1.2957       -0.495523        -2.19915
LJ           1.04484         1.10983         2.34598
LJ          0.707444         1.42028        0.696464
LJ          0.219188         1.56064         1.21871
LJ        -0.0996678       -0.933604        -1.18394
LJ           1.34332        -1.73206         1.24421
LJ          -2.12796        -2.13616         1.57016
LJ          -2.01039        0.939158        -0.37058
LJ           2.16514        -1.85623       -0.786597
LJ          0.554015         -1.9029       -0.640786
LJ           1.21003         2.50475         2.05064
LJ           1.90499        -2.24834       -0.914746
LJ          -2.05692       -0.328501        0.127778
LJ         -0.273228         2.40664         1.26184
LJ           1.07241        0.546405         1.41016
LJ          -2.08683         1.32243       0.0904704
LJ          0.798227       -0.731207        0.459512
LJ          -2.45581         1.20076        0.927856
LJ          -0.51121       -0.468704         1.52014
LJ          -2.55261         2.17817         -2.0226
LJ           2.32288        0.669976       -0.208338
LJ              -nan            -nan            -nan
LJ          -2.15291         1.88417        -1.62373
LJ           1.24319         2.10675        -1.15351
LJ           1.46873         -2.0806        0.654961
LJ           1.68729        -2.08544         1.71359
LJ           1.86962        -2.51983        -2.20454
LJ          -2.41589         0.68679       -0.145528
LJ         -0.336764        0.108456         1.78314
LJ           1.76864       -0.859428         2.53895
LJ          0.830894         1.39361         1.39029
LJ           2.32957        0.339129       -0.742942
LJ         -0.566022        -0.53694         1.71801
LJ           -1.7341        0.334963        -1.20708
LJ          -1.14722      0.00385315        -2.32316
LJ          -1.60125        -1.98891         1.51989
LJ           2.50316         -1.0322        -2.17524
LJ            1.9054         1.66931        -2.39806
LJ              -nan            -nan            -nan
