108
#Comment!
LJ            2.4753         -1.3021         0.67416
LJ          -1.20356       -0.920629        -1.34532
LJ           1.63471        -1.27898         1.50252
LJ         0.0704591         2.11022        0.929297
LJ          -2.54324         1.17426       -0.225057
LJ          -1.31889          -2.097         2.07259
LJ         -0.203658        0.318693          1.5055
LJ        -0.0350605        0.758827         1.54707
LJ         -0.296342       -0.442099        -2.52644
LJ         -0.589162       -0.981955       -0.503481
LJ              -nan            -nan            -nan
LJ         -0.711782       -0.554977       -0.881698
LJ          0.960501         -1.2089        -1.00352
LJ              -nan            -nan            -nan
LJ           2.20514        0.863117      -0.0128884
LJ              -nan            -nan            -nan
LJ              -nan            -nan            -nan
LJ              -nan            -nan            -nan
LJ          -1.66308        -1.81087        0.794416
LJ              -nan            -nan            -nan
LJ          -2.14353         1.99172         1.83874
LJ          0.231572       -0.967953         1.47574
LJ           1.62884         2.31214         1.50319
LJ              -nan            -nan            -nan
LJ          0.183145         1.51288        -1.13499
LJ          0.433073        -1.31092         2.23939
LJ         0.0463352        0.483919         2.52754
LJ          -2.38086       -0.914357         1.79414
LJ          -1.95215        -1.31996        0.455109
LJ           1.66872        -1.93696       -0.281605
LJ              -nan            -nan            -nan
LJ           1.26804       -0.574623        -0.38537
LJ              -nan            -nan            -nan
LJ          0.990263         0.42884         2.23146
LJ              -nan            -nan            -nan
LJ         -0.915199       -0.700171         1.08033
LJ           2.15396        -1.76184        -1.82122
LJ          0.220989         1.29927        -0.04037
LJ           2.45577        0.353067         1.04578
LJ         -0.113638        -2.48438        -1.61823
LJ          -0.40628      -0.0471262       -0.801807
LJ         -0.128447         2.53359        -1.30766
LJ          -1.69746        -2.03882       -0.292744
LJ           2.08832        0.104001        -2.29588
LJ          0.608548           2.234         2.02868
LJ         0.0842774        -2.46645         1.41086
LJ           2.42096         2.21366         2.54043
LJ          -1.02955        0.680898       -0.488823
LJ           1.52273         2.37299         1.23356
LJ          0.550086         1.47478           1.732
LJ         -0.798259       -0.110293       -0.339663
LJ          0.958244        -2.15589        0.384741
LJ              -nan            -nan            -nan
LJ          0.742071       -0.354858         1.69528
LJ           1.25332         1.82659         2.27327
LJ         -0.820713         -2.1607        -1.84373
LJ         -0.449295         1.91189        -1.49664
LJ           1.14561         -1.3954       0.0574129
LJ          -1.74479        -1.36079         1.88557
LJ           1.13463        -1.53965       -0.403651
LJ           1.64153        0.424047         -1.0174
LJ           1.14907        -1.06582        -2.33352
LJ         -0.377344       -0.856719       -0.117513
LJ              -nan            -nan            -nan
LJ              -nan            -nan            -nan
LJ          -1.11702        0.932689        -1.40737
LJ           1.08914        0.136553       -0.980323
LJ              -nan            -nan            -nan
LJ          0.096999       -0.484388         1.73486
LJ            1.6275        0.723078       -0.690409
LJ          0.855932        -1.10559         1.40096
LJ         -0.962322        -2.45256        -0.13331
LJ           2.21271        -1.72724        0.267264
LJ          -1.47177        0.445177        -1.62654
LJ          0.892537         2.22513       -0.308183
LJ         -0.473827          1.4255         -2.2782
LJ           2.24575        0.689724        0.796772
LJ        -0.0850439         2.52179        -1.09999
LJ           1.57361         1.87494        -1.74659
LJ         -0.971546         2.48874       -0.541277
LJ          -1.00254        -1.01574         1.22375
LJ          0.323821         1.73129        -1.34687
LJ          0.134911         -1.0293         1.94647
LJ           1.73093       -0.892464        -2.21568
LJ           1.37316        -1.51924        -1.48601
LJ           2.11989        -2.28495        -2.32011
LJ         -0.454207         -1.1034        0.175103
LJ          -1.08999         1.13052       -0.207178
LJ          -1.98247        0.500624       -0.784488
LJ          -1.98684        -1.64335       -0.553735
LJ              -nan            -nan            -nan
LJ        -0.0108382        -1.31236        0.139334
LJ          0.140198        -0.81679         1.93608
LJ          0.272146        -2.36116        -1.42245
LJ          0.941306        -1.66148        -2.07026
LJ          -1.91737         1.80012         2.06741
LJ          0.994404        0.713302        -1.32994
LJ         -0.696402       -0.544759        -2.49267
LJ              -nan            -nan            -nan
LJ           1.92778       -0.490055         1.74157
LJ         -0.484582         1.87854        0.183426
LJ         -0.647931        0.631759      -0.0425738
LJ          -1.14894        0.207459         1.85768
LJ         -0.331354         1.61138       -0.720707
LJ              -nan            -nan            -nan
LJ         -0.820512         -2.4194        0.074853
LJ           0.74474        0.334484        -2.34375
LJ              -nan            -nan            -nan
