108
#Comment!
LJ         -0.352183        -1.84322        -1.76039
LJ          -1.39455         2.00769        -1.06708
LJ          -1.71659        0.310699       -0.907086
LJ           1.49293       -0.538561        0.551545
LJ           1.73816         2.53848       -0.946244
LJ          0.491689        -1.65795        -2.12283
LJ         -0.827082        0.488337        0.912003
LJ           2.37107       -0.590402        -2.21956
LJ           -0.4162         -1.7234          1.8408
LJ         -0.102176         1.55313         1.80651
LJ              -nan            -nan            -nan
LJ         -0.649208         0.47645        0.152646
LJ         -0.162446        0.124783         2.03367
LJ            2.5645         1.76152       -0.509713
LJ           1.32319         1.68788        -2.03417
LJ            2.0782        0.192328         1.00819
LJ          0.637588        -1.69855          0.7678
LJ           2.35437          1.0361        -1.30393
LJ          -1.14471        -1.31819        -1.34518
LJ          -2.43543        0.599889         2.53497
LJ          -1.22512        0.509673        0.694039
LJ           1.30239      -0.0205068        -1.06515
LJ          -2.27533        -2.10406        -2.25853
LJ          -1.73011        -1.74263         1.15388
LJ         -0.614912         2.41838      -0.0876902
LJ          0.386192         1.05464          1.5309
LJ            0.4761       -0.348566        0.971016
LJ          -1.97693        -0.94626        -1.57308
LJ        -0.0593125        0.895427         2.09915
LJ          0.148682       -0.377279         2.10101
LJ            1.6121        0.714625       -0.789102
LJ          -2.50749         1.13471         2.06858
LJ              -nan            -nan            -nan
LJ           1.99704        -2.38837        -2.42199
LJ         -0.221918       -0.721407        0.116458
LJ          -1.46636        -0.65506        0.101397
LJ         -0.672419         1.96311         1.13074
LJ           2.08525         -1.1424         1.87027
LJ          0.474851         2.47037         1.37821
LJ          -1.66756        0.890305         2.23719
LJ          0.849168        -1.48207         2.47118
LJ           2.37607        -1.31663       -0.219973
LJ         0.0990152         -2.1185       -0.366048
LJ          -2.07477         2.42215        0.244805
LJ          -1.42477       -0.428496          1.2317
LJ           2.39796         1.36229        -1.99692
LJ          0.695577        0.373487         2.48288
LJ          -1.55625         2.18269       -0.453788
LJ          -2.00073       -0.758231        -1.62901
LJ           1.47612        -2.21672        -0.64804
LJ          -1.76799          1.0439        -1.14212
LJ           -2.4279        -0.88215        0.587108
LJ          0.566452         0.68397         2.09789
LJ          0.216257        -2.41848       -0.131034
LJ            2.2706         1.82187       0.0518444
LJ           2.08266        -2.46368         1.18036
LJ         -0.603238         -1.2735         2.46881
LJ          -1.08978        -2.12765         -2.0894
LJ          0.060383       -0.445728        -1.27055
LJ           1.76015        -2.34486         1.68985
LJ          -1.61905        0.649081          2.3324
LJ          0.441248         2.45771         2.25366
LJ         -0.317025        0.568284        -1.61984
LJ           1.03616        0.681222        -2.21376
LJ           2.25998        0.397294        0.925132
LJ          0.231346         1.44727         2.17205
LJ          -2.04091         1.06075        0.656623
LJ           2.23944       -0.420747        0.574814
LJ          -1.09042        0.350454        -0.71324
LJ         -0.210686         2.47526        -2.31559
LJ          -1.87818        -1.72865         2.19006
LJ          0.290562        0.885196         -1.8538
LJ          -1.09816        -1.65307          -1.628
LJ          0.955589        0.843705         1.98763
LJ           1.46239       -0.447209        -2.24091
LJ          -0.34349        -1.95298        -1.14146
LJ           1.09795       -0.869163         1.43847
LJ          -1.91246         1.61501        -1.20086
LJ          -2.24778          2.5484         2.15615
LJ           1.08507         1.94355        -2.55919
LJ          -1.65803       -0.361784         1.55803
LJ          -1.35596        0.400181         1.92801
LJ           -2.2342         1.83585         2.07847
LJ          0.586995        -2.28679        -1.56342
LJ         -0.882819         1.15362         1.00157
LJ         -0.466722         -1.0511        -2.24865
LJ          -1.38533         0.75991        0.700448
LJ       0.000863657         1.25771       -0.262848
LJ            1.3659        -1.51733       -0.243391
LJ           1.65029       -0.931166       -0.261125
LJ           2.03282       -0.561939        0.367922
LJ          -1.53014        -0.35399        0.493144
LJ          0.508598        0.244348        -1.41178
LJ          -1.24953         1.77657       -0.276237
LJ           0.72261        -2.47905       -0.812326
LJ          0.617704         2.35218       0.0685988
LJ         -0.505434        0.461148        0.713844
LJ          0.551214         1.01001         -1.1952
LJ          0.802601        -2.42074       -0.699892
LJ          -1.90067        -2.31322         1.50916
LJ           -1.3873      -0.0541317        0.983535
LJ           2.42891       -0.797444         1.07529
LJ          -2.04645        -1.16532       -0.770809
LJ         -0.086723        0.517944       -0.283325
LJ          -1.52922        -2.47206       -0.611217
LJ           1.32204        0.976697         1.50907
LJ         -0.343928         1.73629        0.652227
LJ          -1.74686         2.45861        -1.16145
