108
#Comment!
LJ           1.00308        -1.77413        -2.15532
LJ          0.426819        0.666587         2.11792
LJ          0.851279         2.19147        -1.54172
LJ          0.952555        0.372576        0.733893
LJ          0.673924       -0.522563        -0.95684
LJ          0.153478        -1.01239        -1.71068
LJ           1.69442        0.493784        -1.04933
LJ          0.221733        -1.08742       -0.960092
LJ          0.107454        0.909784       -0.012879
LJ          -1.31312         2.42348       -0.782062
LJ              -nan            -nan            -nan
LJ          0.719481        -0.57141         1.33235
LJ           1.33777        0.684933         2.56095
LJ              -nan            -nan            -nan
LJ          -1.84659        -1.65221       -0.325448
LJ              -nan            -nan            -nan
LJ              -nan            -nan            -nan
LJ              -nan            -nan            -nan
LJ           -1.0716         1.49242         1.43865
LJ              -nan            -nan            -nan
LJ         0.0624222         1.97311         2.08714
LJ          0.949731        0.848258        0.149369
LJ           1.04439        -0.31989        0.324896
LJ              -nan            -nan            -nan
LJ           -1.8401        -1.03902          1.4045
LJ         -0.916799         2.48456        0.887498
LJ           -1.2635       -0.721164        -1.75543
LJ          -2.54572        -1.33271         1.15935
LJ          -1.71261        -1.47887        0.141008
LJ           2.11189        0.439772         1.35738
LJ              -nan            -nan            -nan
LJ          -1.98754      0.00207214       0.0865608
LJ              -nan            -nan            -nan
LJ          -1.29438       -0.852633       -0.273011
LJ              -nan            -nan            -nan
LJ          -2.53159         1.69752         1.33103
LJ          -1.20153       -0.257467       -0.916036
LJ           2.01714      -0.0422907         1.74461
LJ          0.698903        0.626714       -0.175893
LJ           2.54458        0.862383         1.13637
LJ           -1.0701       -0.777561        0.643863
LJ            1.5242       -0.672903        -1.22376
LJ          0.383867         1.44992        0.606852
LJ        -0.0712247       -0.489341         1.48283
LJ          -1.55281         1.25288         2.52956
LJ           1.77346       0.0811525        0.857406
LJ          -1.08435         1.76716         2.16858
LJ           2.21582       -0.252678        -2.46948
LJ          0.599825         1.75683        -2.53761
LJ           1.37525          2.3024       -0.542764
LJ          -1.86938         2.07301        0.916639
LJ           1.89054         1.55362         1.63108
LJ              -nan            -nan            -nan
LJ         -0.137448        -1.44726      -0.0377045
LJ          0.885725        -1.52227       -0.959808
LJ          -2.46098        -2.04607         -0.3385
LJ           1.15007        0.708765        0.872665
LJ           2.13485       -0.209844        -1.66066
LJ         -0.220108         1.31971         1.31475
LJ          0.871821         -1.5365       -0.668646
LJ          -1.26499      -0.0627139        -1.02608
LJ           1.68189       -0.895431         0.37071
LJ         -0.474133          2.2941          2.3219
LJ              -nan            -nan            -nan
LJ              -nan            -nan            -nan
LJ         -0.555318        0.644501         1.47386
LJ          0.443354         1.34877        0.428764
LJ              -nan            -nan            -nan
LJ           1.87264        0.268017        -2.38949
LJ          -2.23341         1.71107        -1.45681
LJ        -0.0247341       0.0802837        -1.23643
LJ          0.542988        -2.20411        -0.31885
LJ          0.775318        0.855466        -1.30956
LJ           2.48662        -2.24404        0.986295
LJ          -1.63682         1.21362        -2.08754
LJ          0.466989        0.548707        -2.20995
LJ          -2.50967         1.89854         2.54812
LJ           1.03873       -0.935593        -1.89368
LJ          -1.52402        0.329378        -2.32731
LJ           -1.2423         2.08837        -1.88228
LJ           2.15658        -2.10348       -0.236886
LJ           2.14879         1.58641         1.75886
LJ          -2.31526        0.990908         -2.0522
LJ          -1.80201        -1.70473       -0.841458
LJ          0.563572        -1.54286       -0.775669
LJ          -1.33115        -1.34451       -0.965404
LJ          -1.22929        -0.79642        -1.26964
LJ          -2.04744       -0.054882        -1.65104
LJ           1.76986       -0.719713         2.16902
LJ           1.25458       -0.267339        -1.62456
LJ              -nan            -nan            -nan
LJ          -1.77058         1.50843       -0.454822
LJ          -2.14034        -1.40056        -2.38131
LJ          0.163329        -2.02719        0.034544
LJ         -0.655145        0.527444       -0.801439
LJ          -2.21173        0.702242        0.524769
LJ          0.185519       -0.800456        -1.30094
LJ           2.36397       -0.671139         0.48172
LJ              -nan            -nan            -nan
LJ           2.03842        0.364972        -1.37113
LJ           1.80723         0.18497         1.06163
LJ         -0.372128        -2.07605         2.26387
LJ         -0.201354        0.705009          0.3018
LJ         -0.635566       -0.694154        -2.44932
LJ              -nan            -nan            -nan
LJ         -0.408869        -2.15148         1.95772
LJ          -0.24418       -0.314524        -2.09234
LJ              -nan            -nan            -nan
