108
#Comment!
LJ         -0.273225       -0.751241       -0.329148
LJ          -2.22556      -0.0695106         2.13609
LJ         -0.568189       -0.662881        -1.57674
LJ           1.41479         2.26164         2.53637
LJ          -1.07618         1.26401           1.757
LJ          0.006331        0.547324         2.06127
LJ         -0.787484        -1.73789      0.00345269
LJ           2.29566       0.0386605        0.914016
LJ           1.09575        -1.81361       -0.918198
LJ          0.721935         2.05902         1.97758
LJ              -nan            -nan            -nan
LJ           2.35573       -0.774505       -0.760085
LJ           1.65029        -1.04881        -1.82494
LJ              -nan            -nan            -nan
LJ          -1.02886         1.08723         1.35465
LJ              -nan            -nan            -nan
LJ              -nan            -nan            -nan
LJ              -nan            -nan            -nan
LJ           -1.4446       0.0666475        0.344082
LJ              -nan            -nan            -nan
LJ           2.38255        -1.43508         2.02761
LJ          -0.31104        -1.93462       -0.204389
LJ          -2.19963        -0.34096        -2.08446
LJ              -nan            -nan            -nan
LJ           0.69689       -0.530047        0.342967
LJ         -0.288635        -2.12229         2.04002
LJ          0.672616         2.48913         1.39931
LJ          -2.23407        0.464764        -2.40243
LJ          -2.35223         2.44778         -1.5288
LJ          -2.50394        0.337803        -1.26733
LJ              -nan            -nan            -nan
LJ           -1.9289        0.764587       -0.361813
LJ              -nan            -nan            -nan
LJ          -0.36245      -0.0891833        -1.95386
LJ              -nan            -nan            -nan
LJ           2.30345         -1.2501      -0.0550932
LJ         -0.897158        0.873843        -2.19112
LJ          -2.43198        -1.82329          1.6778
LJ           1.88768        0.358082         2.51233
LJ          0.277436         2.49076        -1.28085
LJ        -0.0829036         1.15231        0.167129
LJ         -0.481736        0.498616        0.407741
LJ          0.598358        -0.80695         2.32301
LJ          -1.51654        -1.55217        0.285661
LJ           0.60589       -0.676662         2.36984
LJ           1.58457       -0.741124          1.6259
LJ         -0.220561       -0.707062        -1.91271
LJ           -1.0004        -1.53301        0.256164
LJ           1.15916        -2.32703        -1.26966
LJ          0.722205         -2.2781         1.40091
LJ           2.17826         1.90793         2.19814
LJ          -2.50155        -1.09945        -2.12173
LJ              -nan            -nan            -nan
LJ          -1.69809        -1.20837        -1.10804
LJ           1.77807         2.20195        -1.25677
LJ           1.15769        -2.46403        -1.00765
LJ           2.40147       -0.482451        -2.01507
LJ           1.77569         1.43255       0.0715237
LJ           2.30272         -2.4688       -0.390334
LJ           1.92702        -2.42594         2.46137
LJ          -2.15485         2.06719       -0.489778
LJ           1.66671        -1.49467        0.760094
LJ           1.84681      -0.0306567         1.79297
LJ              -nan            -nan            -nan
LJ              -nan            -nan            -nan
LJ           1.66412       -0.696349         1.80092
LJ         -0.562278        0.976978        -0.91129
LJ              -nan            -nan            -nan
LJ          -2.41595        -1.15492         2.49212
LJ          -1.00129         1.79666            -1.6
LJ           2.51341        -1.74997       -0.391473
LJ           1.10197        0.627612         0.38974
LJ         -0.265057        -2.21632         1.03826
LJ          -2.41501        -1.34912        -2.34383
LJ           2.16478          0.6974         1.32172
LJ           2.15839      -0.0885785       -0.351579
LJ           2.50913        -1.39173        0.527445
LJ           1.29122         2.19139          1.3717
LJ          -1.77762         1.76261        0.699824
LJ          0.197468         1.64513        -2.32344
LJ           1.27183       -0.706881       -0.165888
LJ            1.9972        0.909979        0.603846
LJ         -0.975306       -0.480601         -2.1273
LJ          0.297528        0.995293         1.20661
LJ          -1.26266        -1.65967        -1.03761
LJ          0.973015        0.979659        -1.15732
LJ         -0.993489        0.469487        -1.81957
LJ          -1.59247        -2.56413        0.343848
LJ           1.65194       -0.769967       -0.857501
LJ            2.3435         2.02643       -0.691202
LJ              -nan            -nan            -nan
LJ          -1.22942         1.82638         2.36188
LJ          0.505294        0.205738       -0.621111
LJ           2.35867         2.20468         2.45119
LJ          -1.04713         1.24239          0.1809
LJ          0.760533        -1.84953         1.42499
LJ            2.4698        -0.37134         1.28068
LJ           1.99723       -0.431462         2.17563
LJ              -nan            -nan            -nan
LJ           1.58808         1.42881        -1.33547
LJ          0.493358         2.17222        0.134209
LJ          0.933371        -2.53361       -0.792748
LJ          -1.18519         0.76688        -2.08018
LJ          0.842217         0.82139         1.00785
LJ              -nan            -nan            -nan
LJ          -1.70536        -1.78539        -1.36825
LJ          -2.03496          1.4614       -0.871274
LJ              -nan            -nan            -nan
