108
#Comment!
LJ           2.23375        -1.88498        0.803251
LJ          0.618341         1.41227         1.56022
LJ          -1.66393         1.19819         2.35859
LJ           1.91735         1.03796         1.30416
LJ         -0.136606        -1.86662         2.15057
LJ           2.27315       -0.801191         1.31899
LJ          -2.19179        -1.30361       0.0889327
LJ         -0.963449        0.659294       -0.288164
LJ          -1.09048        -1.24799       -0.683794
LJ         0.0672853         2.31019       -0.326961
LJ              -nan            -nan            -nan
LJ          -1.85153         2.37153        -1.60147
LJ          -1.18755       -0.197073        -0.68677
LJ           -1.7848         1.88746        -2.06634
LJ            2.5626         1.99542          2.5156
LJ          0.675878         1.27633       -0.770679
LJ              -nan            -nan            -nan
LJ              -nan            -nan            -nan
LJ           1.35306       -0.178405        -1.70427
LJ              -nan            -nan            -nan
LJ          -1.89727        -1.21695       -0.579225
LJ           0.38312        -1.99426        -1.78027
LJ          -1.96568        -1.60134         1.22151
LJ           2.22895         1.94291      -0.0485334
LJ          -2.01497        -2.09925        -2.15418
LJ         -0.444199      0.00193781         2.28139
LJ         -0.876728        0.317127        0.542938
LJ           2.38864       -0.759083        -0.15026
LJ          -2.25035        0.315686         1.98284
LJ           -1.1314        -1.72289        0.131225
LJ          0.418467        -2.09451       -0.122669
LJ          -1.96478         -1.0386       -0.734326
LJ              -nan            -nan            -nan
LJ          -1.64793        0.952179         1.17055
LJ              -nan            -nan            -nan
LJ         -0.576818        -1.32795         2.50985
LJ           1.86152       -0.267818        0.690862
LJ          -1.50504          1.1804       -0.721736
LJ          0.884622       -0.924729        -1.45457
LJ         -0.539579        -2.51669       -0.454847
LJ          -2.19172         1.14072        -1.13203
LJ           2.17892        -1.19037         1.97627
LJ          -2.16823       -0.104697       -0.165347
LJ           -1.1895        0.338486        0.292575
LJ          -2.30548        -1.54927        0.204852
LJ           2.46539        -1.42964       -0.784302
LJ         -0.703202        -1.57628        0.687664
LJ          -2.33326         1.06602        0.842028
LJ         -0.841873        0.770611        0.153365
LJ          -1.28338        -2.39191        0.819187
LJ          0.308802         2.10263       -0.281589
LJ          0.631209         0.10451       -0.872135
LJ              -nan            -nan            -nan
LJ           1.48868        0.403283         1.76831
LJ          -1.33388       -0.229218      -0.0902597
LJ          -2.10234        -1.59008         2.19222
LJ          -1.30256       -0.731044        0.489323
LJ          -1.97842           2.432        -1.98911
LJ           1.62111         1.36669        -1.33755
LJ            1.5581        -2.39563        0.853837
LJ        -0.0810268         1.48901       -0.930152
LJ        -0.0132649       -0.135323         2.17063
LJ           1.46413        -1.91499         1.44818
LJ          0.754947        -2.45369        -1.84691
LJ         -0.975134         1.71542         1.90218
LJ         -0.365134        -2.32187        0.211231
LJ          0.154242        -2.49289        -2.18379
LJ              -nan            -nan            -nan
LJ          -2.16041        0.154142        0.910934
LJ          -1.98838         -1.9714        -1.41737
LJ          -2.17856         2.07917        -2.52116
LJ          -2.56122        0.794174          -1.322
LJ          -1.84927       -0.540538       -0.794488
LJ          -1.11331        -1.57473         1.58492
LJ           2.16886        0.123246         2.11717
LJ           1.18785      -0.0633418        -0.98054
LJ          -1.29955         1.00603         1.66215
LJ          -1.71658         2.09036        -1.09362
LJ          0.400845        -1.77607        -1.87449
LJ          -0.49719          1.2915        -2.30738
LJ          0.203911        -1.47753       -0.954569
LJ           2.29328        0.720879        -2.29733
LJ          0.989616         1.58199        -1.23628
LJ          -1.23336         2.39907        -1.46437
LJ          -2.48609         1.84232         0.11986
LJ          -2.01739        0.805071        -1.57747
LJ           1.23361        0.159261         1.97324
LJ           0.91011         2.25241         -2.4856
LJ          0.252655         2.34361       -0.182223
LJ         -0.513618        -1.34464       -0.506659
LJ              -nan            -nan            -nan
LJ          -2.15802        0.282211         1.47513
LJ           2.40143        -1.84274       -0.134822
LJ          -1.05512        0.254746         1.47058
LJ         -0.731666         2.11114       -0.372582
LJ           0.75359        -1.90174         1.88355
LJ           1.49457       0.0687305        -2.49598
LJ          -2.29835        0.600736       -0.747933
LJ          0.146221        0.866111          2.1053
LJ          0.800526       -0.610869        0.527647
LJ          -1.09259       -0.286859        0.532811
LJ          -2.41154           2.153        -1.87869
LJ           2.41671        -1.50892         1.05966
LJ         -0.194239       -0.317265        -1.53234
LJ          -2.06829        -2.07719       -0.556488
LJ         -0.883641        -2.49107       -0.467158
LJ          -2.32144        -1.44713       0.0778119
LJ              -nan            -nan            -nan
