108
#Comment!
LJ          -1.56983       -0.611803        -2.39166
LJ           1.10973         1.18365       -0.241541
LJ        -0.0268016        0.739612        -0.38004
LJ          -1.68436        -1.98713        0.114897
LJ          -1.58286       -0.408013         2.41343
LJ         -0.304119        -1.54722         1.91199
LJ         -0.970712       -0.550211        -1.85211
LJ         -0.554707         2.33826       -0.250212
LJ           1.15326         1.74583       -0.616936
LJ         -0.566076        0.871242         2.10731
LJ          -2.05908       -0.100485         1.71041
LJ            2.2056        -2.39975         1.34239
LJ          -2.02199         1.91983        -2.23851
LJ           2.11378        -1.30263        0.313069
LJ           1.92236        -1.79189         1.09077
LJ          0.311018       -0.133703         1.97791
LJ          0.286373        0.428183         -2.1147
LJ          0.124327         1.65158       -0.945083
LJ           2.55076         -2.1738        -1.77577
LJ          -1.81696        -1.97721         1.13597
LJ          0.758251        -1.99697        0.419093
LJ          -2.09572        0.766279         1.80055
LJ           1.21603      -0.0930151         1.85628
LJ           1.36605       -0.387679         2.16701
LJ           2.25976         2.02676        0.212765
LJ           1.42879       -0.344629        -1.88466
LJ          0.171048        -1.95265        -1.38182
LJ         -0.912819       -0.134426        -2.41441
LJ          0.556676        0.440572        -1.09432
LJ          -2.00359        -1.53648       -0.981897
LJ          0.640713        -1.22879        -1.88814
LJ           -1.8917          1.0147       -0.840365
LJ           1.53756       -0.874667       -0.263289
LJ           2.33034        -1.01273        -1.47691
LJ          0.976881         1.73432        -2.52632
LJ          -1.10112        -2.30663        0.578086
LJ           1.04023        0.972073        -1.08617
LJ           1.82038        0.241115        -1.15798
LJ          0.284667         1.74108        0.889824
LJ            1.5779      -0.0358886         1.37868
LJ         -0.851646         0.24827         1.59645
LJ          -2.13603        -1.46474         1.77086
LJ         -0.201763         1.60111         1.48162
LJ          0.117748         1.07772        0.678372
LJ           1.66125        -2.28885       -0.281312
LJ          0.552589       -0.638074         2.26785
LJ          -1.21556       -0.840243       -0.911417
LJ          0.287788       -0.621007        0.182469
LJ          0.511218         1.76305        0.358759
LJ               2.5         1.11455         2.00441
LJ           2.53728         2.36543        -1.31722
LJ          -1.23763         1.50462        0.245792
LJ           1.13872        0.592243        0.835471
LJ         -0.169293        -2.03645         1.93754
LJ           1.53941         -1.0464         1.14342
LJ          -1.27968         1.98406       0.0183368
LJ         -0.829173        0.678603         1.36585
LJ          -1.03537         0.62061        -1.92952
LJ          0.694826        -1.34676        -1.59737
LJ           2.48087        0.203061      -0.0127454
LJ          -2.04253         2.23317         1.21359
LJ           0.93812         2.27161         2.41296
LJ         0.0254431         1.03911         1.87416
LJ          -2.26576        -1.25129         0.33993
LJ          -1.77975          1.3348         0.98743
LJ          -2.18623         2.29616       -0.759034
LJ          -1.16177         2.32458       -0.529995
LJ         0.0697244        -0.29809        0.783079
LJ          -2.17497         1.95438        0.420657
LJ           0.81159         2.13767        0.494932
LJ           1.85118       -0.234115        -1.48904
LJ         -0.600553       -0.662702         1.90388
LJ          0.804819        -1.99563         2.33086
LJ          -1.44435         2.14545         1.91631
LJ          -2.32848        -2.27598       0.0960507
LJ         -0.405357         1.23629         -2.0176
LJ          -1.65009        0.623868         1.95707
LJ           2.37209       -0.681521         -2.2166
LJ           1.42059         2.29862        0.478924
LJ          -1.34806        -2.35304        0.765467
LJ            2.3343         1.58436        0.445894
LJ         -0.675845      -0.0177695        -1.54918
LJ         -0.775067        -1.60096        0.335479
LJ         -0.939818         1.36153        -2.10801
LJ           0.72372         2.40627       0.0409424
LJ          -1.18542           1.485      -0.0948207
LJ           2.16119        0.714914       -0.971078
LJ         -0.475584         1.03925       -0.591717
LJ          -2.49331        -1.07114         -2.3461
LJ           2.33679         2.49641        -2.12008
LJ          -1.24128        -2.48029        0.387187
LJ           1.80718         0.76293        -2.34767
LJ          0.299381       -0.324183         1.14814
LJ          0.563773       -0.296366       -0.488654
LJ           2.10194         1.04331        -1.14707
LJ           1.16197        -1.33439         -2.0194
LJ         -0.279149          2.0708      -0.0991934
LJ          -1.27389        -1.61157        -2.25562
LJ          -1.97533        -2.28562        0.788558
LJ           1.60287        -2.03303         1.41573
LJ          -1.63981       0.0729608       -0.129248
LJ          -2.56004        -1.50265       -0.248402
LJ          0.683716        -1.25713         1.18535
LJ          -1.95584       -0.413539        -1.47176
LJ          -1.64852         2.38682         2.33348
LJ           1.03564        -1.60401        0.497928
LJ          -1.08141        -2.41558        0.586664
LJ          0.560409       -0.576024         1.47289
