108
#Comment!
LJ          0.801853         0.22155         1.25566
LJ          0.159531        -2.55183        -1.64442
LJ           1.83145         2.34069           2.525
LJ         -0.113968         1.78673         1.28781
LJ          -1.79494        -1.51668         1.53923
LJ           2.38553        -2.43389        -1.87491
LJ          -1.33849         1.01337         0.60476
LJ           1.48676         0.44397        -1.59054
LJ         -0.737997         1.46824        0.357637
LJ         -0.444211        -2.37248         1.11779
LJ              -nan            -nan            -nan
LJ          -2.44958       -0.230984         -1.9434
LJ           1.10418        -1.97631       -0.636495
LJ              -nan            -nan            -nan
LJ          -2.00748        -1.27448         1.59558
LJ              -nan            -nan            -nan
LJ              -nan            -nan            -nan
LJ              -nan            -nan            -nan
LJ           2.09128        -2.12619        0.533648
LJ              -nan            -nan            -nan
LJ          -1.62362       -0.573894       -0.672461
LJ           0.30253         2.51915        -2.09018
LJ           2.22685         1.90822        0.669682
LJ              -nan            -nan            -nan
LJ           1.54338       -0.976921         2.37015
LJ         -0.399786         1.44496       -0.763514
LJ          -1.83011        -1.51656        -2.02671
LJ          -1.31988        -1.05794         1.49845
LJ          -2.18737       -0.335687         1.26922
LJ         -0.515938         1.00578       0.0943101
LJ              -nan            -nan            -nan
LJ           -2.1213        -1.57219          1.2469
LJ              -nan            -nan            -nan
LJ          -2.02587         2.10862        -1.02762
LJ              -nan            -nan            -nan
LJ         -0.629375          1.0567        -1.90781
LJ          0.799116       -0.644152       -0.667936
LJ          -0.63183         1.90456        -2.52809
LJ          0.374859        0.624258       -0.700724
LJ           1.06924        0.264997         1.69793
LJ           2.56272        -1.37289         1.68021
LJ          0.177527        -1.21603        -1.23045
LJ          -1.71547        -2.53213         2.45498
LJ          -1.70307        -1.41524         1.86948
LJ           2.07789       -0.495592        -2.23755
LJ           1.48901       -0.517253       -0.716167
LJ          0.349244         1.21232         2.09992
LJ          -2.48908         2.15522         1.66068
LJ           2.45571         0.85319        -1.70018
LJ          -2.07932        0.419512       -0.654469
LJ          0.908988         1.75144         2.24044
LJ          0.916794         1.07011       -0.829368
LJ              -nan            -nan            -nan
LJ           1.22655        -2.15318        -2.37266
LJ           1.05446       -0.743671       -0.670191
LJ           2.11242         2.27806        -1.85805
LJ          -2.39545         1.28555         0.43514
LJ          -2.03521        0.906743       -0.258222
LJ           1.64828        -1.13475         1.35892
LJ          -2.36704         -0.3721        -1.44231
LJ           2.02585        -2.52689       -0.751601
LJ         -0.238377        -1.37025        -2.28144
LJ           2.30135         1.01926        0.479294
LJ              -nan            -nan            -nan
LJ              -nan            -nan            -nan
LJ         -0.435801      -0.0105148         1.62246
LJ           1.07884        -1.08213        0.148913
LJ              -nan            -nan            -nan
LJ         -0.826969        0.172173        -1.73989
LJ          -1.70847         1.35463        -2.51034
LJ           1.37488       -0.540461          2.3389
LJ          -1.63461        -1.12428         1.75207
LJ         -0.378555       -0.353371        -2.33067
LJ          0.871301        -2.16486        -2.16785
LJ           -1.4525       0.0154349           1.758
LJ             1.653       -0.293199       -0.386382
LJ           2.54973       -0.705185        -1.79491
LJ           1.76165        -1.29378        -1.32896
LJ          -1.64238       -0.927634        -2.44788
LJ         -0.951785        0.187117         1.86275
LJ          -1.58338       -0.293411        0.725106
LJ          -1.29273         1.58033         1.13724
LJ         -0.617503       -0.860658       -0.151029
LJ           2.49905        -2.14402       -0.629263
LJ         -0.150709        -1.86032        -1.68065
LJ          -1.22925       -0.742275         1.31581
LJ         -0.713344         -1.5544         0.26217
LJ          0.152001         2.01549       -0.566365
LJ         -0.453685        0.708847        -1.15215
LJ          0.203036        -1.54361        0.878024
LJ              -nan            -nan            -nan
LJ         -0.616604        0.285303        -1.15155
LJ          -2.46206          0.9503        0.870831
LJ          -2.50786        0.415869         1.00506
LJ         -0.782834        -1.35967        -1.85356
LJ           1.75712       -0.432306       0.0436554
LJ           0.21779        0.130208        0.282002
LJ          0.249946         1.65996       -0.845462
LJ              -nan            -nan            -nan
LJ          0.349452         -1.0223        -2.13545
LJ          -1.71088        -1.80719       -0.443971
LJ          -1.63977         1.79669         1.36357
LJ          -2.16782         1.32678         2.27884
LJ         -0.633482        -1.10841        0.792908
LJ              -nan            -nan            -nan
LJ          -1.35988        -0.39522        -1.96163
LJ          -1.72295          1.0939       -0.299253
LJ              -nan            -nan            -nan
