108
#Comment!
LJ          0.708565        -1.40405         -0.9044
LJ          -1.56721        -1.25484        -1.65646
LJ        -0.0911114        -1.49382        -1.11464
LJ          -2.00231        0.552248        -1.36785
LJ          -1.57709       0.0119787          2.3956
LJ           1.15135        -1.92438        -2.37653
LJ          0.442578        -1.76512       -0.767972
LJ          0.391211       0.0771889        -1.83161
LJ           1.81274       -0.656629         1.11132
LJ         -0.383516        -1.62248         1.86421
LJ              -nan            -nan            -nan
LJ          -1.79978        0.603491        -1.98591
LJ          -2.24027         1.47292         1.28925
LJ           1.25217        -1.05019       -0.183734
LJ          0.345761       -0.280814        0.597276
LJ           1.22001          1.0211         1.65291
LJ              -nan            -nan            -nan
LJ              -nan            -nan            -nan
LJ           1.85623         2.51095       -0.986977
LJ              -nan            -nan            -nan
LJ          -1.49937          2.4365         1.50265
LJ          -1.98688       -0.427086         2.46513
LJ          0.204187        0.127036         1.93221
LJ          -1.79464        0.530207        -1.25964
LJ          0.684888        0.991538        -1.81797
LJ          0.221084        -2.48262         1.00797
LJ         -0.622998         2.19845         2.27485
LJ          -1.27691         1.88291        -2.39964
LJ           1.71549      -0.0424275        -2.22363
LJ           2.32426         1.82986       -0.665104
LJ            1.2594         1.46491         1.14357
LJ           1.54398         1.95185       -0.977022
LJ              -nan            -nan            -nan
LJ          -1.47743       -0.668863        0.269965
LJ              -nan            -nan            -nan
LJ             1.034        -2.42786         2.23579
LJ          0.629467        -2.36162        -1.56927
LJ         -0.560879        -1.98097         1.56933
LJ           2.34152       -0.702983         2.41968
LJ          -2.13871      -0.0327022        0.359218
LJ         -0.151547       -0.155082         2.35732
LJ         -0.162068       -0.706872       -0.246828
LJ           1.58104       0.0160653        -1.74876
LJ          -1.48075        -1.62039        -1.31128
LJ          0.307886        -1.00813        0.082643
LJ           0.40835        -1.18152        -2.07926
LJ          -2.18237        0.692295        -2.45263
LJ           1.42301         2.50073        -1.66552
LJ           2.05505         0.62096        -1.39738
LJ         -0.309937       -0.161382        0.855727
LJ           1.50652          2.4204       -0.650276
LJ          0.795493         -2.4259       -0.969754
LJ              -nan            -nan            -nan
LJ          0.782625         1.01815        -2.02182
LJ          0.906458        -0.32932        0.278448
LJ          0.819812       -0.444366         1.71045
LJ          -0.78739        0.562405         1.24651
LJ           1.13464        -1.60505        -2.17589
LJ          -2.38754        -0.29312        0.129796
LJ          -2.14512        0.290873          0.6054
LJ          0.171514       -0.217375       0.0118062
LJ          0.378342        -1.14764        -1.76372
LJ           2.32405        -2.02916        -1.56402
LJ          -0.76501          1.9555       -0.651522
LJ           1.82934         2.14298       -0.677207
LJ           1.31584        -2.26716         1.14478
LJ           2.22245        0.322863         1.16564
LJ              -nan            -nan            -nan
LJ        -0.0363003        -2.29141        0.170422
LJ          -1.59847         1.23971         2.49554
LJ          0.478871        -1.49615       -0.670733
LJ         -0.836355         2.15056         1.07713
LJ           1.95127         1.23606       -0.400309
LJ           2.39665         2.24576        0.938646
LJ          0.494372         1.95668         1.38753
LJ           0.61348       -0.498107       -0.150376
LJ          -1.03758        0.924606        0.567351
LJ           2.32249       -0.960802        -1.96553
LJ           2.51679        0.151734         1.47718
LJ           2.09974         2.45944         1.65253
LJ          -1.71035         2.28311       -0.891456
LJ         -0.748981         1.19128        -2.42166
LJ          -1.49977         2.50637        -1.26442
LJ           -2.3043       -0.305536        -1.31435
LJ         -0.420045        -1.32555       -0.742031
LJ          -2.12676       -0.817654        0.853262
LJ           1.55155       -0.830068        0.759498
LJ          -2.51682         0.81121        -0.24836
LJ          -1.06446     0.000118346        -1.57477
LJ           1.92863         2.25602         1.20536
LJ              -nan            -nan            -nan
LJ          -1.25009        -1.42469       -0.909123
LJ           2.47968        -1.22366        0.653066
LJ          -2.28445       -0.973733       -0.357266
LJ         -0.684285        -2.28104        0.381533
LJ           1.26902        -2.09176          1.1981
LJ         -0.283028        0.699846        -2.06135
LJ          -2.50154        0.722723        0.233108
LJ         -0.329386         2.35523        -1.57332
LJ          0.551845       -0.310705        -1.02863
LJ          0.438476        0.580111       -0.182643
LJ          -1.14123        -2.33783        -1.25288
LJ          -1.11713         1.80656         -1.6455
LJ          0.471532         1.14521       0.0354159
LJ          -2.46531         -1.3428        0.983125
LJ          0.963275        -1.50538        -0.42599
LJ           1.15507         1.54227        0.886113
LJ              -nan            -nan            -nan
