108
#Comment!
LJ         -0.249415         -2.1913         1.78075
LJ           2.36736        0.614526         -1.6468
LJ           2.23529       -0.457957        -2.33126
LJ           2.35957        -2.03687        -1.97009
LJ          0.997217       -0.924686       -0.822076
LJ         -0.369897         1.98552          -1.981
LJ          0.754343        -1.59188       -0.160877
LJ           2.27324           2.544         2.36281
LJ          -1.14674        -1.37473        -1.95201
LJ           2.00423       -0.217728        0.616897
LJ              -nan            -nan            -nan
LJ          -1.62485        -0.18212        -1.44962
LJ           1.95448        -2.02357         1.03649
LJ              -nan            -nan            -nan
LJ           2.36809       -0.628646         1.75025
LJ              -nan            -nan            -nan
LJ              -nan            -nan            -nan
LJ              -nan            -nan            -nan
LJ           2.31678        -1.29118       -0.368174
LJ              -nan            -nan            -nan
LJ         -0.228512        0.244356         2.13103
LJ          -1.72264         1.96764       0.0262281
LJ           -2.5609       -0.715935        -2.42737
LJ              -nan            -nan            -nan
LJ         -0.575252         1.75785        -2.41185
LJ          -1.01866         2.39743         2.17616
LJ          -2.10699         2.19314         1.16142
LJ           1.80113       -0.509665        -2.30604
LJ           -1.2238       -0.943965       -0.600236
LJ          -1.43776       -0.338833       -0.645312
LJ              -nan            -nan            -nan
LJ         -0.865941        -2.11848         2.38094
LJ              -nan            -nan            -nan
LJ          0.678895        0.556183        -1.54557
LJ              -nan            -nan            -nan
LJ          -1.54554        -2.12066       -0.211536
LJ          -1.15485       -0.647933         1.47069
LJ         -0.450493        -1.30472       -0.289348
LJ           2.00691       -0.348036         2.05684
LJ          -1.77547         1.21419        -1.00199
LJ           2.51849       -0.158019      -0.0261301
LJ          -1.53923          2.4802       -0.317279
LJ          -1.61474         2.07163        -2.01659
LJ          0.787548        -1.04059         -1.3003
LJ           2.47277        -1.54085       -0.898931
LJ           2.00559         2.19531       -0.408347
LJ           1.73398           2.338         2.52262
LJ         -0.783167         2.41605         2.16089
LJ           1.63018       -0.631339         1.73541
LJ          -1.08286        0.824769         0.39179
LJ           1.34371         2.29145         2.41123
LJ           2.12687      -0.0988583        -1.20528
LJ              -nan            -nan            -nan
LJ         -0.573807        -1.00309         1.28887
LJ           2.46961       -0.196965       -0.274976
LJ          0.195822        -2.46641         0.19866
LJ          -1.09852         2.04687       -0.321859
LJ           1.91001         1.88512         1.54122
LJ          -1.06067        0.830569          1.1826
LJ           2.25367        0.957293         -2.3534
LJ         -0.280876         1.17244        -1.62809
LJ           2.47664       -0.900481          1.8578
LJ         -0.635827       -0.603662         1.85475
LJ              -nan            -nan            -nan
LJ              -nan            -nan            -nan
LJ           1.57316      -0.0206673        -1.57349
LJ         -0.394459        -1.26818         2.13066
LJ              -nan            -nan            -nan
LJ          0.794424       -0.821189        -2.15614
LJ          -1.66419        -1.51352       -0.939508
LJ           2.50268       -0.137671       -0.625101
LJ           1.36412         2.21692         2.00749
LJ         -0.554922         1.52955       -0.325619
LJ         -0.320532       -0.297017        0.707303
LJ         -0.690207        0.417396         1.04469
LJ           1.90005         1.36488       -0.830353
LJ          -2.47958         2.35704        0.813297
LJ          0.680376         2.09847         2.08853
LJ          -2.44088          1.2552         1.82542
LJ          -1.47201       -0.507284         2.21273
LJ          -2.44852        -1.43205         0.82667
LJ           1.99915        -1.93803        -2.33711
LJ          -1.86016        -1.57665        -1.74062
LJ          -2.37845        -1.64892       -0.600176
LJ          -2.08118         1.13257         2.09626
LJ           1.25566         1.46337        -1.86866
LJ           1.57996        -2.11485        -2.41356
LJ         -0.482078        -1.94162         2.00157
LJ          -1.33636       -0.125219        -0.57343
LJ           1.99663         1.30655         2.05101
LJ              -nan            -nan            -nan
LJ          0.119455        0.881445        -1.43715
LJ          0.914211         2.28147        -2.48249
LJ          0.284986         1.67361         1.14476
LJ          -1.87497        0.588622        0.202765
LJ          -2.14375       -0.745036        0.935727
LJ         -0.844664         2.53158        0.887529
LJ           1.09847       -0.156101        0.516377
LJ              -nan            -nan            -nan
LJ          0.790583         -1.9455       -0.880958
LJ        -0.0629909         1.75097        -0.99065
LJ          0.761883        -1.56187        -0.95845
LJ          0.662797         1.05842       -0.132284
LJ          -1.28965       -0.994575        -1.67653
LJ              -nan            -nan            -nan
LJ           2.14981         1.50367        0.842149
LJ           1.49121         1.16922          2.1124
LJ              -nan            -nan            -nan
