108
#Comment!
LJ          -1.51289        -2.46907         1.13266
LJ           1.15298         1.99909        -1.06327
LJ           1.16886         1.85872         1.86683
LJ           1.74987        -1.87953         1.93955
LJ          -1.82382       -0.357567         -2.0658
LJ          0.583651         1.14028         2.22559
LJ         -0.740637         1.07568       -0.424876
LJ           2.16312        -2.45399         2.12316
LJ           1.34759         1.49945         1.97351
LJ          -1.46801        -1.33897      -0.0277122
LJ              -nan            -nan            -nan
LJ           1.66334        -2.48505        -2.14278
LJ          -2.12488         1.77833       -0.457448
LJ           1.75448      -0.0140729         1.49266
LJ           1.96298        -2.22314         1.97681
LJ          -2.54556         1.64396        -1.37642
LJ              -nan            -nan            -nan
LJ              -nan            -nan            -nan
LJ           1.02169         1.72373      -0.0610469
LJ              -nan            -nan            -nan
LJ           1.90422        -1.25588         1.17313
LJ          -1.31571        0.255449        -2.15577
LJ           1.12156        0.933649       0.0207483
LJ         -0.587809        0.895237       -0.973112
LJ         -0.817258        -1.30566         1.35184
LJ          -1.20219        0.972115           0.718
LJ           -1.4609         1.92399        -1.07944
LJ           1.19559         1.61999         1.91335
LJ          -1.08165        -2.08402        -2.44837
LJ          -1.48975         1.80234        -1.96629
LJ           1.01695         1.50544        -2.47994
LJ         -0.199358       -0.858517        0.838561
LJ              -nan            -nan            -nan
LJ           1.84107       -0.921959        -1.19775
LJ              -nan            -nan            -nan
LJ           1.14885        0.153577       0.0988562
LJ          -2.48446         1.99458       -0.489175
LJ         0.0629832         1.28965         1.78821
LJ             1.685        -1.33246        -1.95762
LJ           1.01274        -1.14059         1.85542
LJ          0.551564          1.0205        -2.41261
LJ          -1.48687        -2.32435         2.01616
LJ          0.669336         -1.4902       -0.450613
LJ         -0.635963         2.37617        -1.38568
LJ           1.76179        -1.58768        0.437346
LJ          0.766999       -0.986643         2.36266
LJ           1.27226       -0.315291          1.8731
LJ          0.529598        0.853566       0.0206962
LJ           1.31454       -0.805336        0.796343
LJ           2.34359          1.1948        -1.70661
LJ         -0.742634         1.70453        0.206178
LJ          0.739242        -1.74246        -1.79799
LJ              -nan            -nan            -nan
LJ        -0.0232568          1.7906        -1.80564
LJ           1.99398        -1.92675        -1.39756
LJ         -0.317123        -2.15833        -0.42026
LJ          -2.52527          2.3767         2.45331
LJ         -0.708909        0.331209     -0.00846773
LJ           2.55467        0.388354        -1.25392
LJ         -0.501566        0.314259        0.972095
LJ         -0.232119        0.378717         2.47873
LJ           2.06708        -1.31028       -0.933307
LJ          -2.24164        0.542977       -0.766943
LJ         -0.885072       -0.225956         1.27258
LJ         0.0666074         2.50669        0.586426
LJ        -0.0110683        -1.26679         1.62751
LJ           2.49362       -0.705177         1.83699
LJ              -nan            -nan            -nan
LJ           1.84008        -2.43013         2.33078
LJ           1.09154         0.10888         1.37413
LJ         -0.212539         -2.2979        -1.55383
LJ           1.28074        0.134774        0.372101
LJ         -0.240269       -0.479345        -2.23543
LJ           1.54383        0.195135         2.00754
LJ         -0.976002        0.573489        -2.54623
LJ         -0.846042        -1.33885          2.1562
LJ         -0.380523       -0.740768        -1.43027
LJ           1.50502       -0.667345         1.93998
LJ           1.16727        0.959921        0.554377
LJ          -1.90763         1.08789        0.645283
LJ          -1.07467        -1.34905         1.08392
LJ         -0.316039       -0.904066       -0.676756
LJ           1.55581         2.33726        -1.80008
LJ         -0.482552         1.69532        -1.03234
LJ          -1.61529          1.1035         2.24282
LJ           1.00994      -0.0815374         1.70812
LJ          0.889208         1.14926        0.206424
LJ           1.84285       -0.198693     -0.00813484
LJ          -1.95602        0.470361        0.133774
LJ          -2.54849        0.269133         1.42811
LJ              -nan            -nan            -nan
LJ         -0.603458        0.727881         1.27927
LJ          0.930111       -0.409592        0.780002
LJ          0.815576        -2.24494        -1.98625
LJ           1.00488        -2.53974        0.250451
LJ         -0.132743         0.86883        0.908961
LJ         -0.503244       -0.180178       -0.195797
LJ          -1.85171        0.191518        -1.02142
LJ          0.266401        -2.49298        0.297375
LJ          0.999311         1.16853        -1.76745
LJ         -0.866703        -1.65138        -1.12659
LJ          0.422613         2.01379         2.07786
LJ           2.33068         1.63648         1.27108
LJ         -0.035904         1.30458       -0.576092
LJ         -0.727603        -2.35761        0.464899
LJ           1.29521       -0.329997        0.100194
LJ          -0.65678        0.148087         1.25387
LJ              -nan            -nan            -nan
