108
#Comment!
LJ          -1.55718       -0.581001       -0.319123
LJ         -0.519201         1.15874         1.10835
LJ          0.127349       -0.524794         1.14074
LJ         -0.980257      -0.0482677        -1.13703
LJ          -1.38421        -2.03541         1.67589
LJ         -0.314168      -0.0488856        0.537709
LJ          -1.78233        0.820429        0.843837
LJ            1.0933          1.0534       -0.885761
LJ            1.8691        -2.44153       -0.836245
LJ          -1.49963        -1.78283        -1.00245
LJ              -nan            -nan            -nan
LJ         -0.117593         1.07052       -0.836077
LJ          0.391534       -0.459443         2.03542
LJ              -nan            -nan            -nan
LJ           1.83252        0.171295         1.47971
LJ              -nan            -nan            -nan
LJ              -nan            -nan            -nan
LJ              -nan            -nan            -nan
LJ          0.162031         1.91422        0.451963
LJ              -nan            -nan            -nan
LJ          0.932023         -1.1571        -1.50134
LJ          -1.78037       -0.894211          1.8161
LJ          -1.22871        -0.41621         1.71775
LJ           1.75475        0.960829        0.447031
LJ          -1.69532         2.43526        0.593997
LJ        -0.0962591          2.0241         1.35537
LJ          0.172285         2.39701        -2.03361
LJ         0.0402143        -2.16838         1.98265
LJ            2.4747         2.53094         0.72125
LJ             0.189         -1.7954        -1.74776
LJ          -2.46618       -0.945998          -0.787
LJ          0.366264       -0.794711        0.694022
LJ              -nan            -nan            -nan
LJ          -1.22968        -2.43608        -1.17273
LJ              -nan            -nan            -nan
LJ          0.730687         1.55293        -1.94746
LJ          0.052004         1.41493        -2.22365
LJ           1.72313        0.875369       -0.150411
LJ           1.37937        0.936459         -2.2159
LJ          -1.27749        0.640722        -1.16905
LJ          -2.48607         2.21557         2.26095
LJ           1.33105        -2.06586        0.426651
LJ         -0.867697         2.40913       0.0343664
LJ          0.214985        -1.74378        0.166581
LJ          -2.07128        -1.92371        -1.27484
LJ           1.64693         1.89074        0.465112
LJ           2.06871       -0.134326         1.00212
LJ            1.3361       -0.960339        -2.04811
LJ         -0.688791         2.11309         2.17251
LJ          -1.91973       -0.384582        -2.32332
LJ          -0.52806         1.93001        0.346279
LJ           1.35779        0.513866          2.3882
LJ              -nan            -nan            -nan
LJ          0.879881       -0.118671       -0.643811
LJ         -0.907186       -0.046111        -2.19128
LJ         -0.377542         1.40899       -0.513441
LJ           1.27319        -1.30282        -1.33268
LJ         -0.987365        -1.25683         1.19897
LJ         -0.943639        -1.41768         1.32926
LJ           2.47382         1.31972        0.234144
LJ           1.22864        0.108083        -1.80379
LJ          0.930637        -1.39905      -0.0528851
LJ           2.31912         1.67488        -1.91184
LJ          -1.66342        -1.62728         1.01106
LJ         -0.929642        0.902163          2.4134
LJ          -1.66327        -1.53301        -1.67685
LJ            1.7153       -0.511121         0.82864
LJ              -nan            -nan            -nan
LJ          -0.73695        -2.15935         2.24404
LJ         -0.804076       -0.850991         2.08881
LJ          0.285693         2.12094         2.25232
LJ         0.0201366        -2.21887        -1.42901
LJ           1.87675       0.0533287         2.29829
LJ         -0.364112        -1.73885        0.101683
LJ           1.30873        -1.79321        -1.55819
LJ        -0.0938885          1.3034         2.08475
LJ          -1.72532        -2.16577        -1.10977
LJ           1.62284         1.31322         1.63015
LJ          -2.21533       -0.444928       -0.390449
LJ         -0.393246         -1.3697        -1.12542
LJ           0.21211        0.215588       -0.848702
LJ          -1.77261         1.39475       -0.466605
LJ          0.356271        -2.46404        -2.03097
LJ          -2.13128        0.464067        0.228786
LJ           1.43521        -1.69193        -2.14423
LJ          -1.32599        -1.23473        0.167766
LJ          -1.74809         2.26044         1.35037
LJ            1.7836        -1.42633       -0.871598
LJ           2.20386        -2.43687        0.579209
LJ          0.567324        0.632685        -1.21856
LJ              -nan            -nan            -nan
LJ          0.837881       -0.955301        -1.06414
LJ           -2.5119        0.116444         1.55128
LJ          -1.71933        -2.37127        -2.51584
LJ         0.0549591       -0.980307       0.0455306
LJ         -0.142601         1.01679        -1.20817
LJ         -0.570767         1.39696         1.93513
LJ          -1.13841       -0.190095        -1.38166
LJ              -nan            -nan            -nan
LJ           2.40775         1.43148        -2.53858
LJ           2.16313          1.7801         2.16563
LJ         -0.424974       -0.266223         2.02773
LJ          0.973634         2.13276        -2.50067
LJ           1.89331         1.13385        -2.36847
LJ              -nan            -nan            -nan
LJ          0.878536         -2.4805         -2.0931
LJ           2.33801       -0.741406       -0.265337
LJ              -nan            -nan            -nan
