108
#Comment!
LJ         -0.266042        -0.12381        -1.81573
LJ           1.10574         1.28345         1.74944
LJ           2.54963         1.02829       0.0537206
LJ           1.32109         1.70322        0.435929
LJ          -0.42542         2.36805         1.12927
LJ          -1.52369         1.74504        -1.03538
LJ           -2.4015       -0.114047        0.183679
LJ           2.43314        -1.29497        0.337348
LJ          -1.33336       -0.987024         2.53495
LJ        -0.0988534         1.66278         -1.2179
LJ              -nan            -nan            -nan
LJ          0.591914       -0.964164        0.497589
LJ           1.65456        -2.41567      -0.0432045
LJ              -nan            -nan            -nan
LJ          0.641585       -0.694479        -2.43002
LJ              -nan            -nan            -nan
LJ              -nan            -nan            -nan
LJ              -nan            -nan            -nan
LJ         -0.376201          1.3304        -2.30873
LJ              -nan            -nan            -nan
LJ         -0.399207         1.54736        -1.21509
LJ          -2.03081        -1.04729       -0.942471
LJ          -1.01448      -0.0754225       -0.428981
LJ              -nan            -nan            -nan
LJ          -1.32291        -2.40452        -1.03956
LJ            1.0387       -0.602195       -0.233916
LJ         -0.700455        -2.49193        0.665034
LJ          -1.11196        -1.81471       0.0860387
LJ           1.45461         1.91166          1.3367
LJ          -1.62596         1.70305         1.15683
LJ              -nan            -nan            -nan
LJ           1.06986         2.40123         1.34544
LJ              -nan            -nan            -nan
LJ         0.0695416        0.627635        -2.55043
LJ              -nan            -nan            -nan
LJ          -1.85728         1.81917         1.79606
LJ            1.9726     -0.00145878        -1.61985
LJ          -2.36058         1.84242        -1.99199
LJ          -1.04387         2.39017         1.19122
LJ          -1.04453        0.328353       -0.126911
LJ         -0.214326       -0.982246         2.32546
LJ           2.24016        -1.24418       -0.448758
LJ           1.82073        -1.13656        -2.55817
LJ          0.991742        -2.17836         1.33298
LJ          0.103232        0.783876         2.32672
LJ         -0.289845         1.63762        -1.72696
LJ          -1.39935         2.54634        -2.01908
LJ          0.468153         1.84041        -2.34036
LJ          -1.23115        0.187256        -1.97359
LJ         -0.844343         2.01624         2.00718
LJ          0.818497        -1.63757        -2.40028
LJ         0.0668656          2.4337          1.7287
LJ              -nan            -nan            -nan
LJ         -0.697259         2.31981         1.24584
LJ          -2.33139        0.179798         1.64181
LJ          0.838121          1.6843       -0.820056
LJ          -2.20666         0.30687         1.01371
LJ          -1.62475         1.53369        0.493188
LJ           1.17703         2.52582         1.55982
LJ          -1.77795        -1.01475       -0.257098
LJ         -0.194367         -0.6061        -2.11768
LJ          -1.77693        -0.29295        -1.18315
LJ          -2.48861        -1.13261        0.495571
LJ              -nan            -nan            -nan
LJ              -nan            -nan            -nan
LJ          0.218269        0.564656        -1.12793
LJ          0.671435       -0.160236         1.44725
LJ              -nan            -nan            -nan
LJ           2.46248       -0.131568        0.585211
LJ         0.0579002        -1.47105         2.33254
LJ            1.3034        0.139553         1.64312
LJ           1.99174         1.39381        0.557797
LJ         -0.155537        -1.98842       -0.956413
LJ          -1.12415        0.128339         1.18795
LJ           2.49728       -0.543798        -2.07921
LJ           2.43946        -2.24801       -0.675486
LJ          -2.17922        -1.59986        -1.57571
LJ          -2.12481        -1.45619         1.26191
LJ          -2.50604        0.942913         2.33829
LJ          -1.13084        0.644454       -0.646539
LJ           1.90975         2.49621        0.170309
LJ         -0.447728         -2.5234       -0.401246
LJ          0.160649         2.51958         2.38462
LJ         -0.219539        -1.99682        -1.78512
LJ         -0.844097         1.00411        0.428137
LJ          -1.32091        -2.40003        0.885234
LJ           1.06215         1.22675         2.55421
LJ           2.25974         1.28836       -0.849615
LJ         -0.979126         1.00895       -0.906666
LJ          -2.06684       -0.915398         1.14619
LJ              -nan            -nan            -nan
LJ           1.79759         -0.1929         2.06939
LJ           1.49488       -0.403982        0.405998
LJ       -0.00482283         1.63917        -1.77215
LJ           -2.1906        0.497177        -2.48268
LJ         -0.340957         2.26374        0.462661
LJ          -2.46238       -0.394876        -2.00756
LJ         -0.647925         1.35561       -0.498576
LJ              -nan            -nan            -nan
LJ           2.31623        0.708223       -0.518395
LJ          0.652801        -1.48657        0.742678
LJ          -1.32219        0.745946         1.72301
LJ          -2.18124        0.410677        -1.63602
LJ           0.16775       -0.856824         1.04637
LJ              -nan            -nan            -nan
LJ         0.0849597        -1.72443        0.151444
LJ         -0.542246         2.14189        -0.92217
LJ              -nan            -nan            -nan
