108
#Comment!
LJ          0.685899         1.13712        0.449071
LJ           -1.6567        -2.50894        -1.10247
LJ          -2.02514         2.46658          2.3929
LJ          -1.45594         1.75836       -0.091744
LJ           1.72288        0.138621        0.459535
LJ          0.896295        0.643041         1.43335
LJ          0.461565        -1.08005       -0.736638
LJ           2.00202         1.01135         1.86353
LJ          -0.05292       -0.295463        0.460475
LJ           2.47327        0.666902         2.11349
LJ              -nan            -nan            -nan
LJ           1.73892         2.52484         1.11111
LJ           1.12096         1.51826        0.783561
LJ              -nan            -nan            -nan
LJ          -2.28093        0.643754         2.40277
LJ              -nan            -nan            -nan
LJ              -nan            -nan            -nan
LJ              -nan            -nan            -nan
LJ         -0.277011        0.486959        -1.63931
LJ              -nan            -nan            -nan
LJ          -2.23575        -1.84001         1.57439
LJ          -1.52958        -1.90534         2.38331
LJ          -2.20874        0.940677        -1.90991
LJ          -1.67798        -1.34867        -1.86593
LJ          -2.54615         2.49695       -0.186176
LJ             2.274       -0.460273       -0.605096
LJ          -2.18183       -0.909431        -1.33821
LJ           1.23341         2.12651        -2.55457
LJ          0.779587       -0.156786        0.753456
LJ         -0.109403        -1.15676         1.71262
LJ              -nan            -nan            -nan
LJ           1.98894       0.0734014        -1.79114
LJ              -nan            -nan            -nan
LJ           1.63397        -2.11091       0.0300224
LJ              -nan            -nan            -nan
LJ          -1.48565        0.807214       -0.134876
LJ           -1.9925       -0.608821         1.33223
LJ         -0.884726        0.851626         1.63689
LJ          0.832172       -0.956115      -0.0479258
LJ         -0.991343        0.292171        -2.23109
LJ          -2.01001          -2.214       -0.463277
LJ          -1.60843        -2.14772        -2.10897
LJ           1.15723     -0.00914997         -1.7544
LJ           2.53183          1.5778        -1.14779
LJ         -0.537573       -0.683458        -1.52897
LJ           2.03584        0.982756        0.795423
LJ           2.52399        -2.35249        0.542508
LJ           1.62968         1.95872        -2.35811
LJ           -1.8524        -2.49717       -0.617379
LJ          -1.88991       -0.396296        -1.44487
LJ          -1.91838       -0.366993         -1.5839
LJ          -0.35724       -0.552392          1.8014
LJ              -nan            -nan            -nan
LJ          0.523882        0.431688        -2.27185
LJ           1.78918        -2.27213        0.565692
LJ          -1.86002        0.605948         1.87333
LJ          0.101138         1.53541        -2.12517
LJ           1.71192         1.99849         2.10456
LJ          -1.56818        -1.56042         0.62335
LJ          -1.39404        -1.30999       -0.712646
LJ            2.2211       -0.889806        0.157119
LJ         -0.369416         2.06938        -1.19065
LJ           1.56677        -2.41135         2.36985
LJ           2.00035        0.662556        -2.52005
LJ              -nan            -nan            -nan
LJ           1.86556       -0.331035         1.07873
LJ           2.35377         0.84513         -1.1814
LJ              -nan            -nan            -nan
LJ           2.19378         2.23207       -0.228908
LJ          -1.69747        0.772928         -0.5729
LJ           2.53626         -0.9137         1.44857
LJ          -1.24941       -0.685113         2.46469
LJ           2.07498          1.0128         2.33509
LJ          -1.17448         2.23946        -1.82618
LJ           2.04926         1.28653         1.47979
LJ          0.137489         1.27316       -0.919763
LJ           2.43267        0.681339         1.17291
LJ           1.83701         2.31897        -1.21825
LJ          -2.41942        -1.47332        0.409662
LJ          -2.36289        -1.48712        0.716142
LJ           1.29185        0.218049        -1.27424
LJ          -2.49176         1.01249        -2.40734
LJ           1.38283         1.15549         1.17873
LJ           1.87429        -0.80884       -0.910521
LJ         -0.907198       -0.531778         1.04159
LJ          -1.38667      -0.0630977         2.34948
LJ          -1.05443        0.253133         2.01027
LJ          -1.00774          2.0319        -1.49267
LJ          0.671112        -1.49312        -1.40949
LJ         -0.726237        0.719234         2.54111
LJ              -nan            -nan            -nan
LJ          0.802258        0.618539        -2.27196
LJ           -2.4761         1.04328          1.0255
LJ          -1.43347       -0.445172        0.416808
LJ         -0.543734        -1.84239         1.86185
LJ           1.34132        -2.54752        -2.14338
LJ          -1.20837         2.06171        0.874922
LJ         -0.727927        -1.55993       -0.631648
LJ              -nan            -nan            -nan
LJ          0.517882        0.298141       -0.440006
LJ          -2.24131        -1.40573         2.06648
LJ           2.42077         1.60425        0.938758
LJ           2.36297        -1.68152        -2.44172
LJ         -0.146076         1.08678       -0.323683
LJ              -nan            -nan            -nan
LJ           1.02845        -1.94907         1.55405
LJ         -0.598788         2.12865         1.64502
LJ              -nan            -nan            -nan
