108
#Comment!
LJ         -0.889032         1.94694        -2.00565
LJ           2.39073       -0.018946        -1.32597
LJ          0.688029         2.31995         1.74961
LJ          0.760257         1.56787       -0.566365
LJ          -2.16678         -2.1743        -1.43147
LJ         0.0530775         1.48793       -0.938662
LJ          0.521062       -0.636228        -2.30098
LJ           2.03963         2.30018         1.41241
LJ          0.370475        -1.98101         1.20243
LJ          0.626745        -1.01576        -1.58797
LJ              -nan            -nan            -nan
LJ          0.677156       -0.839882        -2.51811
LJ          -1.88835         -1.6371         1.77406
LJ          -1.27691       -0.944903        0.498976
LJ          0.449885        -1.74176        -1.90142
LJ          -1.84679        0.120396         -0.4005
LJ              -nan            -nan            -nan
LJ              -nan            -nan            -nan
LJ          0.259289        -2.21689          2.0919
LJ              -nan            -nan            -nan
LJ          -1.49233        0.278372         1.53809
LJ           -1.6434        -1.25973       -0.129649
LJ          -2.41558         1.94308        0.877956
LJ          0.407723        0.352336        -2.41225
LJ           1.39149        -1.68849       -0.915632
LJ          -1.96643       0.0407265      -0.0123595
LJ          -1.80139         2.29187      -0.0863691
LJ         -0.904493         1.98976        -1.96919
LJ          -1.90712         1.47875         0.45983
LJ          -1.81393          1.5748       -0.186041
LJ           1.18639        -1.44189        -2.03496
LJ         -0.131175       0.0990199         2.22025
LJ              -nan            -nan            -nan
LJ          0.275481        0.344966         0.51904
LJ              -nan            -nan            -nan
LJ           2.23536       -0.771603       -0.446629
LJ           1.41194        -1.40637       -0.824656
LJ          -1.60523         1.05072        -1.46647
LJ           2.20026        -2.11379        0.842684
LJ           1.96799        -1.14507        0.574679
LJ           2.02827       -0.672633        0.841242
LJ          -0.28253         2.05879         2.02745
LJ          -2.42199         1.54157        0.191899
LJ          -2.38622         1.94979        -2.34911
LJ          -2.24726        -2.19699        0.668308
LJ           -1.6763        -1.50762       -0.540955
LJ          -1.96037        -1.73165        -1.85323
LJ           0.71385         2.09759        0.804973
LJ           1.48968        0.355438        -1.59544
LJ           1.77699       -0.934297         1.03077
LJ          0.242996       0.0155317       -0.927401
LJ           0.59503        0.405511         1.06498
LJ              -nan            -nan            -nan
LJ          -1.57931       -0.203638        -2.56439
LJ          0.746444       -0.307398         1.77956
LJ           -1.0685         1.46517       -0.684301
LJ           1.56567         1.45512        -1.92519
LJ         0.0837066        -1.73284       -0.995451
LJ          -1.43641       -0.880764         2.52478
LJ          -1.55104        -1.95702        -1.92881
LJ          -1.35675       -0.385939        -2.04509
LJ           1.45448        -1.10444       -0.108387
LJ          -1.68019          2.1826         1.41998
LJ          0.891821        -1.35076        0.502385
LJ         -0.540014         1.59555       -0.371982
LJ          -1.90648         1.98691         -1.9971
LJ         -0.471218        -0.51211         1.27905
LJ              -nan            -nan            -nan
LJ             0.347        0.237251         1.69219
LJ          -1.86468          1.6348       -0.593735
LJ          -1.84569         2.25367        -1.07264
LJ           2.54877        -1.09073       -0.102316
LJ           2.31776        -1.29869        -1.45909
LJ          -1.50093          1.6442        0.944979
LJ           -2.5409         1.72495         2.47888
LJ           1.39949         1.07724        -1.26238
LJ          0.171657         2.01671         1.05438
LJ           1.52084         -2.4299        0.722579
LJ           2.32215        -2.48713        0.719413
LJ          0.845182      -0.0469082         1.20924
LJ           1.80323        -2.28877         1.97274
LJ         -0.681366          2.4365          1.7496
LJ          0.371869        -0.65339       -0.249639
LJ          -1.31671        -1.65379       -0.414073
LJ          0.210973          2.4676        -2.19566
LJ           1.98237        -0.98648        -1.74412
LJ            -1.044         -2.2093        0.667371
LJ          -2.30591        -1.80071       -0.759919
LJ           1.64738          2.1442        -2.40428
LJ         -0.476994         -0.3799       -0.788794
LJ              -nan            -nan            -nan
LJ           2.37388        -1.23823         2.10575
LJ          -2.13821         2.05017        -1.43564
LJ          0.154754         2.36351         1.74579
LJ           2.53725        0.796426        0.590604
LJ          0.207347         1.03368        0.541312
LJ         -0.676751        0.326104         2.46529
LJ          0.710049        -2.47755       -0.276337
LJ           -1.9711       0.0985377        -1.78695
LJ         -0.524614        -1.61313        -1.90589
LJ           1.69546        -1.15803        0.736554
LJ          -2.24222        -1.60267        0.341413
LJ           2.09147       -0.877795       -0.605095
LJ           1.20822         2.07275         1.51936
LJ          -2.24027       -0.529477         1.62752
LJ          -2.48419          -2.217         2.05422
LJ          -1.64096       -0.316894       -0.197801
LJ              -nan            -nan            -nan
