108
#Comment!
LJ          -2.14155        -2.47485         1.78555
LJ          -2.46181        -2.50178        -1.54503
LJ         -0.247531         1.13923        0.773241
LJ          0.257902        -2.17687        0.794816
LJ        -0.0282689        -2.55112        -1.15162
LJ           1.93212       -0.431983        -1.38363
LJ         -0.636748      -0.0405983      -0.0742679
LJ           1.99507        0.245568        0.724869
LJ         -0.977299         1.51194        -2.12691
LJ            2.5224        0.921804         1.99966
LJ              -nan            -nan            -nan
LJ           -1.4461        -1.28246      -0.0628088
LJ           1.09374         -2.0033        0.709501
LJ           1.32607        0.657074       -0.828444
LJ          -1.62616        -2.45921       -0.539875
LJ         -0.726047        -2.14993          -1.566
LJ          -1.10065        -1.96464        -1.26058
LJ          0.453636        0.333128       -0.202242
LJ         -0.529082       -0.934046        -1.88827
LJ           1.44886         1.58158         2.21233
LJ          -1.00551        -0.51187        0.142488
LJ           2.20465         1.82345         -2.4289
LJ          0.923347       -0.489249        0.550001
LJ           2.46176        0.681711       -0.179007
LJ           -1.2012        -0.23841         0.86104
LJ           1.52593        -1.41118       -0.798419
LJ           1.68458        -2.40603        -1.75722
LJ            1.0717         2.24181        -1.21968
LJ           2.33481         2.51775        0.392339
LJ          -1.19565       -0.923975        0.816568
LJ         -0.855325         1.63121       -0.291421
LJ          -1.19216       -0.719882        -1.62743
LJ              -nan            -nan            -nan
LJ          -1.11784     0.000184291         0.14025
LJ         -0.635575       -0.858997        -2.42148
LJ           2.06768         -1.3257         1.66274
LJ          0.497932        -1.59114        -2.27625
LJ          0.310718      -0.0747662        -1.85101
LJ           2.12112       -0.748618        0.412267
LJ          -2.40973        -2.23411         1.93984
LJ          -1.57482         1.44235        -2.47496
LJ         0.0540212        -2.08023        -2.17325
LJ          -0.57952         1.21757         1.59126
LJ           1.83118        0.869945       -0.637364
LJ         -0.839499      -0.0595002        -0.87619
LJ          -2.50493        -2.46203         2.52779
LJ          0.453761        0.698824          1.6288
LJ           0.39993       -0.961029        0.928472
LJ          -1.00645         1.19424        -2.46036
LJ           2.08405         2.23249       0.0912643
LJ          -0.90006         -1.7345        -2.20881
LJ          0.406954         1.82822        0.511601
LJ          0.725458        0.845119       -0.022939
LJ          0.157726        -0.89581         1.90525
LJ            1.9197         1.42777        -2.31624
LJ           1.70188         -1.7537        -2.54874
LJ         -0.338417         2.04847         2.04103
LJ           1.39711          1.7192         2.35187
LJ          0.104667       -0.106441        -1.02292
LJ          -1.44529         2.21285        -1.50757
LJ          -1.65543         1.17825        0.469151
LJ          -1.66131        -2.36219         1.36622
LJ           1.78896         2.08983        -1.99423
LJ           1.11345         2.06953         2.09559
LJ          -2.14995       -0.862627         1.90753
LJ           0.73799          2.4197        0.204264
LJ           1.77543         1.11033        -2.12862
LJ           1.99881         2.26277       -0.689738
LJ         -0.798454       -0.965547        -1.99179
LJ         -0.259018       -0.287146        -2.33182
LJ         -0.232399       -0.522007       -0.761281
LJ          -1.03359         1.97319         2.15839
LJ          -0.39635          2.0346        -1.37537
LJ           1.52012         0.91026         1.78573
LJ           1.56444        -1.87113         1.18117
LJ          -2.44907        -2.45214       -0.338187
LJ        -0.0930333        -1.71972        -1.98137
LJ           1.60447        -1.55435         1.82174
LJ          -1.83992        -2.10372         1.59815
LJ          -1.81914         2.28008         1.09896
LJ            2.5627        -1.97442         1.23611
LJ          -2.49358        0.544408         2.18294
LJ          -1.18617        -0.22578        -1.97419
LJ         -0.668233       -0.853324        -2.02353
LJ          -1.33017        -1.03059        0.649088
LJ           2.23952        0.124247         1.86932
LJ          0.650278         1.80216         1.96515
LJ          -1.17571        -2.11085        -1.12735
LJ           -1.4152         2.20464        -1.26974
LJ          -1.29036       -0.135673       -0.966968
LJ          -1.32962        -1.22364        -1.44578
LJ           0.53035       0.0419676        -2.30395
LJ         -0.186724         2.15155         1.96719
LJ          0.946417       -0.695614         2.14362
LJ           1.43415         2.33265        0.559304
LJ           2.44232         1.19511        0.658048
LJ          0.494769         2.34954        -1.78117
LJ           1.66037       -0.601991        -1.03009
LJ          -1.05203        0.600051        -1.69367
LJ          -1.03739        0.882892        -0.01304
LJ          -2.24347        -2.19804        -1.05963
LJ          -2.31745         -1.5026        -2.07383
LJ          -0.50085        -1.95587         1.28186
LJ          -2.26182        -1.54569         2.38172
LJ           1.78652        -1.84718        -2.43612
LJ           0.17806         2.02986       -0.403078
LJ          -2.55926        -1.41429         1.30943
LJ          0.751853       0.0388013        0.535847
