108
#Comment!
LJ           2.23617        0.229775         1.65126
LJ          -1.10455         1.82949         -1.1698
LJ         -0.517072         1.33403         -0.1008
LJ         -0.873163       -0.115405        0.987088
LJ          -1.46445        0.465295        -1.11047
LJ          -1.02862        0.844554        0.263798
LJ         -0.533049        0.938177         1.61674
LJ          -2.02308        -2.36219        -1.37177
LJ          0.698641        0.998396         2.25568
LJ         -0.866555        0.567794         2.44129
LJ              -nan            -nan            -nan
LJ          -1.92826       -0.273234         1.59865
LJ            1.8231        0.954085       -0.374483
LJ          -2.12722        -1.36729       -0.713873
LJ          -1.36053         2.05349        0.890351
LJ         -0.873441        -1.19225       -0.622456
LJ              -nan            -nan            -nan
LJ              -nan            -nan            -nan
LJ          0.756184        -2.40013        -1.47762
LJ              -nan            -nan            -nan
LJ         -0.692309         2.17703       -0.039465
LJ           1.36516         2.00702        -1.30578
LJ          -1.67096         1.41056         1.14085
LJ        -0.0842781        -1.07978         -1.6193
LJ         -0.631007        -1.67658        -2.08162
LJ           1.01919        -2.22201          -1.473
LJ         -0.908054        -2.01166        -1.88337
LJ          0.183524       -0.881736         1.10374
LJ         -0.483656       -0.314991        -1.42733
LJ         -0.333864        -1.42075        -1.43837
LJ         -0.954065        0.814465        -1.93177
LJ          -1.10164        0.869584       0.0992883
LJ              -nan            -nan            -nan
LJ          -0.18361        0.262347         -1.3151
LJ              -nan            -nan            -nan
LJ         -0.347776         1.98966        0.420129
LJ           1.97422        0.816571       0.0523607
LJ         -0.344395       -0.315742       -0.708312
LJ           1.37616       -0.029254       -0.262139
LJ           1.99715       -0.799316         2.36794
LJ           1.25204       -0.928994       -0.992738
LJ          -1.71929       -0.652424         2.27135
LJ         -0.152278        0.260884        -2.14909
LJ          0.297556       -0.579185        0.490831
LJ          -1.51391        0.669725         1.36988
LJ          0.442115         2.50463        0.558677
LJ          0.701457         2.46822         2.30147
LJ         -0.989722        0.533697        -2.34569
LJ          -1.31885        -1.75497         2.41458
LJ         -0.274194        0.597967         1.79185
LJ         -0.161878        -0.87227        0.873336
LJ         -0.985434         2.10834         2.20784
LJ              -nan            -nan            -nan
LJ            1.4132         1.60983        -2.25899
LJ          -1.72818         1.93218       -0.446376
LJ          -1.31887          1.2385         -0.4998
LJ          -1.10032        -1.31215       -0.352733
LJ           1.74763         2.25567        0.251217
LJ           1.48679        -1.00817        -1.14087
LJ        -0.0231278         1.19041        -2.51794
LJ          -1.93783         1.20124        -1.60402
LJ        -0.0027118        -1.78333        -2.21115
LJ          0.235464        -1.70858        0.371852
LJ          -2.01498         0.97481         -1.8461
LJ         -0.841307       -0.254884        0.966506
LJ           2.04902          1.9402       -0.264317
LJ          0.429672        -1.02726         2.19148
LJ              -nan            -nan            -nan
LJ          -1.34664         1.38163       -0.701532
LJ         -0.431903         1.57964         1.10664
LJ          -1.61826         1.31934        0.965265
LJ          -2.45549         1.13252         1.51319
LJ          -2.43665        -1.53431        0.165686
LJ           2.07479        0.280004        -0.67629
LJ         -0.969228         1.59906        0.895318
LJ           2.55631        0.122199         1.28957
LJ           1.03198        -2.16493     -0.00545703
LJ          -2.51545        -1.54716       -0.154954
LJ           1.93276         1.50974       -0.631949
LJ          0.568416        -0.79621       -0.914156
LJ          -1.78571       0.0147715         1.52949
LJ          -2.13903        -1.63163        0.770522
LJ         -0.346668       0.0332779        -1.81803
LJ           -2.3543        -2.16061         1.42563
LJ         -0.905519          1.8072        0.095834
LJ          0.330741           -1.19          1.0265
LJ          -1.06781         1.24424        0.522591
LJ            1.6645       -0.390519       -0.192631
LJ           1.96275         1.84608       -0.670212
LJ           2.31001        0.125122        0.684141
LJ              -nan            -nan            -nan
LJ          -1.74118        -2.14929         2.23134
LJ          0.538822       -0.453842         1.87155
LJ          -2.38142        0.970587       0.0550382
LJ         -0.172963        -1.36596        0.659909
LJ          -2.20459         2.28186       -0.581188
LJ          0.274976         1.16285         1.80938
LJ           0.95049         -2.1391        -1.54746
LJ           1.95813        -2.37538       -0.965402
LJ         -0.793678       -0.115839         1.03072
LJ           2.34291        0.223323        0.345582
LJ           1.12969        -2.15456         2.22811
LJ          0.945238       -0.252655        0.770831
LJ          -1.42044        -1.57061        0.623903
LJ          -1.62642        0.351356        -1.78435
LJ           2.29507          2.1504       -0.589376
LJ           2.00591        0.589523       -0.942309
LJ              -nan            -nan            -nan
