108
#Comment!
LJ          0.374622         1.28119         -2.1468
LJ           2.33941         2.41864       -0.566352
LJ           1.15023         2.29849         2.28809
LJ         -0.601418        0.869773         1.85299
LJ          0.446446       -0.503011        -0.91411
LJ           1.21476        0.786886        0.721392
LJ           1.84563         1.96851        -1.00412
LJ         0.0319968       -0.272231        0.573535
LJ           2.09379        -1.59914         1.71707
LJ          0.316359        -1.30354         1.06622
LJ              -nan            -nan            -nan
LJ          -1.53857         1.59285        0.206171
LJ           2.09689        0.251691        -1.91644
LJ           1.33369         1.68398         2.20606
LJ          0.209706        0.741285        0.541728
LJ          -1.93737       -0.292093         1.44635
LJ              -nan            -nan            -nan
LJ              -nan            -nan            -nan
LJ          -1.35833       -0.110203        -1.85815
LJ              -nan            -nan            -nan
LJ         -0.274938         2.56424         1.03207
LJ           1.37618        0.296036        -1.37126
LJ           2.25506         1.15603        -2.12303
LJ          0.620052         1.13531        -1.34144
LJ           1.79503         1.62243         1.53315
LJ         -0.475661        0.577105       -0.906859
LJ          0.569766          2.3553         0.62774
LJ           0.49923       -0.237321         -2.3176
LJ          0.730902        -1.13896        0.635832
LJ         -0.617376       -0.891044       -0.848261
LJ           2.23491       -0.872453        -0.24771
LJ           1.47921        -1.15703        0.736964
LJ              -nan            -nan            -nan
LJ           1.85936       -0.260299         1.22916
LJ              -nan            -nan            -nan
LJ         -0.256226        0.485918         1.21695
LJ           1.43383         1.15926         1.09666
LJ           1.04734        -2.07102        0.706294
LJ           1.44015       -0.942217        0.655204
LJ         -0.542403        -1.52733         1.30807
LJ         -0.345079         2.40533        -1.96827
LJ          -1.29946        -1.10342         -2.2228
LJ          -1.15466         -2.3759         -1.3649
LJ          -1.37646        -1.36139        -1.17015
LJ            -1.093        0.802911       -0.133748
LJ          -1.43661        0.385972        0.357961
LJ          -1.55286       -0.270173         1.02862
LJ          -1.50314         2.54472        -2.40265
LJ         -0.026991       -0.600122         2.11835
LJ          0.860287        -1.76507         -2.1828
LJ           2.04157         1.15927       -0.519683
LJ           1.00195         1.58194        0.941403
LJ              -nan            -nan            -nan
LJ          0.277148         2.47044         -2.2929
LJ           2.21046         2.09247         1.81663
LJ           1.79255          2.2724         1.25061
LJ           1.26722        -2.52247        -1.96991
LJ           1.61159        0.617019        -1.59694
LJ          -1.35235        -1.36729        0.822268
LJ          0.957099        -1.30456        -1.97929
LJ        0.00912301       -0.603082         2.39532
LJ          -2.13148       -0.947763         0.33816
LJ          0.740603        0.256855          2.1429
LJ          -1.04542         2.36486        -1.91728
LJ           1.13494        -1.27794       -0.740395
LJ          -0.76861        0.344003       -0.291479
LJ          -2.11539       -0.839921         2.51953
LJ              -nan            -nan            -nan
LJ         -0.675626        -0.37197         1.46055
LJ          0.186557      -0.0982536         2.07404
LJ           -2.2436         2.43992         1.06977
LJ           2.28659         2.42696       -0.232693
LJ          0.368941         1.55304         0.68128
LJ           -2.3055        0.551616        -2.04459
LJ          -1.78726       -0.820438        -1.31021
LJ           1.96875        -1.62338         1.05208
LJ         -0.997948        -2.43947       -0.804331
LJ          -2.28953        0.491825        0.254553
LJ            2.1555         1.69301         1.41928
LJ          -2.29859        0.681242         1.89315
LJ           1.48664         2.20034       -0.468843
LJ          0.161408        -2.05206        -2.41591
LJ           1.28404       0.0392338        0.993984
LJ          -0.71952       -0.130649        0.607461
LJ          -1.58916        -1.09267       0.0103381
LJ         -0.034388        -1.76382         1.46685
LJ          -2.18518        -1.98762        -1.59804
LJ          -1.86465        0.909347       -0.208451
LJ          0.685748       -0.276589        -1.39146
LJ           1.60882         1.42337         2.14701
LJ              -nan            -nan            -nan
LJ         -0.208767         1.35809         2.50289
LJ           1.45026       -0.521869         1.24609
LJ          -1.00453         2.28069        -1.47781
LJ          0.515539         -1.4615         2.06419
LJ          0.200939       -0.263425        -1.76745
LJ           -1.9994         1.34606          1.3048
LJ          0.178699         2.36939        -0.12912
LJ          -1.99555        -0.12763        -1.61834
LJ             1.089        0.262501          1.8123
LJ          0.574235         1.78631        0.863146
LJ            1.4592        -2.30526        -2.20005
LJ           0.16303        0.739081        -2.07526
LJ           2.33108       -0.475083         1.63625
LJ        -0.0560758         1.52213        0.348563
LJ         -0.294909         1.57047        -1.23799
LJ         0.0377268         1.31969        -1.87429
LJ              -nan            -nan            -nan
