108
#Comment!
LJ          0.618024         2.50541        -1.28132
LJ         -0.896167         2.23386         2.09684
LJ           2.28344        0.728904       -0.222723
LJ          -2.29415        0.594892        -1.41628
LJ          0.322979       -0.909895        -1.51004
LJ           -2.4964        0.318899        0.287709
LJ         -0.214629         1.16677        -1.49779
LJ          0.158073        0.317297        0.542823
LJ           -2.1501        -1.89272        -1.70803
LJ           2.27899         2.02523        0.944558
LJ              -nan            -nan            -nan
LJ          -2.53389         1.91385        -2.18417
LJ           1.20237       -0.394818       -0.281685
LJ              -nan            -nan            -nan
LJ          -1.43982        0.186528        -1.04419
LJ              -nan            -nan            -nan
LJ              -nan            -nan            -nan
LJ              -nan            -nan            -nan
LJ          -1.72042        -2.46315         1.95241
LJ              -nan            -nan            -nan
LJ         -0.680153        -1.94369         1.80493
LJ           1.46274       -0.531657        -1.14549
LJ           1.03205       -0.770997         1.46682
LJ              -nan            -nan            -nan
LJ         -0.308431          1.3817       -0.335467
LJ           2.13299         2.12147        0.656205
LJ           1.26274        -1.22503       0.0957509
LJ         -0.442889       -0.740731        -1.99698
LJ          -1.76142        -1.73727       -0.854971
LJ          -2.50422        -1.66393         1.76781
LJ              -nan            -nan            -nan
LJ         -0.524269        -1.60283        -2.00765
LJ              -nan            -nan            -nan
LJ           2.33172        -2.02264         1.49624
LJ              -nan            -nan            -nan
LJ           2.17067        -1.24063         1.02324
LJ         -0.896333         1.24154        0.724915
LJ         -0.358835         1.84265          0.9246
LJ          -2.27181        -2.49006         2.15615
LJ         -0.202802       -0.107186         1.43895
LJ          -2.06136          1.2097        0.450409
LJ           -2.4554         1.13251         1.17519
LJ           -1.2727        -1.72424          1.0249
LJ          0.110472          -2.095        0.276037
LJ          -2.49605         1.27261       -0.854701
LJ          0.375404         1.83218        -1.49897
LJ          -2.28279         2.28701       -0.452314
LJ         -0.645328          1.4073         1.90826
LJ          -2.01229         -1.2367        0.625101
LJ          -1.38636        -1.41593         1.47468
LJ          0.313013        -1.00522        -0.17004
LJ          -2.08661      -0.0171031        -1.55405
LJ              -nan            -nan            -nan
LJ           -0.5939        0.804741         1.07173
LJ           2.41998        -1.42977         1.09646
LJ           2.06612         2.46804        0.168032
LJ          0.881223         2.41995        -2.03897
LJ          -0.88561         1.16635         2.06158
LJ         -0.138111         1.17849       -0.230982
LJ           2.11475        0.515845       0.0764647
LJ          -1.52535       -0.863982         -1.3175
LJ          -2.38382         0.53934       -0.846592
LJ          -1.85169          1.2199       0.0802496
LJ              -nan            -nan            -nan
LJ              -nan            -nan            -nan
LJ           1.93751        -1.42908       0.0903813
LJ           1.50144        -0.15435         0.44975
LJ              -nan            -nan            -nan
LJ          -2.02156        0.250138        -1.26987
LJ          -1.65843         1.72061        -2.03571
LJ           1.17442         1.61161        -1.66351
LJ          -1.34801        -2.23661        -1.48317
LJ          0.958372        -2.29579         0.49046
LJ           2.00123         2.23157        -2.08231
LJ           1.46565       -0.673381         1.73667
LJ         -0.449484        -1.51332         1.52308
LJ           1.37244         -1.9422        0.554334
LJ          -1.42376         -1.3207          1.8057
LJ          -2.28659         -0.1815        -1.69715
LJ          -0.39777        -1.22399        -1.37806
LJ           1.84608        -1.12657         0.27507
LJ         0.0883572         1.99471       -0.842064
LJ         -0.842412         0.43287        -1.56711
LJ          0.207782         -2.1648       -0.462332
LJ           2.14164       -0.832223       -0.401898
LJ          -1.03351         1.47382         1.41223
LJ         -0.269818        -2.26164         2.52966
LJ          -1.85724        -1.03145       0.0405362
LJ          0.657658         2.00196        0.908675
LJ          -2.43122         0.27073        -1.92323
LJ              -nan            -nan            -nan
LJ          0.921182       -0.409307        -0.41487
LJ           1.81695        -2.46911       -0.623217
LJ           1.46875        0.557218       -0.901288
LJ         -0.840514        -2.09073        -2.28845
LJ          0.864524        -2.09236         2.14018
LJ          0.178272         2.24653      -0.0255469
LJ          0.640865        -1.93138       -0.789721
LJ              -nan            -nan            -nan
LJ           1.97757        -2.50647        0.744527
LJ           1.56407       -0.337583         1.20359
LJ         -0.724727       -0.705347           2.491
LJ         -0.524831        -1.12909        -2.29601
LJ          -1.20594       -0.855209        -1.45838
LJ              -nan            -nan            -nan
LJ          0.634042         1.65396        0.033673
LJ          -2.37539       -0.364021         2.31069
LJ              -nan            -nan            -nan
