108
#Comment!
LJ           1.17782        0.586066        0.773227
LJ         -0.681698        -2.39592         1.24616
LJ          -2.04248         2.13261         1.52907
LJ          -1.63303        0.387672         2.05457
LJ          -2.28628        -2.03675        0.408316
LJ           0.90113         1.56148        -2.32133
LJ          0.861442        0.760999          0.6273
LJ           1.34671       -0.433991         1.72782
LJ           -1.4222       -0.503019         2.20186
LJ          -1.92309        -2.55979         2.32642
LJ              -nan            -nan            -nan
LJ        -0.0258403        -2.24441      -0.0683928
LJ         -0.379638        0.643306        -2.15512
LJ              -nan            -nan            -nan
LJ          0.321754       -0.174392         2.31846
LJ              -nan            -nan            -nan
LJ              -nan            -nan            -nan
LJ              -nan            -nan            -nan
LJ           2.47501         2.43544       0.0548419
LJ              -nan            -nan            -nan
LJ           1.78325        -1.33179       -0.857648
LJ          -2.45263        0.928774        -2.38591
LJ        -0.0463904        -1.77072       -0.863543
LJ              -nan            -nan            -nan
LJ           -0.8501         2.06031        -1.04429
LJ         -0.607446         1.79734         1.28898
LJ          -2.09107        -1.51364        -1.57427
LJ           1.00785        0.349618        -1.27439
LJ          -2.44366        0.530315         2.23673
LJ           1.23277         2.31861        -2.45436
LJ              -nan            -nan            -nan
LJ           2.18011         1.08688        -1.97648
LJ              -nan            -nan            -nan
LJ          0.487704         1.04098        0.108453
LJ              -nan            -nan            -nan
LJ          -1.58596        0.791848        -1.59478
LJ          -1.58143         2.43248        -2.17568
LJ           1.18637        -0.71223         1.18432
LJ          -1.05805        -2.03378         1.80512
LJ         -0.226909         1.31738         1.70515
LJ          0.872127         2.26609        -1.38358
LJ          -2.08043       -0.380864         0.24612
LJ          -1.02864        -1.08446         0.83351
LJ         -0.922241         1.81567       -0.762257
LJ           1.98875        -2.31522        -2.12046
LJ           2.20638       -0.497405        -1.10771
LJ           1.07371         2.49761        -1.76412
LJ          0.534562         2.36705       -0.448708
LJ           1.18482       -0.267166         2.35863
LJ         -0.537896       0.0478421       -0.847405
LJ           2.03965         1.70249        -1.57097
LJ          0.222984          1.6696        -2.55317
LJ              -nan            -nan            -nan
LJ          -2.45991         1.46162         -1.4743
LJ            1.7957         1.14432        0.959649
LJ           1.69762       -0.506089       0.0872083
LJ          -2.26338         -1.3315       0.0321045
LJ         -0.464023        -1.32781       -0.920136
LJ         -0.312489        0.612954         1.55883
LJ          -2.27058        0.579991        -1.96181
LJ          0.629582         2.52179        -1.82133
LJ         -0.783223       0.0449164       -0.228968
LJ          -2.39746        -2.51972       -0.156971
LJ              -nan            -nan            -nan
LJ              -nan            -nan            -nan
LJ          0.111111        -2.44469         1.51739
LJ         -0.976886         1.47785        -1.69014
LJ              -nan            -nan            -nan
LJ           1.96596        0.822376         1.62169
LJ         -0.427626           2.526        -1.72253
LJ          0.523664       -0.378544        -1.36583
LJ            1.2618         1.44791       -0.797274
LJ           2.52925        -1.75748        -1.39198
LJ           2.45694       -0.109552        -2.09706
LJ          -1.29195         2.23613        -2.30238
LJ         -0.485127         1.93961         1.65866
LJ          -1.81008         1.02726         2.36331
LJ          -2.12464         2.24449         -2.4262
LJ          -2.10567         2.20859        -1.19235
LJ         -0.498141         1.76579        0.242582
LJ           1.65833         0.44432       -0.346194
LJ           1.85586       -0.159567       -0.948779
LJ           2.41726         1.35976       -0.498986
LJ          -1.14362        0.816639       -0.574068
LJ           1.60123         2.23061         1.04104
LJ           2.16666          1.6934         1.03843
LJ           1.51331        0.898689       -0.544526
LJ           1.80389         1.44425         1.24338
LJ           1.63282       -0.263708         1.13869
LJ           1.46099        0.117716        0.663326
LJ              -nan            -nan            -nan
LJ         -0.626969        -1.20756       -0.526668
LJ          -1.06382        0.903816        0.315993
LJ          -1.08752        -1.66568         2.05556
LJ          -1.99126        0.820569         2.10136
LJ           1.42386         1.04033         -2.2346
LJ         -0.363572         1.21566       -0.985528
LJ         -0.271008         2.14311       -0.361849
LJ              -nan            -nan            -nan
LJ         -0.858818         1.24311       -0.604223
LJ           1.37206         1.84403         1.26089
LJ         -0.649286        -2.14682       0.0655837
LJ          -1.40793        0.873345         1.69307
LJ          0.963739        0.662821         1.56733
LJ              -nan            -nan            -nan
LJ           2.45714        0.543728         2.52879
LJ          0.295174         1.50605        0.316703
LJ              -nan            -nan            -nan
