108
#Comment!
LJ           1.43912        -1.12554       -0.820395
LJ         -0.182715         1.51353         1.01417
LJ           1.37806         1.74509        -2.31501
LJ           1.87017      -0.0890301        -1.99662
LJ           1.42333        0.906509         1.16634
LJ           -2.0399        -1.53128        -1.94023
LJ         -0.917591       -0.833842        0.866593
LJ           -0.1299           1.373          2.2398
LJ         -0.298432      -0.0696204         2.19562
LJ           2.32661       -0.409499        -1.07868
LJ              -nan            -nan            -nan
LJ         -0.893667         1.54286         2.00454
LJ         -0.352565         1.09035         1.71621
LJ              -nan            -nan            -nan
LJ          -0.56912        -1.23068       -0.224812
LJ              -nan            -nan            -nan
LJ              -nan            -nan            -nan
LJ              -nan            -nan            -nan
LJ           1.07174         1.20932         1.57988
LJ              -nan            -nan            -nan
LJ         -0.881042          1.8101        -1.40807
LJ          -1.92438       -0.403219         0.11134
LJ         -0.707607         1.89303         -1.5947
LJ              -nan            -nan            -nan
LJ         -0.257159       -0.575786        -2.22372
LJ          0.714353        0.709191         1.50313
LJ         -0.696761       -0.528403       0.0360541
LJ         -0.224216        -1.88386        -1.00804
LJ         -0.463111       -0.172502        -2.08583
LJ         -0.333354         -2.2114         1.33699
LJ              -nan            -nan            -nan
LJ          0.186722         -2.1662        0.525752
LJ              -nan            -nan            -nan
LJ         -0.122462         1.85457        -2.13575
LJ              -nan            -nan            -nan
LJ           1.11697         1.64192        -0.89965
LJ          -1.74237        -0.26178         2.36439
LJ           1.36937       -0.367379         1.37961
LJ           1.32207        0.718204      -0.0517156
LJ          -2.21518        0.892894         2.38492
LJ          -1.80334         -2.1126          1.2294
LJ           -1.6469        0.124214       -0.658005
LJ          0.546849         1.77351        -1.86656
LJ        -0.0568953         1.71401         2.30781
LJ          -1.61393         2.30692         1.62194
LJ           1.20171       0.0355298       -0.707536
LJ         -0.343357         0.66111       -0.560901
LJ          -1.19578        -1.87798        -1.65095
LJ         -0.103839        -1.11797        -1.95505
LJ         -0.796291       0.0705748         2.37588
LJ          0.608994         1.78621        -1.57716
LJ           2.20855        -0.32732         1.11523
LJ              -nan            -nan            -nan
LJ          0.712675         -1.4288        -2.49852
LJ           1.27713        -2.03317        0.700236
LJ          -1.26063       -0.620644       -0.890424
LJ           1.46158           1.378        -1.26986
LJ          0.797643        -1.94533        -0.93544
LJ           2.55722        0.236577        -1.76996
LJ         -0.636812        0.282177         2.36499
LJ           0.86826        -2.25323       -0.750593
LJ         -0.365939         1.59514         2.13906
LJ          -2.00379         2.15935         1.80385
LJ              -nan            -nan            -nan
LJ              -nan            -nan            -nan
LJ           1.70747        0.547782         2.10315
LJ           -2.4782        -2.28959        0.167787
LJ              -nan            -nan            -nan
LJ          -1.43962        -1.75106         1.51121
LJ           2.13191        -1.14581         1.42321
LJ           1.31331        -2.10543          2.2215
LJ         -0.642901         0.48475        -0.70385
LJ         -0.564966        -1.31357         1.67265
LJ           1.99073        -2.05078        -1.81157
LJ           2.51004        -2.39472        -1.40276
LJ          -0.11299        0.904954       -0.161229
LJ          -1.32735       -0.206252       -0.605439
LJ          -2.09033       -0.952183         1.90892
LJ         -0.556443        -2.30545       -0.567023
LJ           0.48994        0.681215        0.808635
LJ          -2.27322        -2.32596        0.283875
LJ           2.40152        0.199163       -0.450699
LJ         -0.724393        0.035236       -0.190387
LJ         -0.404531       -0.824999         1.02583
LJ          -1.05509        -1.31707        -2.02258
LJ          -2.30975        -2.15104        0.896896
LJ         -0.785936       -0.361109        -2.25658
LJ          -2.24836          2.2487       -0.119974
LJ          -1.59732        -1.84941        -2.43359
LJ             2.433        0.789601        -1.92247
LJ              -nan            -nan            -nan
LJ          -2.55984        0.510441        -1.34643
LJ           0.49387         2.19537        -2.39769
LJ           -2.1906         1.65422         2.32913
LJ          0.251272           1.433       -0.676745
LJ        -0.0552515       -0.930133         1.99761
LJ           2.02867        -1.17029        -2.34965
LJ         0.0324255       -0.299194         1.33946
LJ              -nan            -nan            -nan
LJ          -1.48089        0.716839         1.22995
LJ            1.8424       -0.455069        -1.32687
LJ          0.532055         1.32271         2.29777
LJ          -2.22061      -0.0261921        0.345494
LJ         -0.819588       -0.244996         2.26988
LJ              -nan            -nan            -nan
LJ          -1.13057        0.321638        -2.06939
LJ          -1.25897        0.312401        -1.79043
LJ              -nan            -nan            -nan
