108
#Comment!
LJ          -1.26964        -1.40591        -2.11169
LJ          -1.36851        -2.21656         1.28609
LJ            1.1925         1.50528        -1.26727
LJ         -0.873377         2.37447         -1.2463
LJ           1.50179       -0.639988         2.09429
LJ          0.230349         2.15391        -1.19637
LJ          -2.04146      -0.0394951         2.26735
LJ           1.35412       0.0787377        -1.90675
LJ          -1.35711          2.2442       -0.170203
LJ           1.57019        -1.52339         2.12387
LJ              -nan            -nan            -nan
LJ          0.617109         1.28246        0.542006
LJ           1.01775        -1.37824         1.06524
LJ          -1.42033         1.57003        -1.72682
LJ         -0.937812        -2.41745        -1.18173
LJ           1.32096        -2.33285          2.0713
LJ              -nan            -nan            -nan
LJ              -nan            -nan            -nan
LJ          -1.08917        -1.37194         2.29528
LJ              -nan            -nan            -nan
LJ           2.13901         1.57687        -2.10745
LJ          -2.36689      -0.0951636        0.317602
LJ           2.10187        -1.49494         1.88886
LJ           2.11992         1.28076       -0.857216
LJ           1.59276         2.54007         2.52633
LJ          0.623171         0.24538       -0.700372
LJ           1.57506        -1.62872        -2.11107
LJ           1.44187        0.208048       -0.429096
LJ           2.43001        0.765767        -1.55948
LJ         -0.641051        -1.00077          1.7963
LJ         -0.276045         2.11293         -1.8769
LJ           2.52872         1.31848         1.92209
LJ              -nan            -nan            -nan
LJ           1.20651        -1.04886         1.29065
LJ              -nan            -nan            -nan
LJ          -1.08053         1.56684         1.74936
LJ          -2.32257        -1.50452         1.48729
LJ          -1.38702        -1.12793        -1.23607
LJ         -0.598667        0.457561         1.24124
LJ         -0.563268        0.614241       -0.286859
LJ         -0.881597          2.1016        0.485764
LJ          0.916306        -1.80101         1.71791
LJ           1.44211        -2.03304        -2.14451
LJ          0.803072         1.63691        -1.08238
LJ          0.290098         1.86532        0.166581
LJ          -1.58218         2.11388       0.0301147
LJ         0.0655111        -2.15042         2.20252
LJ          0.649494       -0.619988        0.891115
LJ          -1.17178         2.34598       -0.411438
LJ            1.8279         1.65722        -1.80781
LJ           1.10056        -1.37821         1.64945
LJ          0.225279         -2.4889         1.02558
LJ              -nan            -nan            -nan
LJ        -0.0937192         0.91257         2.37648
LJ          -1.04982          -1.736         2.00126
LJ           2.20726       -0.155977        0.462724
LJ          0.163722         0.43745         2.46705
LJ           1.27526         2.13975         1.30537
LJ           0.48253        -1.88143       -0.274661
LJ            1.5351       0.0574926       -0.107758
LJ           2.55868       -0.368867        0.523454
LJ           1.51182        -1.11421        -1.78831
LJ           1.46277         -2.0685       -0.556458
LJ           2.23715    -0.000475941        -1.40443
LJ         -0.729894         1.71961        -2.19809
LJ           2.08599        -0.92644         1.32003
LJ          -1.89457      -0.0514252        -1.58196
LJ              -nan            -nan            -nan
LJ           2.48053       -0.970003         1.89788
LJ          -1.96906        0.970715      -0.0662949
LJ         -0.648532        0.643533        0.151457
LJ           2.30419      -0.0771949         1.79675
LJ          0.256755        0.633449        -1.52972
LJ          0.344723        -2.23796       -0.764289
LJ           2.03093        -1.35689       -0.159319
LJ           2.30933         1.34326        -2.06058
LJ           1.48579       -0.167731         1.12514
LJ           2.18035         1.02261        -1.53706
LJ           1.86517        0.197164         2.30152
LJ          -2.46544         1.76386         1.08704
LJ           1.97065       -0.626506        -2.48224
LJ           1.06087        0.459888         -1.1252
LJ          -1.60031       -0.845229         1.78398
LJ          -1.39002        0.176812        0.499683
LJ         -0.292065        -2.32999        0.372207
LJ           2.49337        0.292451       -0.272632
LJ           1.54542         1.71961         1.07385
LJ          -0.98622       -0.140506         1.27821
LJ         -0.652928          0.4141       -0.822351
LJ          -2.45241       -0.683581        0.236156
LJ              -nan            -nan            -nan
LJ          0.777804       0.0917075        -2.36303
LJ          0.771768         1.44449      -0.0423505
LJ           1.86396       -0.369877      -0.0662136
LJ           -1.0586       -0.666351       -0.753406
LJ          -2.03378         1.92989         1.45646
LJ           1.16725       0.0335918         1.06036
LJ         0.0571835         1.42481         1.73596
LJ           1.53082         -1.3906        -1.35487
LJ         -0.549024        -0.52935        0.144272
LJ         -0.752763         1.01865         2.23294
LJ         -0.470142         2.50707        0.565998
LJ           1.93411         1.35009         1.55131
LJ          0.222145        0.938541       -0.752534
LJ          -1.44462         1.90362      -0.0701955
LJ           1.11667        -2.40099        -1.38265
LJ          0.478295         1.71468       -0.796337
LJ              -nan            -nan            -nan
