108
#Comment!
LJ          0.562213         1.99198        -1.20118
LJ          0.911096        -2.23062         2.14212
LJ          -1.10504         1.76761        -2.34109
LJ          -2.45639        0.110292        -1.66353
LJ           1.47612         1.43247       -0.964561
LJ           1.38763         -1.2064       0.0772905
LJ          -1.60201        0.969134       -0.113356
LJ          0.940069          1.6669        -0.63794
LJ         -0.372551         1.65612        -1.62361
LJ           2.00839         1.14214         1.15246
LJ              -nan            -nan            -nan
LJ           2.25393        -1.03829        -1.56628
LJ           1.89398          2.3431        -2.38178
LJ           1.75011        -0.89435        -0.79424
LJ          -2.00803       0.0187023       -0.462066
LJ          -2.14552        -1.97713        0.587273
LJ           0.46219       -0.885551       -0.913758
LJ           1.10798       -0.621675      -0.0885108
LJ          -1.84277         1.91807       -0.274707
LJ           1.95879        0.263421         1.67008
LJ          -1.99038         1.58849         1.69849
LJ           -1.2551        -1.55602        -1.23487
LJ           2.18756        -2.27534          1.2873
LJ        -0.0533731       -0.261701        0.221973
LJ          0.434964         1.17412       -0.365045
LJ           1.17554        0.872063        0.739178
LJ           1.96334       -0.345095        -1.01781
LJ         -0.396603         2.08577        -1.88345
LJ         -0.385459       0.0389384         2.47979
LJ          -1.04607        0.732306         2.48016
LJ           1.10342        -0.43767         1.93793
LJ          -1.42093       0.0212571        0.238535
LJ              -nan            -nan            -nan
LJ          -1.67032         1.31879        -1.65285
LJ              -nan            -nan            -nan
LJ          0.252815        -1.26674        -1.95079
LJ         -0.880332         1.03466         2.11869
LJ          -1.49927       -0.986102       -0.563579
LJ          0.268909       -0.419439        -2.03729
LJ          -1.24117        0.246735        0.366911
LJ          -1.60958        0.572667        -1.91125
LJ           1.53736         2.39622        0.797155
LJ         -0.129804         2.27134        0.509053
LJ           2.56242        0.507025         1.47016
LJ           1.74465        -1.86424       -0.810113
LJ           1.68903        -1.55656       0.0998062
LJ          0.865489          1.3944         1.18623
LJ          -1.31268       -0.263116         -1.8844
LJ          -1.12686        -2.41074       -0.609698
LJ          0.870353         1.04266       -0.307413
LJ          -1.02248        -1.06081       -0.581641
LJ           2.15164        0.108933         0.32201
LJ         -0.296013         1.95898         2.03874
LJ           2.49652         1.61575         1.07701
LJ         -0.983796        -1.44638         1.13069
LJ         0.0479565        -2.38812        -1.90101
LJ           1.95593        -1.96652        -2.30247
LJ          -2.01808       -0.807842        -1.15179
LJ           1.22749       0.0361051         1.79479
LJ           -1.8833        -1.83317       -0.382337
LJ          -1.72275           2.503         2.47628
LJ          -1.88495         2.46272       -0.489508
LJ           2.53983        -1.26536          1.0051
LJ          -1.32797         1.90588        -1.85607
LJ         -0.589336        -2.26323         2.26475
LJ          0.148331         1.37308        -1.33748
LJ         -0.194518        -1.44632        0.988851
LJ              -nan            -nan            -nan
LJ           1.35475         1.23602         1.45847
LJ           -2.0341         2.19499         1.70567
LJ          -1.01148         1.90039         1.59309
LJ         -0.939539        0.351138         2.40721
LJ          -2.52522         2.16665         1.80578
LJ          0.243699        -2.03748        -1.57384
LJ            2.0794       0.0327409        -2.29378
LJ           1.73299        0.733724        -1.88374
LJ            2.4842         2.24333         1.17878
LJ          -1.92588       -0.466317        -0.99962
LJ           -1.8822        0.607687        -2.44039
LJ          -2.25177         2.28056         -2.3453
LJ          -1.39292       -0.962615         2.32561
LJ         -0.666277        0.645901        0.817278
LJ         -0.610916         -1.6079        -0.82118
LJ            1.5754       -0.882409         2.18403
LJ         -0.286617        -2.21911         1.70351
LJ          -1.27154        0.263217         2.03491
LJ         -0.563791       -0.719207        -1.88424
LJ           2.21148         0.12721       0.0870543
LJ          0.419609       -0.905358         2.43171
LJ          -2.04952        -1.26247          1.9299
LJ          0.627944         2.37571       -0.851158
LJ           1.88565       -0.919257         0.95304
LJ          0.530369        -1.61229         1.02286
LJ         -0.609554         1.18513         1.29446
LJ          -1.10333         1.92441        0.739159
LJ         -0.454709        -1.31563        -1.62389
LJ         -0.150096       -0.827347        0.318484
LJ         -0.160927         1.86891       -0.263009
LJ            1.3968        -2.20992         1.33053
LJ         -0.978765        -0.54431       -0.665161
LJ           1.22692       -0.892395        -2.09825
LJ          0.308788          1.5452        -2.34088
LJ          -1.34337       -0.945135        -0.55225
LJ            1.2427         1.06922      -0.0433494
LJ           1.80871        0.122998        0.766818
LJ          -1.36721       -0.283935       -0.747237
LJ           1.71769        -2.36053        0.219395
LJ         -0.369463        0.537685         -1.0532
