108
#Comment!
LJ          -1.12452         0.75733         -2.5287
LJ         0.0837722         1.74748       -0.502971
LJ          -1.07739        -1.90328         1.22541
LJ          -1.15573         1.00385       0.0957605
LJ          -1.61627       -0.684137        0.220529
LJ           -1.5714       -0.319633         0.63696
LJ          0.636115         2.44638        -1.61397
LJ         -0.778166         2.12261       -0.395587
LJ          -1.75189        -1.60085      -0.0527592
LJ          0.242569       -0.281549        0.252551
LJ          -1.52434        -1.98343          2.4739
LJ           1.98286         2.29592         -2.1067
LJ           1.88093         1.55186        0.065033
LJ          0.342078        0.368837      -0.0571742
LJ           1.54204         1.54267         1.42366
LJ           1.58483      -0.0181237        -1.87404
LJ          0.475405       0.0476509        -2.43906
LJ          0.800933        -1.44697          2.4445
LJ         -0.865774        -2.05973        -2.52535
LJ          -0.98503       0.0219165       -0.941242
LJ           1.58125       -0.597155         1.94954
LJ          -1.67977         0.21932         0.15909
LJ         -0.288553       -0.556538      -0.0108528
LJ          -1.21848         2.31771         1.93407
LJ           1.26103         1.47877         2.34987
LJ           1.65859        -1.00189       -0.407808
LJ          -1.97901       -0.383463         1.46252
LJ           -1.1024         1.85928     -0.00222794
LJ           2.55061       -0.475673        0.538464
LJ           2.22563         1.39156         1.17058
LJ          0.344982      -0.0149072        -1.60357
LJ          -1.87726         0.94216         1.70922
LJ          -0.86007         1.09383         1.65187
LJ          -1.99172         2.44595        0.470004
LJ           1.07208        0.452262        -1.89504
LJ          -1.31672        -1.96518         1.05341
LJ          0.845786         1.47375         2.37435
LJ          -1.58622        -1.29356        -2.52104
LJ          0.337604        -1.77737         2.41202
LJ         -0.389727        -1.79528        -1.11185
LJ          0.440343        -1.98413        -1.86753
LJ           0.21088        0.624841        -1.43044
LJ            1.5382         1.70928         1.44448
LJ         -0.518558        -1.22989       -0.120629
LJ          -2.37297       -0.314834         2.12075
LJ           -2.1802         2.10074        0.754401
LJ           1.51099        0.637389         2.18684
LJ          0.529217        -1.01409        -2.02657
LJ            1.0062        -1.28856        0.537329
LJ          -2.15668         1.83637         2.41494
LJ         -0.365008       -0.794175      -0.0972179
LJ          -1.95099       -0.945137         0.85283
LJ          -1.89274        -2.52415         1.47204
LJ           1.32606         2.06648       0.0754633
LJ         -0.831203       -0.893243        -1.65463
LJ         -0.676471        -1.88708         2.42994
LJ          0.443492         1.57605       -0.251989
LJ         -0.641581         1.79638          1.0563
LJ         -0.934948         1.79804        0.201017
LJ          -1.41744         -0.9575         1.61288
LJ           2.41274        0.212018         1.75545
LJ         -0.843858         1.09417        -1.61865
LJ           2.08933        0.597327          1.2477
LJ           1.87433         1.79104       0.0545582
LJ          -2.28708        0.176517         1.60336
LJ         0.0250447       -0.983551          1.1406
LJ           1.83235         -2.3841        -1.49399
LJ          -1.18158        -0.53822        0.684678
LJ          0.768008       0.0930034        -2.19346
LJ           1.64436       0.0668452        -1.03011
LJ           1.56179        -1.42304       -0.251861
LJ          -0.78975         2.04443        -1.09029
LJ          0.300695       -0.977834       -0.687281
LJ           1.23393        -1.48636        -1.14132
LJ           1.65026        -1.37476         2.46647
LJ          0.715142       -0.715661       -0.889338
LJ          -1.37829       -0.481237        0.310409
LJ         -0.192582        0.706617         1.41127
LJ          0.939478        -2.18039        -1.77856
LJ           2.44959        -2.21662       -0.774514
LJ         -0.188086         1.42839       0.0261876
LJ           1.11026         1.08845        -2.05055
LJ          -1.09385        0.729302        0.846004
LJ            1.5618         1.09814        -1.80392
LJ          -1.10457        -1.60593        -1.88917
LJ            2.5134         1.80057       -0.203133
LJ           0.12215         1.20746         0.74611
LJ          0.605642        0.818222       -0.880713
LJ          -2.13925        0.334578          2.2154
LJ         -0.171985         0.12607        -1.06942
LJ          0.906735         0.13747         2.32426
LJ           -1.2217         1.40916        -2.25804
LJ          -1.70086        0.512995       -0.686991
LJ         -0.628413         1.71626        0.857835
LJ        -0.0502536      -0.0244356         1.10556
LJ          0.146416         2.54557        0.713494
LJ           1.59591         2.27843        0.680468
LJ          -1.08692        0.223143       -0.449027
LJ           1.82397        -1.90106          1.4638
LJ            0.4224        0.629279        0.171451
LJ          0.756694        -1.61465        0.447601
LJ          0.193427         2.43165         1.50529
LJ           1.23347        -0.70615        -1.57742
LJ         -0.165227     0.000240478       -0.784446
LJ          0.948434         1.38827         2.25262
LJ          -1.84106         2.09509       -0.951559
LJ         -0.640367         1.44775       -0.944309
LJ         -0.507269         1.17012        -2.46622
