108
#Comment!
LJ          0.135597        -1.50524         1.70445
LJ          -2.48111         -0.8222        -0.79555
LJ           2.42012        0.628976        -0.13454
LJ          -1.59935        -1.06688        -1.04536
LJ          -2.07409        -1.28673        -2.25528
LJ          -2.11755        -2.14546        0.289846
LJ            1.6035        0.515639         2.50096
LJ          -1.25045        0.634474        0.113538
LJ          0.335648         1.94933          2.5151
LJ          -1.63067       -0.753485          2.4482
LJ              -nan            -nan            -nan
LJ           -1.3938        -1.52699         -2.0568
LJ         -0.273135        -1.94292        0.326587
LJ              -nan            -nan            -nan
LJ           0.44864        -2.37192         2.30471
LJ              -nan            -nan            -nan
LJ              -nan            -nan            -nan
LJ              -nan            -nan            -nan
LJ        -0.0092292         1.14998        -1.92133
LJ              -nan            -nan            -nan
LJ         -0.829622        -1.37737         1.06699
LJ        -0.0771494       -0.305402        -2.31041
LJ        -0.0190523        -1.13607         1.91698
LJ              -nan            -nan            -nan
LJ          -2.22013        -1.66878         2.21563
LJ           1.05644        -1.73792         1.49739
LJ           2.01608        -1.40264        -1.58703
LJ          0.946435       -0.318719        0.878549
LJ          -1.00818         1.81334         2.02797
LJ          -1.65167         2.32235         1.00261
LJ              -nan            -nan            -nan
LJ          0.674483        -1.19376        -2.54929
LJ              -nan            -nan            -nan
LJ           2.52009        -1.03032       -0.431604
LJ              -nan            -nan            -nan
LJ       -0.00965153       -0.958955         0.12396
LJ          0.140215       -0.755774        -1.68323
LJ          0.076977        -2.26309        -1.47021
LJ        -0.0814929        -1.51812         1.88828
LJ            2.2052         2.17551         2.53305
LJ          -1.80273        -1.50272        0.562901
LJ         -0.999685          1.2199        -1.88606
LJ          0.699905       0.0528121        -2.07187
LJ            -1.805         1.26386        -1.94863
LJ          -1.20338      -0.0881165         1.95835
LJ          0.452658        0.992009       -0.074976
LJ         -0.672872        -1.39741         1.09601
LJ           1.51275          0.9193        0.975255
LJ          -1.68881        -2.12394         1.28271
LJ         -0.759756        0.946904         1.89795
LJ          0.482423        -1.76933        -2.54469
LJ          0.710078        -1.86906          2.5469
LJ              -nan            -nan            -nan
LJ          -1.98822         0.46058       -0.470361
LJ           2.24455         -1.2924        -2.16481
LJ         -0.246681          0.1871         1.22381
LJ         -0.897862         1.78493       -0.637146
LJ           2.31943        -1.14533         1.86222
LJ        -0.0247136         1.37029        -1.22828
LJ           2.12353         1.71026        0.339063
LJ           1.93662        0.922104        -1.41557
LJ           0.82309       -0.702521        -1.59916
LJ           2.22687        -0.59579        -1.45501
LJ              -nan            -nan            -nan
LJ              -nan            -nan            -nan
LJ         -0.240969        -1.21988         1.06504
LJ         -0.278888       -0.588065         1.96615
LJ              -nan            -nan            -nan
LJ            2.0632       -0.998945       -0.235676
LJ          0.168919       -0.659255        -2.50709
LJ           2.09966        0.267357          1.9655
LJ          -1.39539         1.38239        -1.80796
LJ          -1.52785         1.66589        -1.71322
LJ           1.52578        -2.51426       0.0034784
LJ           2.04716        0.838282        -0.60951
LJ          -1.20583        0.437009        -2.21675
LJ         -0.594805         1.88851         0.57219
LJ           -1.3941        0.417929         2.11119
LJ            1.9321        -1.18434        -2.11784
LJ          0.252395         1.23364        -1.56643
LJ          -0.12915        -2.50822       -0.760265
LJ          -2.10261        -1.57914        -2.32888
LJ          -1.09438       -0.584764        -0.61547
LJ           1.19545         1.79569        -0.82926
LJ           2.27049         2.04314         1.36488
LJ           -1.6842        -2.31443         -1.1429
LJ          -1.70427         2.12102         2.47549
LJ           1.35158         1.02742        -1.49164
LJ          -2.27238         2.39975       -0.401968
LJ           1.18241        -2.46401        -2.32447
LJ              -nan            -nan            -nan
LJ         -0.181264          1.5463         1.46612
LJ           1.62932         1.29429         1.89917
LJ           1.21233        0.639794        -1.15536
LJ          0.735353         1.16373       -0.479168
LJ           0.90557       -0.596962         2.16193
LJ          0.752682         2.05754        -1.63379
LJ            1.5191        -1.06847        -1.59745
LJ              -nan            -nan            -nan
LJ          -1.69847      -0.0947241        -1.82419
LJ           2.43277         1.55461        0.932429
LJ          0.691225         1.95252       -0.211893
LJ           1.39784        0.869376         1.28921
LJ           1.64291        -1.38432         1.53882
LJ              -nan            -nan            -nan
LJ         -0.482157         1.92098        0.471217
LJ         -0.175236        -1.30272        0.536524
LJ              -nan            -nan            -nan
