108
#Comment!
LJ           1.75692        0.292078         1.44243
LJ           2.48692        0.395467        -1.93692
LJ         -0.190844        -1.95408        0.370593
LJ           1.37069        -2.08319       -0.114911
LJ           2.34524         1.89733         2.16606
LJ          0.826041         1.84086        -1.31162
LJ          0.107762        -2.16379        -1.21054
LJ           1.98017        -1.58702         1.92678
LJ           1.33093         1.58867        -2.36438
LJ         -0.529486        -2.24859       -0.137361
LJ              -nan            -nan            -nan
LJ         -0.832918        0.797047      -0.0676455
LJ         0.0142651        0.757026        -2.37075
LJ          -1.76756         2.53981       -0.489502
LJ          -2.11975         0.22902        -1.50505
LJ          -1.44257         1.81151         1.88835
LJ         -0.645157       -0.102606        -2.00192
LJ          -0.11399        -2.37031        -2.14929
LJ          -1.48041        0.575088       -0.201956
LJ         -0.852608          2.4424       -0.669181
LJ         -0.776161        -2.18891          1.4875
LJ           -1.2104         1.71978         1.86649
LJ          0.487776       -0.390599       -0.939025
LJ          0.303305       0.0484253        0.958699
LJ          -1.25362        -2.11714        0.521675
LJ           1.57599        0.034574          1.1989
LJ          0.776256        -2.26356       -0.919151
LJ         -0.222585          2.3422        -1.38609
LJ          -2.25457        -1.68976      -0.0365508
LJ          0.974318         -1.9407       -0.802169
LJ          -1.23991        -2.51064        0.153517
LJ        0.00305341        -2.33945         2.10321
LJ              -nan            -nan            -nan
LJ         -0.461549        -1.44035        0.167515
LJ              -nan            -nan            -nan
LJ           -1.0664         1.72488       -0.468564
LJ          -2.33192         0.76229        0.754016
LJ        -0.0560648        -1.76851        -1.43989
LJ          -2.47141        -1.63735       -0.875868
LJ          0.624461         -1.7158        -1.70113
LJ           1.34482       -0.592249       -0.813577
LJ           2.54346         2.27057       -0.306971
LJ         -0.419908        -1.61571        -2.31962
LJ           1.21756        -2.04769        0.343538
LJ            1.1403        0.539281        -1.61453
LJ           2.36815        -2.03112         1.78387
LJ           1.28162       0.0514605        -1.23513
LJ          0.465964        -1.42652         1.19033
LJ           -2.4538        -1.96513        0.550846
LJ          -1.78162        0.906465        -2.55966
LJ          -1.06238        -2.49669        -1.37216
LJ         -0.789179       -0.572643        0.422512
LJ          0.189161        -1.82921        -1.53595
LJ         -0.507145        -2.32636         2.05604
LJ           1.96115        -1.23324        -2.04241
LJ          -2.54683       -0.765129        -1.45261
LJ          0.483486        -1.12842        -1.42178
LJ           1.79983        0.874142        0.856693
LJ           1.74152        -2.38222        -1.54932
LJ         -0.300792         1.75127       -0.744885
LJ          0.955143         -1.1795        -1.21522
LJ         -0.635283        0.282472         -2.3752
LJ         -0.244496         0.28381         1.62032
LJ         -0.192987       -0.712616        -1.31339
LJ           -1.1886        0.127013       -0.196537
LJ         -0.164853        -2.18002        0.500545
LJ         -0.489787        -1.35263         1.04899
LJ              -nan            -nan            -nan
LJ         -0.800797         1.95376        -2.44825
LJ          -2.15981        0.247434       -0.739844
LJ           1.80194         1.14914        -1.77882
LJ           1.30424       -0.761774       -0.605571
LJ           2.24857        0.703277         1.59413
LJ          0.527705        0.553745        -1.20304
LJ          0.458209       0.0923678         1.15085
LJ          -2.41724         2.43592        -1.19741
LJ         -0.253675       -0.178544         1.31694
LJ         -0.910874        0.919877          2.0834
LJ          0.828035        -2.29183         2.11403
LJ           2.50853        -2.24692          1.9491
LJ          -1.37291         1.53934        -1.90487
LJ         -0.220504        0.633278         2.18235
LJ           1.87683        -2.51114        -1.10413
LJ          -2.47425         0.25532       -0.394205
LJ            2.0443         2.46968        -1.15045
LJ         -0.824293        -1.15605       -0.239073
LJ           2.27467        -2.03435        0.107075
LJ          -1.43067         2.17928        -2.28784
LJ           1.71428        0.643865        0.920458
LJ          0.981694       0.0460644        0.275943
LJ           1.39523        -1.34256           2.508
LJ           1.55944         2.03093        0.618496
LJ          -2.35945          2.5268         -1.3224
LJ          -2.48759         1.33976        0.480156
LJ          0.535404        0.876187         1.39179
LJ           1.07957        0.215481         1.81195
LJ         -0.865174         1.54204        -1.52736
LJ         -0.146855         0.40991        -2.27274
LJ        -0.0477421        0.551633          1.6448
LJ           1.12303        0.781524         1.64565
LJ        -0.0526655        -1.17446        -1.63193
LJ            2.1224        -0.39206        0.233501
LJ           2.54457         2.50843        -1.31527
LJ           2.32116         1.30139       -0.854082
LJ           1.66858        -1.81281         1.11208
LJ          -2.07052        -2.03576         0.75596
LJ           1.13673        -1.24774        -2.35644
LJ          0.503006         1.25955      -0.0139515
