108
#Comment!
LJ        0.00272263       -0.851687           0.922
LJ          -2.56027       0.0540477        -1.91193
LJ          -2.26842        0.620354         2.17466
LJ        -0.0106929        0.422368       0.0936969
LJ           1.62593         1.90319        -1.15629
LJ            1.1073        -2.52556       -0.609619
LJ           1.00298        0.555616       -0.363889
LJ         -0.336705        -2.50992        -2.50598
LJ         0.0766225          1.1352         1.22555
LJ          0.538577        -1.30095         2.52694
LJ              -nan            -nan            -nan
LJ           -2.4214         1.44456        -2.20824
LJ           1.97399         0.05742         1.55036
LJ         -0.629071         1.67496        0.232748
LJ         0.0620887       -0.441739         1.31493
LJ          -1.58559         2.22709        -1.99889
LJ           2.03804        -1.40827        -1.08325
LJ         0.0480512         2.44696        -2.25695
LJ          0.911527         2.39073        -1.78233
LJ          -1.73281        -1.50688       -0.583982
LJ          0.750361        -1.24085        -2.08682
LJ           2.35594        -2.38563        -1.76505
LJ           0.23084        -1.70825       -0.495191
LJ           2.20401        -1.61516         -0.2211
LJ           1.43136        0.557288        -2.10993
LJ          0.959074        -1.46461         1.38647
LJ           1.74745         1.32538        -1.65964
LJ           1.73898         1.77815       0.0833012
LJ          0.932684         2.38888      0.00477044
LJ           2.53573       -0.108749        -2.55798
LJ           -2.2794       -0.901998       -0.175247
LJ           -1.8548         1.52507       -0.413564
LJ              -nan            -nan            -nan
LJ           1.89892       -0.486965        0.172853
LJ          -2.48747         2.35303        -1.78779
LJ          -1.86192        -1.10053        0.565058
LJ          -2.32453         2.22378        0.725923
LJ          -1.70648         1.84009         -0.4767
LJ          0.562392        -2.52062        0.864734
LJ          -1.72491         2.52849        0.399065
LJ          -1.02451        0.158151       -0.399936
LJ           2.43783        -2.12713        -1.89613
LJ         -0.511961        -1.47134        -1.56542
LJ           -2.5367         1.38018         2.34727
LJ           0.13329         1.40323        0.131696
LJ           2.29122         1.60884       -0.926043
LJ          -0.85857         2.52683        0.492743
LJ         -0.940204         1.47535       -0.448958
LJ           -1.5618         2.44313        0.784455
LJ           1.48819        0.989143        0.100335
LJ          0.272294        0.624559        -1.97565
LJ           1.52151       -0.465242        0.188983
LJ           1.92679        0.359652        -2.11029
LJ          -2.28232        -1.61984        0.463086
LJ          -2.34103        -1.97268         2.36391
LJ          0.842363       -0.266714        -2.09509
LJ         -0.249269       -0.551866         1.06874
LJ          0.171231         2.08258       0.0800467
LJ          0.668719       -0.469293        -1.90571
LJ          -1.85777         1.73763        0.644638
LJ           1.02653       -0.644376        -2.18281
LJ           1.68412         1.05973       -0.832792
LJ          -1.23714         2.05787       -0.538388
LJ          -2.11125        -1.29451        0.431206
LJ          0.103231        -2.05412        0.167559
LJ          -0.64535        -1.02235       -0.349764
LJ           1.26703        -1.07221         1.94184
LJ          -2.44138          1.5594         1.26536
LJ          0.113967         0.78701         1.65726
LJ         -0.808638        -0.19761         2.04221
LJ          0.870288        -2.37114        -2.11103
LJ          0.144841       -0.692731      -0.0369049
LJ           2.53406        -1.05381        -1.94497
LJ          -0.62346        0.114446         2.48703
LJ           2.13998        0.107351       -0.422864
LJ          -2.36755         2.16021        -1.69164
LJ         0.0236903         -1.8798        0.619924
LJ         -0.297071         2.02187        -2.26161
LJ          0.259701         1.19399        0.793987
LJ          0.320203        -2.34477        -1.77837
LJ           1.64146        -1.04052          1.4169
LJ          -0.94318         1.06604        -1.86063
LJ         0.0308012        0.306229         1.78072
LJ           2.08158        -2.52477         1.43728
LJ          0.477437         1.53358       -0.172551
LJ          -1.67181         0.56862        -1.58935
LJ          0.684357         1.02657         1.22975
LJ           2.38708        0.882986        -2.36278
LJ          -1.16462       -0.783119         -2.4879
LJ          0.916293        -1.44847       -0.874899
LJ          -2.23678         2.35684        0.709496
LJ          0.477606       -0.860611           1.361
LJ           -2.1581        0.614274        -2.38782
LJ          0.814445       -0.974977        -2.45038
LJ         -0.706236         1.67907       -0.533952
LJ           2.30469       -0.822154       -0.868168
LJ           1.07844        -2.55275        -1.15223
LJ           -2.1534        -2.17892       -0.488866
LJ         -0.145859         1.04604         1.34706
LJ           1.36804        -1.72833         1.69842
LJ           2.39729        0.192691        0.459589
LJ          -2.21063       -0.763059         1.61224
LJ          0.149036        -1.45029       -0.118507
LJ           -1.8993         2.44779         2.01453
LJ          -1.38959        -1.35084          2.4712
LJ          -1.95269        0.726204         1.54359
LJ          -2.53114        0.220189         1.35839
LJ          0.892409         2.25624        -1.66239
