108
#Comment!
LJ           2.02217        -2.13392        -1.99395
LJ         -0.357212         2.11786       -0.449266
LJ           2.02653         2.40195        0.860488
LJ          -1.67108       -0.303267         2.52452
LJ          -1.54972       -0.906132        -1.84791
LJ         -0.882936         1.91782        -2.39896
LJ          -1.14024        -1.23684       -0.102304
LJ          -1.46456        -1.65569       -0.815924
LJ           1.45642        -1.13669         1.54851
LJ          -1.73387       -0.826215         2.53739
LJ              -nan            -nan            -nan
LJ         -0.468385     -0.00749183      -0.0673903
LJ         -0.932004         1.49965       0.0717867
LJ          -2.34463       -0.891874         1.87266
LJ           2.04639         -2.0356         1.18419
LJ         -0.760824         2.06448        0.254894
LJ              -nan            -nan            -nan
LJ              -nan            -nan            -nan
LJ          -2.07858       -0.524004       -0.659314
LJ              -nan            -nan            -nan
LJ          0.597258         1.67679         1.73401
LJ          0.490121         1.87268        -1.71947
LJ           1.64083         -1.1787        -2.53961
LJ          -1.54827        0.905359        0.128342
LJ          0.141928         2.28577       -0.833504
LJ           2.39273         1.78679        0.206187
LJ           2.10223        -2.13334       -0.781441
LJ          0.154752        -2.49271         2.05241
LJ          -1.56576       -0.854865        0.524537
LJ           0.66833       -0.725676         2.46367
LJ           1.37725         -2.0558         2.07494
LJ          -1.03853        -2.42056        -1.45149
LJ              -nan            -nan            -nan
LJ          -1.81545       0.0906514       -0.503535
LJ              -nan            -nan            -nan
LJ          0.758809        0.967831      -0.0894183
LJ           2.38405         2.46471         2.33066
LJ            1.0217        -1.17597       -0.344043
LJ         -0.333627        -1.71941        -1.70647
LJ          -2.43833       -0.448837        -1.73912
LJ           1.00952       -0.349958         2.54093
LJ          -1.24341         1.14823         2.26269
LJ         -0.172212        -0.50176        0.535568
LJ          0.822986         2.12107      -0.0864271
LJ           1.70834        -1.69813        -1.22872
LJ        -0.0167368        0.770355         1.09736
LJ          0.888402        0.242321        -1.23496
LJ          -1.76392        0.100427        -1.34262
LJ          -1.19301        -2.38562         1.21266
LJ          -2.49355          1.9433       -0.888173
LJ         -0.291469          1.8392        -2.35867
LJ            2.5428        -2.53366        -1.03493
LJ              -nan            -nan            -nan
LJ           2.12575        -1.58718       -0.549377
LJ           1.17806        -2.00301          2.0137
LJ          -1.70983         1.67928        0.855914
LJ         -0.600494         2.10528         2.39146
LJ          -2.08874         1.67145       -0.865235
LJ         -0.918596         0.13965        -1.19485
LJ           2.45812         2.32261       -0.830413
LJ          -2.28112        0.392851        0.912137
LJ           2.05092         2.46701      -0.0523792
LJ          0.463461         2.09844        -2.21813
LJ          0.854063         1.71185        -2.02079
LJ           1.94013        -2.53911         1.08372
LJ         -0.345583          1.5219        -1.71583
LJ         -0.463868        0.505575       -0.339566
LJ              -nan            -nan            -nan
LJ           1.97123        -2.16822        -2.33116
LJ           1.91921       -0.276698         1.30518
LJ          -2.47594         2.22838       -0.776605
LJ          0.440126       -0.180618        -1.04496
LJ         -0.363156           1.025        -1.95898
LJ         0.0707088         0.48707        0.784723
LJ            2.1804        -1.36072         2.41366
LJ         -0.517152       -0.828166         2.27458
LJ          -2.04794        -2.19829         1.75259
LJ           1.93318        -1.62506        0.153884
LJ          -2.16012       -0.822984        -1.29929
LJ         -0.212909        -1.47747        0.480646
LJ          -1.17902        0.145046        0.851953
LJ          -1.64105         0.83206       -0.248206
LJ         -0.917708         -1.5536        0.771476
LJ          -2.20218         0.59937      -0.0785286
LJ          -1.95063        -1.88699       -0.440199
LJ          0.485455        -0.70202        -2.25842
LJ          0.942335        -2.47765         0.32354
LJ          -1.84157         2.03527         2.40861
LJ           2.32513         2.51942         -1.6393
LJ          -0.32408       -0.526409          1.0431
LJ              -nan            -nan            -nan
LJ          0.834605        -1.33723       -0.478165
LJ          -1.20353         1.33572       -0.669651
LJ          0.717868         1.07406         2.43635
LJ         -0.952969        0.385633       -0.227209
LJ         -0.447098         1.00454         1.85219
LJ          -0.41343         1.52648        0.488045
LJ           1.98663        -1.10263         1.20848
LJ           1.05263         2.36129        -2.09969
LJ           0.62308        -2.47656        0.429954
LJ          0.309062        0.627935        -1.36758
LJ         -0.946949         2.46229       -0.438657
LJ         -0.320437        -0.54158       -0.494017
LJ          -1.62023          1.5267        0.661475
LJ          -1.88992         1.82292        0.241756
LJ            2.5554         1.81271       -0.245452
LJ           1.16543         2.02636         1.05718
LJ              -nan            -nan            -nan
