108
#Comment!
LJ           -1.3281        -2.46185         1.31115
LJ           2.11673        -1.32018        0.531691
LJ         0.0961103        -1.80848        -1.93637
LJ           1.05213         2.42837       0.0442392
LJ          -2.34903        -1.54254        0.762255
LJ          -1.54569         1.00141        -1.41423
LJ          -1.17014       -0.871334        -1.04635
LJ         -0.486373        0.580778         1.81673
LJ          -1.87309        0.733528        -0.89003
LJ          -1.67158         2.26742        -1.05091
LJ              -nan            -nan            -nan
LJ           1.77081        -1.45701          2.2032
LJ          0.783328         2.08488         1.15052
LJ              -nan            -nan            -nan
LJ           1.63028         1.33128        -1.20007
LJ              -nan            -nan            -nan
LJ              -nan            -nan            -nan
LJ              -nan            -nan            -nan
LJ          -1.44896        0.271486         0.75656
LJ              -nan            -nan            -nan
LJ          0.210078        -1.70883         -2.2901
LJ            -1.681       0.0848018        0.207661
LJ           2.38702        -1.17088       -0.830152
LJ              -nan            -nan            -nan
LJ           -1.4146        0.147074         -1.1709
LJ          -2.30369         -2.2119        -2.54484
LJ          -1.05961        -2.36172        -1.32762
LJ         -0.941518        0.247993         1.23219
LJ          -2.44535       -0.830752         0.32957
LJ          -2.15775        0.374589         2.12699
LJ              -nan            -nan            -nan
LJ          -1.07588       -0.753971        0.610075
LJ              -nan            -nan            -nan
LJ           1.04447       -0.693742        -1.13247
LJ              -nan            -nan            -nan
LJ         -0.147834        0.116355        0.564516
LJ          0.916373         -2.3854        -1.45402
LJ          0.966006       -0.198268         1.13312
LJ          -2.25316       -0.537683          1.4303
LJ         -0.034307        -1.13409        0.427655
LJ           1.62588         2.42681         1.45871
LJ          0.438269        -1.14918          1.8735
LJ         -0.069628        -1.20781         1.62753
LJ          -2.47396          1.1053         1.69008
LJ           -1.9283        -2.54142        0.593529
LJ         -0.171435        0.154605        -1.15087
LJ          -1.31329       -0.325978         2.09683
LJ          -1.76656         2.47614        -1.66508
LJ           2.12344        -1.96584       -0.328734
LJ          0.101695         1.44308        0.510855
LJ          0.299395       -0.148558         2.25719
LJ         -0.738588         1.19468        0.389746
LJ              -nan            -nan            -nan
LJ          -1.95143        -1.66877        -1.42932
LJ           2.37818         1.96366          2.2925
LJ         -0.588252        0.596544         1.64031
LJ        -0.0511237         1.74293         1.82207
LJ          -1.60657        -1.43251       -0.605318
LJ          -1.54807        -1.65725        -1.47806
LJ           -1.8676        -1.27834       -0.305689
LJ         -0.947122       -0.130879        0.295072
LJ         -0.692419          2.2838        -1.91925
LJ        -0.0986199         1.42477         1.94938
LJ              -nan            -nan            -nan
LJ              -nan            -nan            -nan
LJ          0.478734        0.618981       -0.466947
LJ            1.4166       -0.515727         1.38351
LJ              -nan            -nan            -nan
LJ           1.44741         1.73238         2.46789
LJ           2.30528        0.921995         1.37318
LJ          -1.02788        -2.18935        -2.06733
LJ           1.84073         1.29638       -0.539129
LJ           1.32432        -2.56171       -0.867791
LJ           1.60553         0.83716        -1.83253
LJ         -0.980617        0.192144        -1.21111
LJ          -1.34925     0.000577293         2.26206
LJ         0.0982399         1.31795         1.32267
LJ         -0.533621       -0.231371        0.255425
LJ         -0.902907         2.23895         -1.0749
LJ          -2.24131       -0.710329         2.21146
LJ          -2.10336        -2.37714        -1.78333
LJ         0.0141251         1.76284        -1.68016
LJ          -0.49902         1.82502        -1.31876
LJ         -0.271412        -1.51395       -0.608934
LJ          -1.93811       -0.559632         1.30045
LJ          -1.21679        -1.88477        -2.36141
LJ          -1.55657        -1.84411       -0.148718
LJ            2.1243         1.39726         -1.2411
LJ          -2.42374         2.39796         2.18809
LJ          -2.50754        0.250293        -2.43316
LJ              -nan            -nan            -nan
LJ           2.48573         2.18542        -1.51437
LJ           2.20232        0.338064       -0.489306
LJ          -1.76995       0.0690458       0.0859434
LJ         -0.860986         1.91601        0.668837
LJ         -0.347852        -1.36923         1.78068
LJ          -1.90533        -1.53571        -2.24022
LJ          -1.77625         2.47635        0.471647
LJ              -nan            -nan            -nan
LJ           1.27259        -1.74072      -0.0612234
LJ         -0.138646        0.919809         2.18597
LJ         -0.340001        -2.42734       -0.444539
LJ           -2.3321       -0.548368       0.0188077
LJ           1.26894        -1.56124      0.00796948
LJ              -nan            -nan            -nan
LJ          -1.15036        -1.80947        -2.46469
LJ         -0.782499        0.943997       -0.488052
LJ              -nan            -nan            -nan
