108
#Comment!
LJ        -0.0164811         1.31633        -1.02552
LJ          0.425334        -1.25863         1.11908
LJ         -0.714504         1.84239         1.16257
LJ           2.48568         1.09008       -0.203104
LJ          0.932218       -0.214429       -0.345718
LJ         -0.138892         2.01764        -0.71126
LJ          -0.11071        -2.06682        -2.51222
LJ          0.248649        -2.35946        -1.14271
LJ          -1.17076         1.07227         1.00927
LJ          0.737979         1.46875        -0.40269
LJ              -nan            -nan            -nan
LJ           1.10858       -0.644926        -1.10841
LJ           1.42668         1.13794        -2.31754
LJ          0.669151        -1.47071        0.294311
LJ           1.22082         2.29862        0.188907
LJ          -0.73321        -1.37477       -0.743348
LJ              -nan            -nan            -nan
LJ              -nan            -nan            -nan
LJ           1.84185         1.51544        0.241371
LJ              -nan            -nan            -nan
LJ           1.84552         1.43045        0.218008
LJ           1.67748         1.96039       -0.691742
LJ           1.16186         0.56012         1.96119
LJ          -1.24098        0.443101        -1.98145
LJ          -1.96512         1.66696        -2.35165
LJ           0.28229        -1.67946       -0.924747
LJ           1.36289           1.435        0.113787
LJ          -2.01303         1.73161         1.70762
LJ         -0.555792        -0.68187        0.656529
LJ           1.12046      0.00117147        0.314599
LJ          -2.04613       -0.559188        -1.43498
LJ          0.585481        0.420899        -1.16539
LJ              -nan            -nan            -nan
LJ         -0.326878        -1.67627        -2.12012
LJ              -nan            -nan            -nan
LJ           2.24345         2.34381        -2.52846
LJ          -1.98464       -0.514114         1.29848
LJ          -1.66063        -1.36645         1.51892
LJ           2.41762        -2.19628         1.50372
LJ          -1.99013        -2.51741         -2.0929
LJ         -0.600935         1.24821         2.16616
LJ          -2.22629         1.49912        0.682062
LJ           2.04043         2.00472        0.788394
LJ           2.18457        -2.22557       -0.714498
LJ         -0.175425         2.01675        -2.42525
LJ         -0.727109        -1.45407        -2.22361
LJ          0.842991         1.04786        -2.31283
LJ         -0.383574        -1.23347         1.22395
LJ          -2.20295       -0.705253       0.0717576
LJ          -2.25459         1.85796          2.3393
LJ        -0.0482402         0.63693        0.474539
LJ           1.81883        -1.31697        -2.29335
LJ              -nan            -nan            -nan
LJ         -0.660777         1.55982        0.257498
LJ          -2.45523         1.51753         1.14172
LJ          0.494228         0.72255       -0.618379
LJ         -0.401129        0.550975         -2.1056
LJ           1.82952        -2.38719        -1.91522
LJ           1.95222        -2.50358        -2.00027
LJ          0.860198         2.47303        -1.44772
LJ          -1.36671         2.18225        0.363662
LJ          -1.36389        -1.21949         2.28054
LJ           0.59823        0.889785        0.561031
LJ          0.978366        -1.17944        -1.18338
LJ          -1.54872        0.472715        0.207738
LJ          -1.63356       -0.741472        -2.39446
LJ          -1.41963        0.538362         2.50798
LJ              -nan            -nan            -nan
LJ           1.72084        -2.18688       -0.999554
LJ          0.569949       -0.878371         1.06868
LJ         -0.716703          2.5167       -0.791459
LJ          -1.94623       -0.645799        0.387726
LJ          -1.60735        0.403963        0.521754
LJ         -0.584904         1.14022        -2.13295
LJ           2.37726       -0.793931         2.55959
LJ          0.311495        -2.53167        -1.45626
LJ         -0.283034         -2.2628         0.91627
LJ         -0.877966        -2.44962        -2.33969
LJ          0.272549        0.879786       -0.178623
LJ           -2.1126         1.88231        -1.20764
LJ          -2.03423        -2.55359        -2.32978
LJ           2.22181         2.51894         2.06393
LJ           -0.3155        -2.22736       -0.366666
LJ          -1.75527           2.546       -0.619798
LJ          0.306781        0.886678        -2.05648
LJ          -0.55807        -1.08246        -1.28084
LJ         -0.553931         1.71109         2.31116
LJ          -2.33337        0.870912         1.34643
LJ         -0.355803         2.28128       -0.549966
LJ           2.14212         1.78342        -2.32444
LJ              -nan            -nan            -nan
LJ           2.02919         1.48994        -1.91804
LJ          0.852268        -1.77026         2.06031
LJ          -1.59713         2.40034         -1.9165
LJ          -1.98529        0.523993        0.713978
LJ          -1.83815        -2.03114        -1.18333
LJ          -1.77111         2.44603        -1.37648
LJ        -0.0456142       -0.933381      -0.0938064
LJ           1.53432       -0.716654       -0.514592
LJ           1.15795       -0.537993        -2.27461
LJ           0.18183         2.18298       -0.418451
LJ          -1.59937       0.0750258        -1.70327
LJ          -1.38306       -0.922209       -0.942782
LJ           1.52282         1.72779        -0.21691
LJ          -1.68761        -2.47407         1.56474
LJ           1.08533       -0.401989         1.50128
LJ          -2.53358       -0.281878         1.18432
LJ              -nan            -nan            -nan
