108
#Comment!
LJ          -1.92862       -0.556538        -1.12102
LJ           1.64538         -2.2241        -1.22645
LJ          -1.24269         2.01816       -0.279388
LJ            0.6364        -1.56572        -1.98028
LJ           1.63012         1.71045        -1.31582
LJ           1.32761          1.9448         2.40302
LJ          0.271601       -0.910083        -1.18057
LJ          -1.03882        0.841602          2.0828
LJ          0.851116         1.27603        -2.36913
LJ            2.2502       -0.188259       -0.757231
LJ              -nan            -nan            -nan
LJ           1.03469         0.32916          1.8066
LJ          0.278058       -0.700891          -1.263
LJ          -1.76704        -2.08375        -1.42214
LJ          -2.38427         1.67518       -0.408397
LJ           1.25518        0.474906        -2.17474
LJ              -nan            -nan            -nan
LJ              -nan            -nan            -nan
LJ           1.67783        -1.36684         0.19698
LJ              -nan            -nan            -nan
LJ           1.06101        -1.64321        0.970684
LJ          -2.12572       -0.326546         1.01039
LJ           1.61194        0.605879        -1.13973
LJ           1.56779       0.0797299        -2.51597
LJ          0.554157         1.59089        -1.33977
LJ          -2.42149         1.17363        -1.05544
LJ           1.30652        0.558686        0.900948
LJ          -0.13318        -1.44487         0.72366
LJ         -0.712779       -0.112222        -1.63446
LJ          -2.23645       -0.419389         -2.5447
LJ            2.4037        0.483926       0.0113384
LJ          -2.42295         2.34633          2.0886
LJ              -nan            -nan            -nan
LJ           2.45072        0.786047       -0.231464
LJ              -nan            -nan            -nan
LJ          -2.45365        0.465256       -0.916837
LJ           1.07951        -1.29127         1.41063
LJ           2.18652        -2.35263         0.32439
LJ          -1.77121        -1.82244        -0.95483
LJ          -2.51155        -1.71328        0.160516
LJ         -0.570505      -0.0405615          2.2246
LJ           1.38214         1.91505         2.51055
LJ          -2.14094        0.188714       -0.749615
LJ          -1.70197       -0.698741        0.184385
LJ           1.26142       -0.120267       -0.099805
LJ           1.74866        0.120469        -2.00114
LJ         -0.951566       -0.850636         1.95616
LJ          0.348884         -2.0355        -2.44463
LJ            1.0365       -0.886728         2.11192
LJ          0.146906        -0.10215        0.759237
LJ           1.33992         2.23183        0.902139
LJ         -0.420061       -0.845547         2.55097
LJ              -nan            -nan            -nan
LJ          0.845085       -0.725393        0.469272
LJ          0.325472         2.22575         1.23495
LJ          0.166954        -1.28541         -1.3067
LJ           1.64777       -0.404478       -0.180181
LJ           2.21728         2.24051         2.18633
LJ          0.738561         2.01442        0.185743
LJ          -1.48976       -0.206808        0.693529
LJ          0.170487        -1.17512        0.698823
LJ          0.874601         1.06347         2.40314
LJ          -1.83613        -1.10094        -1.92352
LJ           0.27964       -0.240361         2.30682
LJ       -0.00524108       0.0164265        -2.10315
LJ            1.4441         1.80831         1.57695
LJ           -2.1663       -0.174089       -0.593506
LJ              -nan            -nan            -nan
LJ         -0.818282        -1.02086        0.795695
LJ           0.76977        0.523226         2.06971
LJ         -0.390457        0.154144         1.69629
LJ           1.89691         1.85217        -1.82666
LJ         -0.801339        -2.34857         2.35485
LJ           1.93925      -0.0191322        -2.53518
LJ           2.41189         1.02177        0.285496
LJ          -1.40315       -0.400141        0.477813
LJ           -1.5122         -2.4153        -1.58073
LJ          -1.23399         -1.0253       -0.150869
LJ          0.704924       -0.134834         1.81435
LJ         -0.470127         1.64295         1.22075
LJ          0.753765         1.77267        -1.66746
LJ          -2.51571        -1.49328         2.44054
LJ          -1.14528        -2.17579        -2.32712
LJ          -1.17868         1.14174         -2.3544
LJ            1.1515        -1.06308       -0.465873
LJ           1.80836        -1.31254       -0.129248
LJ         -0.764338        -2.33687       -0.881292
LJ         -0.745596        -2.15726        0.908948
LJ            2.0537        -2.21984       -0.872407
LJ          -1.74785        -0.54768        -2.23133
LJ              -nan            -nan            -nan
LJ          -1.32578       -0.269507        -1.35339
LJ         -0.453433        0.278512       -0.897092
LJ           1.98857          2.3715       -0.981609
LJ          0.288701        0.403729        -2.35847
LJ          -1.46045         1.88523         1.08919
LJ           1.70147       -0.287113         -1.1628
LJ         -0.043276       -0.862578        0.703531
LJ          -1.01035       -0.510855        0.226025
LJ          0.686896          0.3319          1.2247
LJ         -0.270548        -1.78566       -0.376723
LJ         -0.908384        0.843894       -0.700658
LJ           -1.6635         1.14571        -2.56253
LJ          -2.37378      -0.0641983        0.113189
LJ          -1.83063        -1.92991        0.672948
LJ           1.07291         2.30237         1.28008
LJ        -0.0222673        -1.25409         2.23519
LJ              -nan            -nan            -nan
