108
#Comment!
LJ           -1.1971         2.56316       -0.318947
LJ           1.48315       -0.805224        0.266538
LJ          -1.04251         1.12697         0.74449
LJ          0.471795       -0.719288        0.152155
LJ          -2.50078         1.04217         1.09016
LJ           1.46126        -0.59433        -2.11341
LJ          -2.53214       -0.851266        -1.82765
LJ           2.02811        -2.15863        0.713759
LJ          -1.24942         1.26042       -0.633173
LJ            1.6606         -2.3088       -0.226936
LJ              -nan            -nan            -nan
LJ          -2.42553         1.86569        -2.02328
LJ          -2.41024        -1.04741         1.67546
LJ              -nan            -nan            -nan
LJ          -2.54721         2.41128        -2.19438
LJ              -nan            -nan            -nan
LJ              -nan            -nan            -nan
LJ              -nan            -nan            -nan
LJ        -0.0826847        -1.91212        -1.76465
LJ              -nan            -nan            -nan
LJ          0.853912        0.380066        0.266838
LJ           1.14189       -0.750986       -0.647224
LJ          -1.73649        0.070576       -0.619982
LJ          -0.73738         1.82367       -0.582084
LJ          0.207794        -2.15119        -1.17593
LJ           2.08408        -1.78824        -1.56422
LJ          -2.54053        0.613095        -1.30481
LJ         -0.671877         0.74269       -0.219759
LJ          0.147627        -1.24764        -1.56358
LJ         -0.279876        -2.16119         1.49972
LJ              -nan            -nan            -nan
LJ        -0.0114182         1.02386         2.53168
LJ              -nan            -nan            -nan
LJ          -1.75278        -1.98479        -1.09804
LJ              -nan            -nan            -nan
LJ         -0.932297        -1.46522         1.31693
LJ          0.684807        -2.27212       -0.519383
LJ           -1.4272        0.860466        -1.68762
LJ          -2.15835          2.4714         1.39355
LJ          0.365201        -1.59998       -0.326869
LJ         -0.893655      0.00121367        0.352311
LJ           1.40734        -1.20721        -1.00145
LJ          -1.50578        0.560827        -2.31574
LJ          0.707835         1.51529        -2.15105
LJ          0.973301         1.76597         1.26115
LJ           2.25962         1.72707       -0.790274
LJ          -1.39641       -0.972297          1.7042
LJ           2.44063         2.22695         2.05254
LJ           1.48776       0.0611804       -0.101108
LJ          -1.00594       -0.965125         2.08751
LJ           -2.0881        -1.75525       -0.144179
LJ          -0.54562         -1.6885         1.89771
LJ              -nan            -nan            -nan
LJ         -0.889702        0.609862        -1.24029
LJ           2.37531        -1.84851        -2.02993
LJ           1.78782       -0.150365         2.55562
LJ          -2.13382       -0.801739         1.82382
LJ          -1.48453         1.01201        0.503396
LJ         -0.488591        -1.89001         2.37673
LJ           1.19768         -2.4013         2.04976
LJ          0.324582       -0.580112        -2.19958
LJ          0.588237        -0.66164        0.873053
LJ         0.0296049       -0.484668         1.10343
LJ         -0.465666        -2.17013     -0.00291869
LJ              -nan            -nan            -nan
LJ           1.77798         1.65892       -0.255502
LJ           1.35405          1.7274        -1.42083
LJ              -nan            -nan            -nan
LJ           2.48786       -0.213334        -1.99165
LJ          -2.17717         1.90232        0.433352
LJ           1.20782         2.37814      -0.0131008
LJ         -0.296638         -2.1025        -2.38324
LJ         -0.102981       -0.575613        -2.44149
LJ          -1.12475         1.68172         1.03071
LJ          -1.33611         -2.2036      -0.0630587
LJ          -2.38563         2.55576       0.0375174
LJ          -1.46368        -2.42576        -2.55461
LJ           -0.5696         0.17306        0.978174
LJ         -0.732319        -2.37399       -0.191394
LJ         -0.962465       -0.921937         1.88849
LJ          0.180508        -1.06134        -1.79346
LJ        -0.0443635        -2.07395        -1.42854
LJ          -1.65701         0.27342        0.480636
LJ           1.68169        0.649931        0.947994
LJ         0.0616081        0.880902       -0.424646
LJ         -0.791032        -2.08769         2.01529
LJ          -1.72139        -1.44811        0.801922
LJ          0.857959        -0.83002        -1.99013
LJ           2.37695       -0.693265        -2.50164
LJ          -1.73301        -0.62762        -1.37018
LJ              -nan            -nan            -nan
LJ          -1.89236         2.27884        0.571605
LJ         -0.257405         2.32167        -1.82048
LJ          -2.54265       -0.992827         1.16576
LJ          0.276195        -0.56303       -0.961816
LJ           2.52473         1.80662       -0.372405
LJ          -1.72746        0.816579         1.98283
LJ         -0.670696       -0.127907       -0.846982
LJ              -nan            -nan            -nan
LJ           1.25671         1.40797         1.82813
LJ           1.66638         1.47232       -0.811685
LJ           1.48599        0.275564         1.82521
LJ          -1.15878        -2.54453         1.34655
LJ         -0.803867         1.54484        -1.27292
LJ              -nan            -nan            -nan
LJ          -1.10299        0.934491        -1.51117
LJ           2.41429        -1.80448       -0.970397
LJ              -nan            -nan            -nan
