108
#Comment!
LJ          -1.63323        -1.16383         1.98709
LJ           1.12383         1.64799          1.1048
LJ          -2.42156        -1.46724         1.76654
LJ           1.43987        0.934732       -0.383498
LJ          0.681533       -0.206552       -0.328446
LJ          -1.56947         1.24411        0.420532
LJ        -0.0769987       -0.496002        -1.19481
LJ         -0.722849       -0.216721        -1.92399
LJ           1.65285          1.8672        0.701294
LJ          -2.13298        0.799226        -1.21231
LJ              -nan            -nan            -nan
LJ          -1.55833         1.06393        0.504109
LJ           1.67841        0.666104      0.00498739
LJ         -0.603512         2.14148      -0.0760993
LJ         -0.880617        -2.08858        -1.22435
LJ          -1.00687        0.919965         1.34412
LJ              -nan            -nan            -nan
LJ              -nan            -nan            -nan
LJ            1.9869         -2.3372        0.747974
LJ              -nan            -nan            -nan
LJ          0.780801        -1.42115        -0.99989
LJ          -1.38348         1.46964       -0.727124
LJ          0.650362         1.86071         1.33043
LJ          0.503801         1.47999       -0.436493
LJ          -1.44203        -2.53338         2.17945
LJ          0.785808        0.780649        -1.61035
LJ           1.66178        -1.52765        -2.00731
LJ          -2.54204        -2.55301         1.37508
LJ          0.533233        -1.02537         -1.6772
LJ          -2.45553         1.21491         1.83238
LJ           1.66519         1.48794        0.304703
LJ           1.19877        -1.43015         2.01906
LJ              -nan            -nan            -nan
LJ          0.639138        0.725132         1.09743
LJ              -nan            -nan            -nan
LJ         -0.809612       -0.108596         1.91556
LJ          0.249014        -1.95937        -1.32284
LJ         -0.506798       -0.348027        0.139279
LJ             1.218        -0.73147         -2.1309
LJ           1.02708         2.03512         1.43848
LJ          -1.82475        -2.48801       -0.172586
LJ          0.676712         1.47846         -1.1105
LJ           1.25036        0.203205         2.39562
LJ           2.48109         1.62322         2.33466
LJ          -1.94555         0.36204        0.327897
LJ          0.807477       -0.304759        -1.22423
LJ           1.44211         2.25998         -1.9766
LJ          0.250037         1.53058         1.40851
LJ          -1.42248         1.10718         1.90236
LJ         -0.424288          1.1182        -2.48512
LJ           2.51374         1.64222      -0.0406106
LJ          -2.14813       -0.445016         1.12878
LJ              -nan            -nan            -nan
LJ         -0.406361        -1.58541         1.81368
LJ          0.931754        -1.46892        -1.88452
LJ           1.61129         1.85007         1.69144
LJ          -0.85743        0.102464         1.92214
LJ          -1.41403        -2.06064       0.0946255
LJ           1.20104        -0.46776        0.919758
LJ           1.95896          2.4044        -1.57576
LJ           2.44106      -0.0474615        0.251771
LJ          0.762542         2.02607        -1.08815
LJ         -0.225664         1.44298        0.740282
LJ          -0.99217         1.23781        0.862641
LJ           1.21828         1.33638          0.3192
LJ         -0.255217         1.24362      -0.0254508
LJ            2.2656        0.364017         1.63387
LJ              -nan            -nan            -nan
LJ          -1.47475       -0.202674        0.732159
LJ          -1.70929         1.66111         1.57682
LJ          -2.01792        0.242922        0.905464
LJ          -2.04143         1.41692       -0.690559
LJ           0.39729        -2.01484        -1.89893
LJ           1.47839        0.126974         -2.4347
LJ           1.51003        -0.37927        0.743617
LJ          0.258416          1.0988       -0.022387
LJ          -2.05937        0.132941       -0.981352
LJ          -1.90015       -0.841302        -1.93868
LJ          0.537593       -0.862182         0.95243
LJ           -1.9417         1.06002         1.64189
LJ          0.997209       -0.449815        -1.61857
LJ           2.33782       -0.861347         1.17259
LJ           1.07903         2.11326        0.961832
LJ          -1.93299       -0.768185        -1.34726
LJ           1.33431        0.669371         -2.3947
LJ           2.46381       -0.976527          1.7553
LJ           1.98869         1.31445        0.345832
LJ          -1.66268        -1.76036        0.704369
LJ           1.78542         2.21707         1.45805
LJ           -1.7041        -0.64182        -1.03246
LJ              -nan            -nan            -nan
LJ        0.00896685         2.17978        -1.81778
LJ         -0.481249         1.63431        0.376959
LJ           1.98832        -1.12601       -0.191677
LJ        -0.0761262        0.720193         1.16144
LJ           2.26197       -0.810226        -2.26432
LJ          -2.42787        -2.54157         1.23383
LJ          -1.41942       -0.788016         2.33192
LJ         -0.850728        -1.22629        -0.40149
LJ          0.567476        -1.19663       -0.710917
LJ         -0.342638       -0.745415        0.606314
LJ          -2.17766        -1.62293         1.15273
LJ           1.71383        0.120673         0.89159
LJ         -0.103861        -1.32147       -0.862818
LJ          -2.29159       -0.665623         2.22763
LJ         -0.808291        -2.22415        0.647658
LJ          -1.77698       -0.153487        0.193944
LJ              -nan            -nan            -nan
