108
#Comment!
LJ         0.0739793         1.77835        -1.73568
LJ          -2.51758       -0.260469        0.782486
LJ           1.69431      -0.0592259        -2.56447
LJ           2.24344          1.8978        0.666591
LJ           1.62517          1.2041         0.53864
LJ         -0.341213        0.269842        0.461069
LJ         -0.463508         1.84432         2.43079
LJ          -1.98103        0.076155         1.93671
LJ          -1.32727         1.84107        -1.19907
LJ           1.98033         1.90556        -2.26209
LJ              -nan            -nan            -nan
LJ          0.527877        -2.25617         2.34628
LJ          -1.98204       -0.351256        -1.74092
LJ           1.43216       -0.559385        -1.94167
LJ           1.52025         1.90157        0.830963
LJ         -0.413972        -2.25131        -2.14141
LJ          0.953534       -0.278633        -0.31631
LJ            2.5451         0.81054       -0.728742
LJ          0.816357         1.41537        -1.75776
LJ         -0.338022        0.534489         1.86598
LJ         -0.776367        -1.43358         1.25006
LJ         -0.708854         1.39222        -2.13963
LJ           1.40686       -0.770013          2.1445
LJ          0.915944         1.60561        -1.01738
LJ          0.240875        -1.40067         2.19261
LJ           2.07789        0.337337         2.08593
LJ           2.05641        0.293329        -1.78917
LJ           -2.3086         1.57482         1.27177
LJ          0.487515       0.0991753        -1.64258
LJ          0.180081        0.556943        0.829875
LJ           2.11397        -1.72315         1.20433
LJ           -2.3192        -2.13055       0.0365508
LJ              -nan            -nan            -nan
LJ          0.746415         2.17843         2.38312
LJ           1.80295          2.4363         -1.5742
LJ         -0.556881        -1.08188        -2.06628
LJ          -1.94534         2.29787        -2.05166
LJ          0.647906       -0.529756       -0.185165
LJ          -2.30036         1.90481        0.599018
LJ         -0.803159        -1.42065        -1.09163
LJ         -0.612072         1.90286         2.20123
LJ           1.67015         1.39999        -2.54897
LJ          -2.00996         1.36508       -0.952597
LJ       -0.00899643         2.37397         2.07825
LJ          -1.58113          2.3317      -0.0135487
LJ         -0.572099         1.92322        0.818082
LJ          -1.98572        -2.49357         1.79431
LJ         -0.481179       -0.834332          0.6853
LJ         -0.200791         2.40196        0.160708
LJ          0.240875        -2.22039         2.40108
LJ          0.165123         1.43424        0.467019
LJ          -2.06653        0.173422        -2.54159
LJ           2.28902      -0.0232766        -2.20089
LJ          -2.05035        -2.02599        0.576384
LJ          -2.53427         1.68078         1.61466
LJ         0.0402201         2.12557       0.0723119
LJ           1.51125        -1.93414          1.9246
LJ           2.19074       0.0713245         1.08332
LJ         -0.685809        -1.70736       -0.781037
LJ          0.274934         2.42702        -2.24921
LJ           2.00302         -1.3508        -2.48864
LJ          0.300322         1.73828         1.12555
LJ           1.37709         2.13626        -1.20847
LJ         -0.192582       0.0634808        -0.73795
LJ         -0.418125        0.138585         1.02052
LJ           2.01809        -2.43399        0.989472
LJ          0.761405         1.96257         -1.8348
LJ           1.86944         1.59948         2.09956
LJ          -2.19603        -2.49086       -0.664316
LJ          -1.39526       -0.697349         0.80182
LJ          0.587677        0.647313         1.22281
LJ        -0.0219937        0.796958         2.40634
LJ         -0.426302        -2.45761        0.403012
LJ         -0.672779       -0.297522         -1.4937
LJ           1.58523        -1.09702        -0.87472
LJ           2.12986         1.26016         1.47284
LJ           1.84321         -2.1282         1.71147
LJ          -2.45053        -2.43647         1.26649
LJ          -1.47197          2.3803        0.238048
LJ         -0.176465        -1.96564       0.0717698
LJ          -1.53303       -0.799198       -0.163279
LJ          -2.52757       -0.602806         2.06385
LJ          -1.56341         1.82143         2.45248
LJ           1.85835         0.25812       0.0972402
LJ           1.78718        -1.49381        -2.54421
LJ          -1.32578         1.39592       -0.314535
LJ          -1.50356         2.07085        -1.66631
LJ         -0.278996       -0.286672         2.52955
LJ           1.83945        0.333495        0.879345
LJ          -1.81321       -0.892825        -1.52705
LJ         -0.776132        0.531804       -0.762845
LJ           1.30446        -2.25669         0.95863
LJ         0.0543533       -0.395616        -2.07379
LJ           2.08017        -2.31132         2.24425
LJ           1.84071        -1.78623       -0.603711
LJ         -0.514764        0.905943        -1.53388
LJ          -1.18914        -1.67355          1.2183
LJ           1.79601         1.74262        0.531485
LJ         -0.143866         1.82424         1.41032
LJ           2.26114        -2.23314         1.57033
LJ           2.56461         2.35626         1.87433
LJ           2.54478       -0.557234       -0.900174
LJ          -1.99454       -0.407594        -1.13509
LJ           0.73382         2.41448       -0.453414
LJ          -0.89007         1.12452         1.92688
LJ          -2.20796          1.2023         0.75627
LJ          -2.39342        -2.02239         1.58074
LJ          -1.30593        -1.07212        0.904857
