108
#Comment!
LJ           1.49926         1.99278        -1.10424
LJ          -1.37751        -1.29664        -0.20748
LJ           1.61533        0.873859        -2.51565
LJ            1.7054         1.19567         1.37429
LJ           1.91541        -2.39267       -0.232261
LJ           2.21346         1.22032         2.52878
LJ          -2.11954         1.69145        -1.62312
LJ           -2.0342       0.0371789         1.04227
LJ          -1.21527        -1.91324       -0.302052
LJ           1.46495         1.50509        -1.72582
LJ              -nan            -nan            -nan
LJ           1.65662         1.20168         1.05698
LJ          0.748632         1.69489         1.54509
LJ              -nan            -nan            -nan
LJ         -0.286193        0.127012        -1.87114
LJ              -nan            -nan            -nan
LJ              -nan            -nan            -nan
LJ              -nan            -nan            -nan
LJ           2.51497        -1.57394         1.11186
LJ              -nan            -nan            -nan
LJ          -2.15576         1.83446         1.52722
LJ          -1.63692       -0.452451        0.841057
LJ          -2.03823         1.66479        -1.37541
LJ          0.299804         2.52239         1.02592
LJ          -1.25641        0.909587         -1.5908
LJ         -0.791779         1.56913        -1.28617
LJ           0.74644         0.15147        -1.06682
LJ           2.16953        -1.20954         1.94133
LJ           1.43593       -0.957584        0.954473
LJ         0.0714168         2.40405        -2.55526
LJ              -nan            -nan            -nan
LJ          0.391037       -0.522902        -1.11245
LJ              -nan            -nan            -nan
LJ           1.52604        0.905074        0.332214
LJ              -nan            -nan            -nan
LJ           1.77444         1.56083        -1.15153
LJ          -1.44136        -2.07922        -0.29449
LJ           1.18559         1.80094       -0.425359
LJ           2.20439        -1.78265        -1.29229
LJ           2.27367         1.48728         2.13891
LJ           2.34379       -0.612373        -1.31257
LJ         -0.860326        -1.24654        0.967894
LJ          -1.06371       -0.280906         2.34147
LJ           2.25604         2.11624         2.33624
LJ          0.992632        0.962955        -1.77916
LJ           2.17644        0.439434        -0.22786
LJ         -0.331691          -2.247       -0.784201
LJ          -1.98765       -0.691194         0.58854
LJ           2.16948        0.553108       -0.743299
LJ           1.87639        0.956713         1.30508
LJ         -0.017862        0.568438        0.802737
LJ          0.582406        -1.82718       -0.299181
LJ              -nan            -nan            -nan
LJ           1.23223          1.8572        0.864791
LJ          -1.72642        -1.93712         2.44472
LJ           2.07812          2.2156         -1.7423
LJ          0.956831         1.86649        -2.37369
LJ        0.00394853       -0.892974        -1.54005
LJ          -2.26746        -1.03589        -1.75451
LJ          -1.66085         1.02416          -2.201
LJ          -1.92126        -1.36781        -1.51884
LJ          -1.19532         1.69126        -1.12005
LJ            1.4895        0.352688        -0.31728
LJ           1.47745        -2.39888          2.3293
LJ              -nan            -nan            -nan
LJ          -1.47277        -2.31382       -0.953364
LJ          -2.36748        -2.00773        -2.16203
LJ              -nan            -nan            -nan
LJ          -1.30082       -0.933323        0.103141
LJ          0.836501         2.47196         2.33194
LJ          -2.32156        -1.91426       -0.346366
LJ           1.16016        -1.83236        0.377415
LJ          -1.79036         1.52728         2.35016
LJ          -1.46787        -1.41201        -2.23542
LJ           1.95698       -0.107695         1.70955
LJ          -1.07574       0.0330989         2.23246
LJ           1.94794         1.07283        -1.76054
LJ          -1.67992        -2.42315       -0.291279
LJ          -1.51539         1.16321       0.0652594
LJ          -1.19698       -0.883267       -0.705846
LJ         -0.990187        -1.87711         -1.8893
LJ        -0.0821643         -1.8937       -0.599881
LJ           2.06633        -1.45212         1.29553
LJ          -1.90435        0.973269       -0.726671
LJ          -1.40084         1.36806        0.376878
LJ          -2.05952        0.540306         1.59339
LJ         -0.478521       -0.201372        -1.02028
LJ          -1.95392        0.150135         -1.9281
LJ         -0.961476       -0.251606        -1.84439
LJ           1.27341         1.85011        -1.45101
LJ              -nan            -nan            -nan
LJ         -0.730852        -1.74263         1.53079
LJ         -0.990068       -0.608074       -0.723917
LJ         0.0467616       -0.246587         2.33163
LJ          0.788718         1.39959         1.53875
LJ          -0.21846         1.53406        -2.54843
LJ          -0.31583       -0.153459       -0.457447
LJ          -2.43896        0.400645        -0.82854
LJ              -nan            -nan            -nan
LJ          -2.04477         2.10758        -1.56135
LJ          -2.07781         1.82265        -2.05939
LJ           1.60617        0.446367          2.5303
LJ          0.517081        0.777042         1.54891
LJ           1.18779        -1.15147        0.259276
LJ              -nan            -nan            -nan
LJ          -2.46323        0.678923        -2.24357
LJ          0.638913          1.8701         1.23923
LJ              -nan            -nan            -nan
