108
#Comment!
LJ         -0.111596        -1.01495         -1.1235
LJ          -1.96183      -0.0227223        -1.42712
LJ           1.92281       -0.325274        -0.66662
LJ           -2.0996      -0.0908281        0.438374
LJ           0.88865        -1.15191         1.75462
LJ           1.57366        0.378761         1.03337
LJ          -2.32958      -0.0154431        -1.31309
LJ           1.66108        -2.14079       -0.731826
LJ          -2.33835       -0.602401        -1.14753
LJ         -0.437913         2.17808        0.296106
LJ              -nan            -nan            -nan
LJ            1.6533        0.191711        0.269558
LJ          0.302525        0.388911         2.43517
LJ              -nan            -nan            -nan
LJ          0.275991         1.93798        0.304236
LJ              -nan            -nan            -nan
LJ              -nan            -nan            -nan
LJ              -nan            -nan            -nan
LJ         -0.632897       -0.712358         1.31387
LJ              -nan            -nan            -nan
LJ           2.05047        0.303773        0.122154
LJ         -0.440807        -1.64113       -0.476867
LJ           2.20084       -0.874438        -2.09864
LJ          -1.91526        0.229565        -1.17575
LJ           1.18403        -2.43052         2.56428
LJ          -1.53386         2.51962        0.613548
LJ          0.726906        0.535223        -2.05918
LJ         -0.155876         1.49502         1.15207
LJ           1.32708         -2.2474         1.97392
LJ         -0.724616       -0.683273         -1.5946
LJ              -nan            -nan            -nan
LJ          -1.01672         2.38753        -2.04842
LJ              -nan            -nan            -nan
LJ          0.444465        0.927173         1.74292
LJ              -nan            -nan            -nan
LJ          -1.06305       -0.888154        0.910229
LJ          -2.35701        -0.13769        0.122131
LJ          -2.23001       -0.871256        -1.50765
LJ         -0.731577         2.45337       0.0565259
LJ          0.130918        -2.12668        0.662369
LJ          0.719103       -0.751634        0.539161
LJ          0.948991        0.451622         1.04644
LJ           -2.4405        -1.60403          0.7385
LJ         -0.487696         1.10109        0.875259
LJ          -1.41156         2.10026        0.371914
LJ          -2.17439        0.590521         1.94109
LJ           2.30558        0.591938       -0.774935
LJ         -0.755453        -1.82982         2.20101
LJ           2.16303         2.18683         2.34251
LJ           1.00576        0.101583         1.45679
LJ           1.78848       -0.962285        -1.76276
LJ          0.681398        0.776702         2.45483
LJ              -nan            -nan            -nan
LJ           1.01074         -2.4246         2.45491
LJ          -1.56804         1.68247       -0.749092
LJ         -0.266095         1.28544        -1.12368
LJ           1.78691          2.5245        -1.11098
LJ          -1.14773        0.846361        0.597363
LJ          -2.53726        -2.13247        -1.72391
LJ          -2.28874         0.28389       0.0132425
LJ          -1.06583       -0.209561        0.516111
LJ            -2.201         1.31428          2.1788
LJ         -0.981127        -1.52941        0.405848
LJ          -1.05943         1.42947        -2.18169
LJ              -nan            -nan            -nan
LJ           -2.2084         2.12482          0.2228
LJ          -1.04067        -2.05573       -0.401245
LJ              -nan            -nan            -nan
LJ         -0.122432       -0.900439         2.40264
LJ          -2.45151        -0.82655       -0.793091
LJ           1.94416        -1.54885         2.42511
LJ          0.137806        -1.90445        0.290024
LJ          -1.18877         2.34538        -2.28946
LJ          -2.31808        -1.61614        -1.77733
LJ          0.989913         1.83492        -0.64242
LJ          -1.51536        0.616283       0.0205242
LJ          0.837269        -2.04548        -1.20222
LJ          -2.36103         -1.9685         2.29742
LJ           2.26315         1.62991        -1.43326
LJ         -0.320502        0.188057        -1.61883
LJ          0.758123         1.34854       -0.485215
LJ           2.32956        -2.33846        0.375307
LJ           -1.1492         1.11557       -0.802829
LJ          -1.83658       -0.975164         2.41445
LJ          -1.58365       -0.948184        -1.48747
LJ         -0.955574         1.75882       -0.985601
LJ         -0.321455        0.971482       -0.630124
LJ           1.05857        0.186731       -0.936338
LJ         0.0862397         2.02636      -0.0992694
LJ           1.14921         1.10502       -0.143869
LJ              -nan            -nan            -nan
LJ           0.33098          1.2527        -1.91179
LJ           2.06249        0.608914       -0.208474
LJ           1.27032         1.66361         2.03458
LJ           -2.0274       -0.830489        -2.48708
LJ          -1.62256         1.39961        -0.24248
LJ         -0.256375        0.172473        0.258592
LJ           1.21577         1.42334        0.786784
LJ              -nan            -nan            -nan
LJ          0.969246       -0.362032        -1.52447
LJ          0.422394        -2.06269       0.0616325
LJ          -2.35133        -2.27794         1.23641
LJ           1.72192        -2.40638         1.53255
LJ           1.34947         -1.7626       -0.996495
LJ              -nan            -nan            -nan
LJ         -0.182065        0.334144         2.06019
LJ           2.17553          1.9676         1.66525
LJ              -nan            -nan            -nan
