108
#Comment!
LJ          -0.21095        -1.62549        0.446063
LJ           2.48465        -1.31136       -0.991158
LJ          0.146113         1.22564        -1.29457
LJ         -0.509338      0.00837311        -0.69258
LJ          0.634553        -2.17156       -0.894108
LJ          0.469079         2.46245       -0.111459
LJ           1.52509         1.57586        0.117228
LJ          -1.04786          1.3317        -1.62295
LJ          -2.18005        -1.48863         1.45689
LJ          0.326605         2.45138         1.68226
LJ              -nan            -nan            -nan
LJ          -2.52011         1.89273        0.513546
LJ          0.508499       -0.549075        -1.14876
LJ          0.534201        0.823253        -1.04449
LJ          0.341582        -2.30392         2.06903
LJ           -2.2134        0.808506         1.10699
LJ              -nan            -nan            -nan
LJ              -nan            -nan            -nan
LJ         -0.132544        0.567168       0.0593808
LJ              -nan            -nan            -nan
LJ          -1.11645        -2.06322       -0.929548
LJ          0.670516       -0.682591        -2.25883
LJ          0.838784        -2.32548         2.30192
LJ           1.52966        -1.51057       -0.540382
LJ          0.526757         1.47594          1.0429
LJ          -2.24265        0.704383        0.888315
LJ         -0.470548        -1.50107         -1.4226
LJ           1.90143       0.0285389        -1.15634
LJ          -1.73938        0.923651         2.02915
LJ          -2.07359        -1.16535       -0.598489
LJ           1.33152        -1.17877       -0.848304
LJ          -1.15025        -1.54147       -0.886733
LJ              -nan            -nan            -nan
LJ          -1.95402      -0.0357763         2.07236
LJ              -nan            -nan            -nan
LJ           2.30953       -0.950922        -1.21807
LJ          -1.54216       -0.456063         1.00694
LJ           -1.8484       0.0249972         1.56689
LJ          0.852339        -1.89796         1.86139
LJ          -1.78968         1.23796       -0.715112
LJ           1.26414        -1.31725       -0.801307
LJ          -1.09591        -1.02956       -0.581194
LJ           1.98589         1.23481         1.79737
LJ         -0.273438        -2.55209        -1.24558
LJ          0.786308        -1.78894       -0.812033
LJ          -2.35164        -1.01223        -1.79285
LJ          -1.62517         2.15857        -1.43263
LJ           2.51131         2.27589        -1.93125
LJ          0.789827         1.40192         -1.3453
LJ          0.812407         1.75447        0.917265
LJ         -0.986555         -1.0738         1.43854
LJ         -0.584687       -0.275219         1.65667
LJ              -nan            -nan            -nan
LJ          -1.76671        -1.54557        -1.27681
LJ          -1.32728        -2.39083        0.815363
LJ         -0.688558         1.93045       -0.441089
LJ         -0.188503         0.56715       -0.865196
LJ           2.38905        -1.21424         2.09578
LJ         -0.143172         2.14427       -0.277611
LJ          -2.28001        -2.46955       -0.349475
LJ           1.33831      -0.0509592        -1.19478
LJ          -1.73442       -0.499895        0.314324
LJ           1.79097         1.10863        0.417173
LJ          0.561615        0.152643        -1.10695
LJ          -2.01627        0.988994        -1.08923
LJ         -0.922726         1.80198        0.782831
LJ          -1.61833        0.609041         2.27068
LJ              -nan            -nan            -nan
LJ          -1.70429       0.0568042        -1.96087
LJ           2.51268       -0.368706         2.05669
LJ          -2.42071       -0.277354       -0.694699
LJ          -1.67537       -0.201404        0.247323
LJ           1.20302        -2.26155        -1.57926
LJ          0.116597         1.13842       -0.105289
LJ        -0.0376222         1.69926       -0.872955
LJ        -0.0193865         2.00934        -1.25031
LJ          0.261466       -0.488468         1.43827
LJ           1.86108       -0.419236         1.85566
LJ          -1.36903       -0.478168         2.39728
LJ           1.33407         2.43717         1.90776
LJ          0.767418         2.35638        -2.05525
LJ           0.98224       -0.211208         1.10019
LJ           -1.9823        0.417295        0.194357
LJ          -2.42844         1.43846         2.14109
LJ          0.570937         0.40273        -1.35029
LJ           -1.8161          1.4749         -2.2582
LJ          -0.45953       -0.523059         1.29729
LJ           2.41497         1.01928       -0.316629
LJ           2.02864         1.92277         -1.0256
LJ          -1.68204        -1.70476        -1.26111
LJ              -nan            -nan            -nan
LJ          -1.81146         1.58984        0.223404
LJ          0.791035         1.80513        -1.44194
LJ         0.0248663         1.07887           1.297
LJ          0.257256        -2.45705        -2.20402
LJ          -1.92027         1.22298        -1.32301
LJ           1.03526       -0.580334        0.723847
LJ           1.25431       -0.241986         2.12921
LJ        -0.0328564         1.19359         1.32854
LJ           1.06582       -0.656986        0.673012
LJ         -0.211607       -0.827931        -1.33598
LJ          -1.82959        0.850309        -2.26885
LJ           2.32569        -1.76738        0.163301
LJ         -0.784325       -0.336818       -0.827012
LJ          0.286961        0.927668        -1.81181
LJ          -2.51537        -2.02952        -1.63837
LJ         -0.468424       -0.292037         2.14901
LJ              -nan            -nan            -nan
