108
#Comment!
LJ          0.634421        0.552352        0.478804
LJ          -1.93185        0.840917        -1.86074
LJ          -1.32022         0.77914         -2.2382
LJ          -1.85484        -1.84361        -1.23961
LJ          -2.28625       -0.404017        -1.74451
LJ           2.49335          2.1568         0.80446
LJ          -1.99718        0.872252        0.766934
LJ           2.41428        -2.42166       -0.976067
LJ           1.39841         2.32991       0.0841295
LJ          0.942396         1.31107         1.83236
LJ              -nan            -nan            -nan
LJ          -1.00678        -1.77751        0.723316
LJ           1.53445        -1.84469          1.6782
LJ           1.06592      -0.0995067       -0.341778
LJ          -1.77056        -1.53494        0.839146
LJ          0.724601        -1.78567         1.54232
LJ          0.869818        0.698476       -0.978981
LJ         -0.614369        -1.72319        0.175113
LJ          -1.94384          -2.338        -1.95035
LJ          0.419099        0.940572        0.417585
LJ           1.57672        -1.16355       -0.726231
LJ           1.69189        -2.05095        -2.09353
LJ          0.214133         2.36305       -0.189007
LJ         -0.468195          2.1414         1.35252
LJ           2.32606        0.875916        -1.41921
LJ         0.0681041       -0.589244       0.0597154
LJ           1.44017        -1.88333         1.90639
LJ          -2.41498         1.86771       -0.504487
LJ          -1.51664         1.91129        0.590956
LJ          -1.98773        0.526889        -1.51547
LJ          -1.48058        -0.24531        -1.30841
LJ          -1.67005         1.44961         1.18008
LJ              -nan            -nan            -nan
LJ           1.92368         -2.2055        -1.38723
LJ           1.60567        0.081879        0.555924
LJ          0.557923        -1.27448         1.43664
LJ         -0.745867         2.20647        -1.06285
LJ          -1.41406         1.43867       -0.709846
LJ          0.932317        0.579457        -2.23938
LJ          -2.40812        0.780241        -2.12903
LJ          -1.86966        -1.37413        0.553938
LJ          -1.12071         1.89359         1.96022
LJ         -0.856111         1.62508       -0.503327
LJ          0.728881        -0.31783       -0.392696
LJ           1.72763        -1.05227        -2.37711
LJ           1.66309       -0.205204           1.236
LJ          -0.63984         2.04245        0.694255
LJ          0.560393         1.94582         1.00674
LJ          0.902324         1.25556         -1.5083
LJ          -2.32815         1.72536        0.212248
LJ         -0.483493      0.00062561        -2.33317
LJ           -1.9805       -0.411372       -0.725697
LJ        -0.0791855         1.09731         1.18606
LJ          0.261899         1.90447       -0.370547
LJ          0.339047         1.37378         2.34424
LJ          -2.04112         1.98402       -0.374294
LJ         -0.858668        0.833178        -1.62276
LJ           2.42104        0.705373         1.65403
LJ          0.353485        -2.47528        0.221055
LJ         0.0881907        0.461359        0.278572
LJ           1.66566        0.790372         2.30073
LJ           -2.5317        -2.39168        -2.50953
LJ          -1.26127     -0.00856043        -2.19422
LJ           1.48233        -1.05714         1.77749
LJ           2.32533         1.76904        -1.33403
LJ          0.827699        -2.20798        -2.50985
LJ         -0.637462         -1.7128       -0.446885
LJ          0.803605         1.55261        0.321122
LJ          0.537985         1.41473       -0.193103
LJ          0.472847       -0.708549         1.95909
LJ          0.664906       -0.236463         1.07983
LJ          0.839142        0.265622          1.9372
LJ         -0.097545         0.47254        0.238266
LJ           1.29141         -1.1528      -0.0952926
LJ           2.19437        0.894863       -0.319425
LJ          -2.39457       -0.533521           2.191
LJ           2.18448        -1.72139          1.9489
LJ          -2.52405         1.02955         2.26064
LJ          -2.06123         1.63839        0.123992
LJ          -1.69501       -0.875003        -1.06302
LJ          -1.37274       -0.548535        0.977661
LJ          -1.41611        0.553522          2.1775
LJ          0.707853       -0.529934       -0.595636
LJ          -2.34375        0.708096        -1.16424
LJ           1.47465        -1.69572        -1.94017
LJ          -1.35065         1.21187         1.27441
LJ           0.63423         2.36809         0.76995
LJ           1.74915        -1.23822        0.269856
LJ           2.29738         2.26536        0.200554
LJ          -1.52861        0.754687        -2.13831
LJ         -0.934535         -1.2891        -1.83871
LJ           1.34029         1.87466         1.59352
LJ          -1.31782        -1.08664       0.0138698
LJ           -1.8726        -1.12601       -0.330331
LJ           0.12146        0.329478          1.0568
LJ          -2.06454         2.38013         1.67814
LJ           2.29438         2.27298         1.75785
LJ          0.464373        -1.83426         0.65235
LJ          0.419872       -0.525839         1.05734
LJ          -1.64756         1.87925        0.103599
LJ          0.770975         2.53467       -0.226817
LJ           0.86555         2.09432         1.73456
LJ          0.186154        -1.09382      -0.0648098
LJ           1.09971         1.81439         2.52986
LJ          0.180826       -0.382953        -1.81365
LJ          -1.24689        0.678963       -0.813055
LJ          0.640545         2.31158        -2.13344
LJ         -0.190066        -1.06638       -0.950232
