108
#Comment!
LJ          -2.06756         1.10895         2.48559
LJ          -1.47309       -0.504924        -1.48302
LJ         -0.221518         1.17328        0.381321
LJ         -0.106136           2.174        0.972773
LJ          -2.21546         1.80235        -2.18768
LJ         -0.118656        -1.80755          2.5024
LJ           -1.3762         2.09478        0.846178
LJ            1.9161         1.65602        -1.32462
LJ          -1.32768          2.3629     -0.00136824
LJ           1.59953         1.27868         1.83503
LJ              -nan            -nan            -nan
LJ          -1.27141        -1.73946        -1.12821
LJ         -0.860108     -0.00439507         2.49019
LJ              -nan            -nan            -nan
LJ          -1.47085      -0.0742125       -0.313777
LJ              -nan            -nan            -nan
LJ              -nan            -nan            -nan
LJ              -nan            -nan            -nan
LJ          -0.30132        -1.51055        -1.21721
LJ              -nan            -nan            -nan
LJ           1.88325         2.23358        0.669571
LJ          0.867267       -0.987673       -0.966939
LJ           2.39357       -0.659182        -2.47035
LJ              -nan            -nan            -nan
LJ          0.955458        -1.01871        -1.50711
LJ         -0.724709        -1.08615         1.72924
LJ         0.0200437         1.32298       -0.550902
LJ          -1.12921       -0.422317        -1.50463
LJ          -2.11469       -0.787256        -2.26333
LJ         -0.210583        -2.00385         1.62585
LJ              -nan            -nan            -nan
LJ          0.321681         2.49536        -1.94084
LJ              -nan            -nan            -nan
LJ          0.504583         -1.6392        -1.22475
LJ              -nan            -nan            -nan
LJ          -1.49472       -0.758982         2.25609
LJ           2.33929         1.25014        -2.20213
LJ         -0.118042         1.60797         1.39882
LJ          -1.55406       0.0955732        -2.45142
LJ         -0.427892       -0.623045       -0.387923
LJ            1.1249        0.636787       -0.551842
LJ           1.79942       -0.706848        -1.43852
LJ          0.209387       0.0299431        0.767102
LJ         -0.548336         1.81962      -0.0137839
LJ         0.0949436         1.38153        0.954724
LJ             1.032       -0.242854         1.87807
LJ           2.16176        0.991137         1.63305
LJ           1.24364         1.69548         1.97914
LJ          -1.21882       -0.982025       -0.705701
LJ           1.70192         1.05989        -1.15221
LJ          -2.55211        0.905179        0.942597
LJ           1.75778        -1.37614         1.39345
LJ              -nan            -nan            -nan
LJ          0.321269        -2.00073        0.437229
LJ          -1.76632        -2.17079          2.2865
LJ            1.8819        -2.55981       -0.664375
LJ         -0.508177         -1.6628       -0.335998
LJ          0.626156         1.41515        0.212009
LJ           1.19861         2.15161         2.18642
LJ          0.710233        -1.19435       -0.333324
LJ            1.1215        -1.62606        -1.88787
LJ          -1.32091         1.18438        -2.43333
LJ           1.33161         1.63843        0.475224
LJ              -nan            -nan            -nan
LJ              -nan            -nan            -nan
LJ          0.427025         1.49727        -1.29652
LJ         -0.880744       -0.899342         1.72878
LJ              -nan            -nan            -nan
LJ        -0.0996306        -1.86917        -1.02426
LJ           1.98768      -0.0664795        -1.51077
LJ          0.458495       -0.998729        0.441902
LJ          -1.41729        -1.37651        -1.74076
LJ            1.1985        0.127188       -0.590609
LJ          -1.11011        0.982836         -1.7726
LJ         -0.842284         1.31945        -2.16861
LJ        0.00740415         1.02037        -1.84107
LJ         -0.412544          2.2309         2.44511
LJ         -0.930733         2.20741         -1.4018
LJ          0.754183        0.361916         2.39615
LJ          0.504516       -0.669763        -2.50354
LJ          0.624129        -1.53729        0.479334
LJ         -0.910994         -2.3814       -0.368056
LJ          -1.16187        0.312874        -2.12471
LJ           1.58168        -1.44306        -1.47149
LJ          -1.65693        0.820603          2.3447
LJ           2.32924        -1.12369         1.44825
LJ          -1.05591         1.62878        -2.13181
LJ           -1.6997        0.332947        0.612747
LJ          0.144985         2.51443         2.30377
LJ           2.07925         -2.5196       -0.015627
LJ              -nan            -nan            -nan
LJ          0.742865        -2.01398       -0.762425
LJ         0.0884662        0.570905         -2.0496
LJ           1.74028        -2.23662        -1.56013
LJ          -2.09371          1.3104        0.389867
LJ         -0.109997        -2.34466          1.8363
LJ            1.2499        -2.24207        0.532698
LJ           -2.0704        0.649628        -1.54038
LJ              -nan            -nan            -nan
LJ            1.6811         1.32909        0.675984
LJ          -1.94971         -2.2297       -0.680416
LJ           1.94108        -2.09461        0.138631
LJ          -1.18733       -0.690421        -1.19262
LJ          0.491971        -2.07746        0.718735
LJ              -nan            -nan            -nan
LJ         0.0176219        -2.14982        0.310086
LJ          -2.13794       -0.448856         0.77655
LJ              -nan            -nan            -nan
