108
#Comment!
LJ           1.68286         2.55721         1.53827
LJ          0.263421        -1.67893        -1.91865
LJ           1.61687        0.939908       -0.220816
LJ           1.68085       -0.479131       -0.487132
LJ           1.57036       -0.761328         1.79476
LJ           2.39497        0.682807         2.32567
LJ           1.08658         1.25641         0.34231
LJ          0.210476       0.0691503        -1.42001
LJ           1.44475        -1.98056        0.686559
LJ         -0.416828        -1.65225       -0.810969
LJ              -nan            -nan            -nan
LJ         -0.100883         1.00467      -0.0412686
LJ          -1.21051         2.09865         2.45962
LJ              -nan            -nan            -nan
LJ         -0.995532       -0.104088       -0.822375
LJ              -nan            -nan            -nan
LJ              -nan            -nan            -nan
LJ              -nan            -nan            -nan
LJ          0.704458        -1.63739         1.86728
LJ              -nan            -nan            -nan
LJ           1.32918        -2.00652        0.204604
LJ         -0.424622         1.88459       -0.846716
LJ          -2.29214         -1.3158        0.268655
LJ              -nan            -nan            -nan
LJ          -1.69177        -2.12977       -0.829235
LJ           -2.0027         2.47882       -0.176272
LJ           2.11164         1.36811       -0.678199
LJ          0.304316       -0.453214         1.03686
LJ          -1.40542         0.11315         1.13147
LJ          0.323276         1.70764         -2.4805
LJ              -nan            -nan            -nan
LJ          0.855391        -1.07769        -2.35832
LJ              -nan            -nan            -nan
LJ         -0.400825        0.611487       -0.346827
LJ              -nan            -nan            -nan
LJ          0.450951        -2.23795      -0.0952796
LJ         0.0756292         -1.4267        0.879142
LJ         -0.153478        -2.36046         1.79349
LJ         -0.923501        -1.60345        -1.91381
LJ          0.280175        -1.50245         1.00324
LJ          -1.23738         2.21706        0.859579
LJ           2.37906        -1.06461        -2.42004
LJ          -1.20301        0.600214         1.90608
LJ         -0.949109         1.03819         1.72744
LJ           1.42601       -0.347447        -1.21651
LJ           1.41361         2.26024         1.40729
LJ         0.0217205           1.394        -2.10197
LJ          -1.77899       -0.920513         1.84372
LJ         -0.732475        -2.28559         1.36267
LJ           1.57267        0.614054        -1.27827
LJ         -0.259824         2.36624        -2.12156
LJ          0.948705        -1.31096        -1.46064
LJ              -nan            -nan            -nan
LJ           2.05695        0.156081        -2.54378
LJ           1.11986        -1.17664       -0.236426
LJ          -1.61548        -2.07188         1.32707
LJ          -1.35595         1.92731         -1.5674
LJ        -0.0337062        -1.61052      -0.0503534
LJ           -1.8015        0.938529       -0.938309
LJ           -1.2448       -0.329773       -0.975718
LJ          -1.06324        -1.37471       -0.138948
LJ          -1.23978         1.58595        -1.19966
LJ           2.04094        -2.25385        0.500802
LJ              -nan            -nan            -nan
LJ              -nan            -nan            -nan
LJ          0.598327       -0.884371       -0.206206
LJ           1.48921         1.33328        -1.21478
LJ              -nan            -nan            -nan
LJ          0.690538         2.08929       -0.530015
LJ         -0.506044       -0.927602         1.17418
LJ          -1.18795        -1.18827        0.896407
LJ          -2.26178       -0.748673         -1.9314
LJ          0.503431         2.39935        0.655686
LJ          -2.43229        0.858637         1.77048
LJ         0.0670243         1.99385        0.991811
LJ           2.36828         1.47346        -2.42202
LJ         -0.618874        0.985664       -0.602266
LJ           2.41485       -0.212588        -1.91901
LJ          -1.09241         0.05459        -2.10014
LJ          -1.22258         1.56338        -2.54429
LJ         -0.613082         2.06939        -1.08137
LJ           -2.4707        0.947972        -2.23788
LJ         0.0965337       -0.116296       -0.985836
LJ         -0.675422        -2.43761         1.92231
LJ           1.97712        0.524025       -0.751315
LJ          0.387818       -0.238833        0.401207
LJ           2.06183         2.16096        -1.03151
LJ         -0.271738        -2.06121        0.916067
LJ          -2.09167         1.91237        -1.88538
LJ          -1.00669        -1.80136         1.70923
LJ              -nan            -nan            -nan
LJ           1.91331        -1.31212        -1.00533
LJ          -1.76148        0.614814         1.58705
LJ         -0.656541         1.01133        0.643114
LJ           1.80109       -0.927582      -0.0571906
LJ          -2.34861        -1.73634       -0.862783
LJ           1.62629         1.49269        -2.26429
LJ          -1.74978        -1.11331          1.7258
LJ              -nan            -nan            -nan
LJ          -1.59061        0.972735        0.320078
LJ          0.568099         2.18021        0.119048
LJ           2.56119        -1.83612         1.50221
LJ          -2.21134         2.39689         1.69791
LJ           2.04136         1.13451        -2.33845
LJ              -nan            -nan            -nan
LJ          -1.68493        -1.29171         2.07081
LJ         -0.605762        -1.64674       -0.845862
LJ              -nan            -nan            -nan
