108
#Comment!
LJ         -0.622839         2.43047         1.42837
LJ          0.399446        -1.08457        -2.52372
LJ          -1.02884         1.03924        0.178623
LJ           1.03885         0.22577        0.570677
LJ           1.63703        -1.29029         2.15784
LJ          0.890449          2.1475         2.33839
LJ         -0.651876        -1.03321         1.72814
LJ          0.422625        0.784305        -1.89946
LJ           1.21271         1.51418       -0.925318
LJ           2.36356       -0.691027        -2.11035
LJ              -nan            -nan            -nan
LJ           2.10273        0.839148        -2.30522
LJ          0.190838         2.18036         -2.2622
LJ           1.36113         1.21927        -1.54386
LJ           2.01365         1.20474        0.974612
LJ          -1.33203         2.34469        0.321894
LJ              -nan            -nan            -nan
LJ              -nan            -nan            -nan
LJ         -0.248504        0.101239      -0.0331438
LJ              -nan            -nan            -nan
LJ          -1.19825         2.31284        -2.33613
LJ          -1.94649        -1.44017       0.0550495
LJ          0.897846       -0.144704        -2.30581
LJ          -1.68136          0.7365         0.96135
LJ           2.41906        -2.13509       -0.519295
LJ          -2.03168         -1.9264       -0.937941
LJ           0.69058         1.54221        -1.60183
LJ           1.19067         1.27782         1.80374
LJ          0.644512          1.9283       -0.686718
LJ          0.539937         -0.9152        -2.03758
LJ          -0.92273       -0.547191        -2.44811
LJ           2.47046         1.51317         1.29164
LJ              -nan            -nan            -nan
LJ         -0.576574          2.0156        -1.90228
LJ              -nan            -nan            -nan
LJ          -1.31917        -1.87915        0.348427
LJ         -0.531593        -1.93639        0.921313
LJ          -1.74743         1.60246       -0.413107
LJ           2.19461        -1.00976        0.896734
LJ           2.50843        -1.02867       -0.805582
LJ          -2.17372         -0.1864        0.477586
LJ           1.58992         1.25407         1.77487
LJ          -2.54286        -2.05928        -1.44401
LJ           2.46303        0.153723       -0.431161
LJ         -0.108758        0.101619        -1.04216
LJ         -0.215723        -2.13847        0.324829
LJ           1.96476        0.643163         2.46273
LJ         -0.151403         1.51875         1.99569
LJ          -1.98955        -1.08135        0.310371
LJ           -2.4405        0.449126        -2.27744
LJ           1.43784         0.20887        -1.86749
LJ           2.41051         1.65173         1.37205
LJ              -nan            -nan            -nan
LJ          -2.36628       -0.665144         1.43862
LJ         -0.141486         1.74189        0.851448
LJ          0.663844        0.262584         2.35529
LJ           1.74519         -2.0389       -0.302173
LJ         -0.112603         1.79806        -2.13293
LJ          -1.39208         -2.3813        -1.33844
LJ           2.26645        -2.19774       -0.237962
LJ          -2.42185         1.73229         -1.2097
LJ         -0.451401       -0.494096         2.49035
LJ           1.95473         2.51208        0.952174
LJ          0.647551         1.53806        0.133347
LJ          -2.11017       -0.459081         1.69594
LJ         -0.161342        -1.06754         1.67982
LJ           1.67353        0.836033         1.59428
LJ              -nan            -nan            -nan
LJ            1.7436         1.04387         1.35605
LJ            1.3735        -1.38298        -2.48468
LJ          0.497001        -2.47137         0.40047
LJ           -2.1012        0.387955         2.51949
LJ           0.16102         1.63086         2.54486
LJ         -0.688075        -1.58301         1.09327
LJ          0.590255        -1.01284        -2.36137
LJ          -1.86646       -0.894927       -0.192169
LJ           1.43383        0.848537       -0.417569
LJ             2.362        0.554345          2.2809
LJ           1.76554         1.55116        -1.84871
LJ          -1.95496        0.193351      0.00132237
LJ          0.849083        -2.47395         1.72172
LJ           1.35471         1.40695          1.7882
LJ           2.04921        0.533183       -0.258695
LJ          -1.90464        0.964916        -1.91115
LJ            1.4542         2.17567        -2.51191
LJ          -2.45713        0.540172         2.55523
LJ            1.1552        0.990196       -0.773421
LJ            1.8998        -2.03538        -1.54211
LJ          0.357105         1.13157         -2.4064
LJ           2.04989         1.93393        -0.51154
LJ              -nan            -nan            -nan
LJ         -0.414959         1.97092         1.24413
LJ          -2.03191        -1.23737         2.29649
LJ          -2.00612         1.95345         2.27394
LJ           1.97788        -2.24632          -1.462
LJ          -1.41384         1.83377         2.22842
LJ          -1.95282        -2.00324        0.574876
LJ          0.532906         1.57192         2.51968
LJ          -1.33423         -1.7156         2.47169
LJ           1.51912         2.01709      -0.0246392
LJ          -1.67981       -0.256523       -0.102379
LJ          -2.21402         2.37794       -0.601672
LJ          -0.85889         0.83545         1.45064
LJ         0.0123564       -0.637546        -2.50943
LJ            0.9629       -0.659264        0.122205
LJ           1.81975       -0.675588        0.629632
LJ           1.49921        -1.93918        -1.02529
LJ              -nan            -nan            -nan
