108
#Comment!
LJ           1.54496        0.217821         2.31428
LJ           1.64473        0.169584       -0.377229
LJ           -1.4565        -1.25285        0.823029
LJ           1.59236        -1.87248          -0.528
LJ          -2.15059     -0.00117605        -1.83388
LJ          0.292741       -0.864072        0.426553
LJ          0.768007        -1.84126        -1.19167
LJ           1.95848        0.994431       -0.355023
LJ          -2.15673        0.414489        -1.49556
LJ         -0.989595        0.404069        0.850475
LJ              -nan            -nan            -nan
LJ           2.45111        -1.96159        0.660363
LJ          -1.23128        -1.13696         1.96833
LJ              -nan            -nan            -nan
LJ           1.38939         1.03682         1.69429
LJ              -nan            -nan            -nan
LJ              -nan            -nan            -nan
LJ              -nan            -nan            -nan
LJ           1.42259        -1.62933        0.646604
LJ              -nan            -nan            -nan
LJ          0.845111        -1.07185       -0.426398
LJ           1.82146        0.317232        0.493041
LJ          -1.31059         1.62753        -0.22817
LJ           1.81959        -2.04536       -0.442379
LJ           2.24224        -1.39135         1.25006
LJ           1.05846        0.601675       -0.455453
LJ          0.772426          1.5886         1.48473
LJ          0.877408        -2.44607         0.82981
LJ           1.62957         1.30647      0.00325664
LJ           2.06529         1.89017         1.92187
LJ              -nan            -nan            -nan
LJ        -0.0107895         2.18884       0.0132298
LJ              -nan            -nan            -nan
LJ         -0.567029        -1.43619       -0.547499
LJ              -nan            -nan            -nan
LJ          -1.95413         2.56208        0.531186
LJ           2.38061        -1.09352        0.620001
LJ          -1.57497        -2.39603        -1.53512
LJ           1.43017         2.17523        -1.84868
LJ          -2.24841         2.43126         2.05316
LJ           1.75011        0.810456           2.075
LJ           2.42989       -0.676915        -1.42964
LJ          -2.15101       -0.926035         -1.6522
LJ         -0.911361         0.48784         2.08692
LJ          0.932145         1.08999         2.50015
LJ        -0.0892523       0.0880403         2.12244
LJ           2.11995       -0.215776        0.435298
LJ           0.31611       -0.310523         -2.1317
LJ          0.427451        -1.35572        -1.34265
LJ          0.409734         1.63917         2.44125
LJ          -2.12785        -1.98381        -1.58939
LJ           1.64345       -0.161024         1.27617
LJ              -nan            -nan            -nan
LJ          -1.56128        -1.26938        -1.90552
LJ          0.613505         1.20367         1.86095
LJ         -0.201727         1.22583        -2.00659
LJ          0.638248         -2.4669     -0.00995527
LJ          -1.90625        -2.10945       -0.403471
LJ         -0.736317        0.270044        -1.47088
LJ          0.266668         2.54403         2.36789
LJ           2.40375       -0.229255         1.77454
LJ          0.960972         0.32014        0.734181
LJ          -1.47386        -1.59102      -0.0524089
LJ           -2.1765         2.30989       0.0969969
LJ              -nan            -nan            -nan
LJ          -2.16037        0.541754       -0.381773
LJ          -2.52212        -1.15418         1.75109
LJ              -nan            -nan            -nan
LJ         0.0375617        -1.61818         1.71396
LJ           2.12784       -0.272572        -1.66621
LJ         -0.121821       -0.464574        -1.68961
LJ          0.996962       -0.557185       -0.236595
LJ           0.48848        -1.20748         1.99252
LJ          -2.29953        -1.95733        -1.51263
LJ           1.71213        0.314888         1.51716
LJ           2.50055       -0.909326         2.25909
LJ         0.0557477        0.972095        -2.37793
LJ          -1.42836         2.22906       -0.503424
LJ          -1.04831        -1.89511        0.141277
LJ            2.3934        -1.74441        0.501751
LJ         -0.642187         1.59609        -2.32011
LJ          0.181899         1.80219       -0.716726
LJ         -0.595576        0.368009         1.96552
LJ         -0.281458         1.89557        -1.05166
LJ          -2.08744         2.00929       -0.338568
LJ           1.14287        -1.90762         1.96039
LJ         -0.575542        0.205526         0.93511
LJ         -0.759671        0.848781       0.0371824
LJ          -1.36834       -0.793023         1.34778
LJ         -0.530224        -0.66214         2.05806
LJ              -nan            -nan            -nan
LJ          -1.93277         2.47444        0.604067
LJ         -0.908189       -0.477125         1.13121
LJ         -0.964527         1.66282        -1.21046
LJ          -1.24344       -0.316063      -0.0732932
LJ         -0.462908         2.00377        -2.19397
LJ          -1.82381       0.0727554         1.74725
LJ           1.08761        -1.43363         1.57493
LJ              -nan            -nan            -nan
LJ          0.955682         1.39178       -0.847919
LJ           0.63268        -1.65514        0.651589
LJ           1.85125        -1.77812        -1.09224
LJ           1.76118        -0.92308        -2.16225
LJ           1.18537       -0.231371         2.07696
LJ              -nan            -nan            -nan
LJ          -1.15087        0.421037        -1.69774
LJ           2.43027        -1.85589         1.81441
LJ              -nan            -nan            -nan
