108
#Comment!
LJ          0.126107         2.07609         1.90885
LJ          -1.74693       -0.948428         1.38876
LJ          0.665029        0.845678         2.19477
LJ        -0.0818561          0.9042        -0.58243
LJ          0.711537         1.37213       -0.666436
LJ          -2.37495          1.4286         2.06033
LJ           2.21299         1.42735         1.23423
LJ          -2.20716        0.029355        -2.34455
LJ           1.78709         1.89409        -1.10357
LJ           2.29087        -2.53831         1.98886
LJ              -nan            -nan            -nan
LJ          -1.07172        -1.89286        0.987162
LJ           1.00839        -1.72255         0.60933
LJ            2.0133        0.141716       -0.481473
LJ           1.22484         1.13279         2.51196
LJ          -1.18489         2.11278        -1.20112
LJ           2.52779        0.483344        -1.10863
LJ           2.27237          -2.197         2.37571
LJ          -1.31232         1.45395       0.0190083
LJ          -1.65113        -2.40534        0.348566
LJ           2.51295        -1.10848        0.667702
LJ         -0.628898        -1.26584         2.56327
LJ         -0.165229       -0.237402      -0.0141823
LJ          -2.37796        0.975907       -0.324973
LJ          -2.49938         1.26471        0.175316
LJ            2.4466        -1.21707       -0.172165
LJ          0.597954       -0.808522        0.599755
LJ          -2.45947        -1.87923        -1.94158
LJ          0.215968       -0.941592        0.691835
LJ           -1.1732        -1.70979        0.140498
LJ          0.896869         1.09624        -1.03269
LJ          -2.43958        -1.08398        -1.35738
LJ              -nan            -nan            -nan
LJ         -0.150932        -2.39066        -1.86807
LJ          -1.83655        0.185571         1.00129
LJ          0.336717        -1.98301        -1.07897
LJ          0.810597        -1.67212        -1.71335
LJ          0.357485         -1.6483         1.95597
LJ           2.34199        0.421925        0.898774
LJ           2.12737         2.02322        -1.54273
LJ           1.83406        0.178799        -2.32148
LJ           1.14382        -1.13131        -2.20494
LJ           1.08833         1.55107        -2.49218
LJ           1.96577         1.25824        -1.16117
LJ         -0.577512        -1.94874        -2.24246
LJ         -0.516252        -1.24242         2.07505
LJ         -0.986697         2.50604         -2.0409
LJ          -1.27925         1.41148         1.33938
LJ           1.71585        -2.53054         2.53369
LJ           1.17776        -2.20617         2.42164
LJ           1.69383        -1.50117        -1.74538
LJ          -1.39711        0.986702        -1.28896
LJ          -1.14577         1.93302        -1.33772
LJ          -2.31513        0.666302        -1.04677
LJ          -1.48205        -1.61271        -2.14173
LJ          -0.58575        -0.19438       -0.374439
LJ         -0.043117        -1.53693         1.54748
LJ        -0.0976468        -2.27506       -0.397538
LJ          -2.14592       -0.579065         1.55294
LJ           1.52753         1.92679        -2.52919
LJ         -0.107129        0.577974       -0.982414
LJ         0.0758463        0.936714         1.51815
LJ          -2.06678     -0.00211512        -1.71908
LJ          -1.70887        -1.82405       -0.628463
LJ          -1.64694         1.27285         2.33643
LJ          -0.36937        -1.13871        -1.06642
LJ         -0.664871        0.926573         -1.5032
LJ          0.710242        -1.79701        0.672128
LJ          -1.43855       -0.667839        -1.80354
LJ           2.15834        0.843778        -0.82074
LJ         -0.604272         1.90463       -0.536548
LJ           2.40073        -2.46035        0.961412
LJ           1.03452         1.63839         2.48342
LJ          -1.79931         1.14598        0.646709
LJ           1.86772        0.665215        0.811281
LJ           1.68644        -2.32958        0.490185
LJ          -2.02419        -2.32589         1.15266
LJ         -0.573021         1.98563       -0.541466
LJ          -1.28473         2.03564        -0.97573
LJ           1.57996       -0.175615       -0.370398
LJ           1.95643       -0.514867        -1.78759
LJ          0.868896        0.163544        0.962959
LJ         0.0575718        0.126569        -2.56486
LJ           2.49277         1.95047         2.27557
LJ           1.91737         1.54093         2.12317
LJ          -1.39644         1.63645         -1.2986
LJ           2.06049       -0.741573        -0.74727
LJ          -1.60731         1.61529        0.932452
LJ          -1.63643        -1.25462       -0.344007
LJ          0.973691         1.04164      -0.0209501
LJ           0.90571         1.23305       -0.215258
LJ         -0.291333         1.90784         2.28415
LJ           2.32625         1.13573         2.43154
LJ          -1.14814         -1.8159       -0.959045
LJ         -0.468923        -2.37671         -0.4152
LJ          -0.74371        0.511774        -1.51583
LJ          -1.19298        0.759298        -2.52716
LJ          -0.26435         1.83178       -0.847739
LJ          0.582532        0.277679         -2.1546
LJ           1.48072         0.39261         2.52693
LJ         -0.865681       -0.921921        0.687413
LJ          -2.07019        -2.32746      -0.0491465
LJ           1.21041        0.612911        0.256778
LJ           1.88318        0.445175        0.851039
LJ           1.90626         1.85825        -1.52622
LJ           1.12694         0.18671        -1.80981
LJ           1.51648        0.973691         1.41988
LJ           2.24673         -2.5649        0.587493
