108
#Comment!
LJ          0.618848         1.84121        -1.79359
LJ           1.29228        -1.04902         1.83462
LJ           2.24309        0.765368       -0.364465
LJ         -0.105114       -0.197522         1.40617
LJ         -0.225392        -1.22224        0.519245
LJ          -2.40506        -1.05895           1.596
LJ           1.58175      -0.0893237        -0.50044
LJ           1.31314        0.778352        0.787296
LJ           2.30585        -1.51981       -0.658812
LJ          -1.66112        -2.11526         2.31299
LJ              -nan            -nan            -nan
LJ          -1.52017         1.57555        -1.86839
LJ          -1.05116        0.215084        0.499174
LJ          0.700295        0.883597        -1.80622
LJ           0.57145         1.87664       -0.813822
LJ         0.0857236       -0.944292         2.20641
LJ              -nan            -nan            -nan
LJ              -nan            -nan            -nan
LJ          -2.04352         1.30043         -1.9195
LJ              -nan            -nan            -nan
LJ          -2.25307        0.516392        0.823721
LJ           1.90511        -1.27426        0.723216
LJ           1.24261       -0.451452         2.25015
LJ          -0.31784        0.254627       0.0292259
LJ           1.95579        0.495723        0.694168
LJ           1.31848         1.76873        0.968643
LJ           2.54081        -2.01658         2.40048
LJ          -1.01619          -1.245         1.29776
LJ         0.0252464        0.280088         2.51343
LJ          -1.66548         1.94253        0.275887
LJ          0.231744        0.630708        0.617716
LJ         -0.182215       0.0501854          2.5126
LJ              -nan            -nan            -nan
LJ           1.79438         0.97022        0.981684
LJ              -nan            -nan            -nan
LJ          -0.85049        0.977148          2.4467
LJ         -0.327743       -0.760041         1.25233
LJ          -1.34957        -1.40371        -1.97644
LJ           1.18356         2.02449         1.40353
LJ          0.367024        -1.57426       -0.622337
LJ          -1.56458        0.419067       -0.545581
LJ          0.473364       -0.956568        -2.11449
LJ         -0.564164         2.16681        -1.69434
LJ           2.03264        0.758027         1.05157
LJ          -1.08954         1.98119          1.2799
LJ           2.29329        -2.09041        -0.34641
LJ          -1.22244        -1.96204         2.53455
LJ         -0.248952         -1.4903       -0.389584
LJ          -2.47033         2.28589        0.785688
LJ          -1.06215        -1.55286          2.3283
LJ          -1.52588        -0.39829        -2.38077
LJ           2.17599         2.55267         -2.4817
LJ              -nan            -nan            -nan
LJ          -2.28134        -1.82889         1.23535
LJ         -0.023437        -1.24281        -2.43135
LJ          -1.11665       -0.985745         1.31018
LJ           2.26974         2.27915         2.43962
LJ          0.178801        0.444045         1.27363
LJ         -0.912542        -1.87107      0.00736328
LJ           1.70172        -1.40527        0.600814
LJ           2.34852        -1.09669          1.9032
LJ           2.15762         2.44665        -1.06224
LJ          -1.85419       -0.410533        0.508249
LJ          0.437907        -2.44806        0.384455
LJ          0.207149         2.53454         1.88736
LJ            1.2586          1.0003        0.702035
LJ       -0.00357784        -2.53334        -2.23857
LJ              -nan            -nan            -nan
LJ           1.64127         1.79239        -1.89706
LJ           1.37132         1.58204        -0.67239
LJ          0.240042        -1.65697      -0.0510587
LJ           0.98371         2.15419         0.24835
LJ          -1.73286        -1.00211       0.0667587
LJ          0.193992       -0.634815        -1.50227
LJ            1.7271        -1.95692        -2.43441
LJ          0.366109        0.381153         2.37714
LJ           2.46384       -0.751544        0.272165
LJ          0.746794        -1.28199        -1.44128
LJ          -1.24848         2.44244       -0.933984
LJ           1.73296         2.21037        -1.31965
LJ          -1.61783        0.693339       -0.895875
LJ          -2.46913        -1.96281         1.31212
LJ         -0.985524        0.182015        0.502278
LJ         -0.569192        -2.25305        0.727234
LJ          0.733136        -1.41819        0.810064
LJ          -1.59447        -1.91763         2.25098
LJ         -0.507841         1.51472        0.851521
LJ         -0.271799        -1.20576        -2.14368
LJ          -2.30797         1.97309       -0.554169
LJ           2.42214         2.54248         2.03764
LJ              -nan            -nan            -nan
LJ          -1.57927        0.254546       -0.883829
LJ            1.7016        0.537743       -0.672993
LJ           1.81048       -0.168286       -0.619926
LJ           1.63187       -0.340073         2.32354
LJ           1.68162        0.147599        0.709404
LJ          -1.25268        -1.80675        0.347428
LJ         -0.415871        0.300489        -1.72475
LJ           1.51557       -0.831326         1.85951
LJ          -0.37167          -1.298         2.25627
LJ             1.466        -1.83866         2.30811
LJ            1.9267         0.22484        -2.44707
LJ          -1.76146         -2.0032         1.81669
LJ         -0.945858       -0.606044        -2.42797
LJ          0.940789         1.98772        -2.26942
LJ          -1.08559        -1.96385         1.92145
LJ          -1.73097         2.02855         2.22174
LJ              -nan            -nan            -nan
