108
#Comment!
LJ           1.52953         -2.2858        -1.40085
LJ          -2.29301        0.120942         1.69104
LJ           0.81435         1.47344        -2.21093
LJ          -2.02889        -1.19565        -1.59631
LJ          0.348902        0.860761       -0.671777
LJ          -1.33185         2.45159        -1.00486
LJ          0.935752       -0.810799         2.56342
LJ          -1.08683        -1.33797         1.90505
LJ           1.16174         1.33076      -0.0889903
LJ         -0.146758       -0.441369         2.02266
LJ              -nan            -nan            -nan
LJ          -2.37197         1.67431        0.779685
LJ           1.00936         1.39782        0.174489
LJ          -1.83687       -0.503595        0.408315
LJ         -0.330094           1.019       -0.443207
LJ           2.15662        0.363834        -1.08339
LJ              -nan            -nan            -nan
LJ              -nan            -nan            -nan
LJ          -1.04411       -0.239046        -1.92191
LJ              -nan            -nan            -nan
LJ          -0.31935         1.10444         -1.4036
LJ           -1.3323        0.725718       -0.978312
LJ           2.39588        0.246635        -1.16108
LJ           2.24583         2.32034        -2.35035
LJ           2.15195       0.0921647       -0.337263
LJ          -2.25688        0.342766        -2.50404
LJ          0.852554       -0.288678       -0.700043
LJ         -0.619156         2.36772       -0.724876
LJ          0.936543        0.633346        -1.58179
LJ           1.99181       -0.356991        -1.88927
LJ          0.627727        -0.54436       -0.667753
LJ          -2.18252         2.24905       -0.381469
LJ              -nan            -nan            -nan
LJ           0.81846        0.213738         -1.7038
LJ              -nan            -nan            -nan
LJ          -1.88759        0.715017        -1.77352
LJ         -0.468231         1.57222          2.0459
LJ          -2.04793       0.0562923        -1.00443
LJ           -1.6759       -0.262634         1.43639
LJ          -1.04857         2.23324        0.139528
LJ           2.55662         0.17968        -1.02473
LJ          0.969203       -0.892189        -0.81037
LJ         -0.387391       -0.382463        -1.05693
LJ          -1.44478        -2.32625        0.080951
LJ           1.05284        -1.37628          1.4591
LJ           1.54625         1.70266        -2.45914
LJ           0.31148          1.4434       0.0762669
LJ            2.3195         -2.5146        0.538977
LJ         -0.591372       -0.833223        0.160611
LJ          -1.50901        -2.31984        0.359649
LJ          0.160243        0.104967       0.0549689
LJ           -2.1478         -1.1834         2.02566
LJ              -nan            -nan            -nan
LJ          -1.37121      -0.0309998        -2.11767
LJ           1.28245         1.08018         -2.4819
LJ         -0.691396        -2.40434        -1.27592
LJ          -1.24064        0.393483        -1.56978
LJ           1.84156         2.43501       -0.522768
LJ          -1.95247        -2.24904         1.81855
LJ            2.2528        0.362761        -1.69286
LJ           1.34413        0.963352       -0.909721
LJ           1.93404        0.545353       -0.843026
LJ          -2.50732    -0.000804455         2.39775
LJ          -2.04936         2.39985       -0.153908
LJ           2.43897         1.17102         -0.8322
LJ           1.02018       0.0726448        -1.26534
LJ         -0.349073         1.58639        0.517028
LJ              -nan            -nan            -nan
LJ        -0.0359343         0.24834        -2.13378
LJ          0.568041        0.305791        -1.24771
LJ           1.97492        0.866041          2.4399
LJ         -0.703755        0.136568         1.53297
LJ         -0.474448         1.24157         1.40691
LJ          0.193047         2.18661       -0.137267
LJ          0.070523        0.369614         1.43319
LJ          -1.03641        -1.64123       0.0675297
LJ          -0.63404          2.1219        -1.24129
LJ         -0.825582        -1.40196         1.52435
LJ           2.01296         0.72032        0.800495
LJ           -1.5217       -0.771509        0.418598
LJ           1.64746        0.102796        0.683759
LJ         -0.336628         -1.5319         -1.3654
LJ         -0.513104         1.54603        -2.50925
LJ          0.624247        -2.33908        0.862841
LJ          -1.65416        0.933837       -0.496291
LJ          -1.55127          1.9005        -1.94526
LJ         -0.506847        -2.19624        -1.63648
LJ           1.75011       -0.608355        0.514627
LJ           0.75341        0.841394         1.74887
LJ           2.44671        0.390466         1.27606
LJ              -nan            -nan            -nan
LJ           -2.4605       -0.842092         2.27868
LJ         -0.742053         -0.8133         -2.3875
LJ          0.994063         1.00521       -0.122142
LJ          -2.31316         2.26698         2.46383
LJ              2.44         2.38791        0.765524
LJ          -1.26882       -0.913188         1.85588
LJ          -2.28814        0.111381        -1.06439
LJ           2.44411        -1.29436        0.631162
LJ          0.186485         1.53366         -2.4707
LJ            1.8318        -1.27993        0.806533
LJ          -1.09369        -1.35085         2.24323
LJ         -0.253718         1.37226          -1.312
LJ          -1.75261         2.41013        -1.77896
LJ            2.2323        -1.55084         -1.0498
LJ          -2.15315         0.50109        0.220711
LJ         -0.266752        0.780112       0.0382018
LJ              -nan            -nan            -nan
