108
#Comment!
LJ          0.794967         1.98001        0.939873
LJ          0.316355         2.04959       -0.732304
LJ         -0.358914        -2.31225       -0.587221
LJ          -1.51105      -0.0276599       0.0718321
LJ           2.01424        -2.35221        -2.53333
LJ           1.35173       0.0281288       -0.661283
LJ          -1.25338        -2.11736       -0.281597
LJ            1.5922        -1.37396         -1.0894
LJ          0.707421       -0.609343        -1.02609
LJ         -0.512574       0.0743534        -1.14768
LJ              -nan            -nan            -nan
LJ           1.99818        0.455922         2.18366
LJ         0.0127652        -2.17106         1.64974
LJ          -2.12218       -0.655844        -0.57712
LJ          0.234284        -1.55763        -1.01163
LJ         -0.773751       -0.540227         2.19238
LJ         0.0573972       -0.755321        -1.94803
LJ        -0.0595545       -0.177659        0.899803
LJ          -1.36469       -0.125982        -0.23251
LJ          0.835654         1.58382         1.75397
LJ          -1.54899         1.95669        0.013633
LJ         -0.965649         2.31125        -1.47344
LJ          -1.85004       -0.208609        0.270804
LJ          -1.23673       -0.135051        -2.28274
LJ          0.236686         -1.0915         1.41755
LJ          -1.22432        -2.40153         2.32135
LJ         -0.495108         -1.6529        0.327629
LJ         -0.306083         1.09456         1.79841
LJ           1.17727       -0.548438       -0.969916
LJ           1.40606         -1.0252         2.09509
LJ         -0.928169      -0.0595622       0.0347713
LJ          -1.13892         1.17559         1.83734
LJ              -nan            -nan            -nan
LJ          -1.62948          1.4654        0.752323
LJ              -nan            -nan            -nan
LJ          -2.06958         1.80358         1.66536
LJ          0.772244        -2.18946         1.66691
LJ           1.80014         2.37427         1.09002
LJ            1.8018        -1.12266        0.136157
LJ          -1.04731        0.643281        -1.40278
LJ         0.0765973        0.240119       -0.118273
LJ          -1.56064         1.31933        0.614924
LJ          -1.62887        0.648442       -0.816562
LJ          -1.25841         1.92245          2.1722
LJ           1.03634         2.14428         2.41376
LJ         -0.470121        -1.10752         1.83558
LJ         -0.135715        0.141243       -0.099116
LJ          -2.37709        -1.61046        0.592555
LJ          0.316947        -2.33191      -0.0695464
LJ          -1.90307        0.858548         2.54026
LJ         -0.877215        0.490857        -1.97831
LJ          -1.63497          2.0656         2.37426
LJ           1.14142        -2.26067       -0.341677
LJ           1.65171       -0.868336         1.62369
LJ           2.10049        0.425835          -1.924
LJ          0.645037          1.0832         2.20476
LJ           1.24815        -0.77985        -2.08936
LJ          -0.17767         2.07008        -2.51565
LJ          -2.09697         2.41003         -2.0346
LJ          0.763688        -1.21867         2.35286
LJ           -1.2009         -1.4369        0.120048
LJ          -2.47623        0.258567        0.403533
LJ         -0.865927       -0.245697         1.55895
LJ           2.30356       -0.198818         1.74127
LJ           1.73115        -1.83715        -1.02167
LJ           1.70162       0.0677469        0.733464
LJ           1.43531         1.96724       -0.497035
LJ              -nan            -nan            -nan
LJ         -0.327096         2.29428         2.30446
LJ           1.47906        0.510942         -1.8595
LJ          0.320063         2.29687        -1.88605
LJ         -0.169106        -1.89323         1.61084
LJ           -1.2688         1.47244       -0.715754
LJ           1.03064       -0.999476         2.39249
LJ          -1.41455        0.325104        -2.34838
LJ          0.310366       -0.125478         1.66354
LJ           1.85214         2.27238        -0.27775
LJ          -1.06217        -1.13027         -1.0242
LJ         -0.096028          1.2164        0.560233
LJ          -2.45041        -2.27962        -1.21593
LJ          0.228045         2.42485         2.12168
LJ           1.74647       -0.540437       -0.585237
LJ          -2.16935        -2.55068         2.09073
LJ         -0.348171        0.666624         1.19521
LJ          -2.35853          2.4766        0.831584
LJ            2.0549        -2.55219         1.54222
LJ           1.01985         2.05019        -1.21112
LJ           1.15168         2.00141        0.947059
LJ           1.15115        0.140417       -0.668963
LJ          0.193825         2.51917         2.46061
LJ           1.14628        0.498652        0.913686
LJ            -1.927       -0.822239         1.07383
LJ           1.61764       -0.800026        0.196457
LJ         -0.216348        -1.63011       -0.659083
LJ           2.52184        -1.50387       0.0686228
LJ         -0.189962        0.836262        -1.08405
LJ           1.47983        -1.25348       -0.183135
LJ           1.92469        -2.44984        -1.67305
LJ           2.09129        0.607364         1.17532
LJ          -2.45088        -1.31997        0.473549
LJ          -2.32118        -1.11826         2.24456
LJ          -2.43838        -1.66218        -2.13386
LJ          0.269715        -2.22065         1.64529
LJ          -1.39328         1.63361        0.181175
LJ          -1.58742        -2.19706        0.971331
LJ           1.41877         1.81733          1.1599
LJ           1.75483         1.15692         0.58063
LJ           0.32192       -0.652784         1.11909
