108
#Comment!
LJ          -1.24017         1.52019         -1.2682
LJ          0.559792         1.44044         1.97158
LJ          -1.72383         1.68493      -0.0647993
LJ          0.759327        -2.55445         1.89934
LJ           1.97762         1.19311        -1.49139
LJ          0.236624         2.11321       -0.438092
LJ           1.49351       -0.535492         2.08637
LJ         -0.625993        -2.50289        -2.19299
LJ           1.46487         0.96527       -0.858545
LJ           2.17207      -0.0997109          2.3097
LJ              -nan            -nan            -nan
LJ          -2.21166       -0.361178        0.413827
LJ           2.03124       -0.666012        -2.55667
LJ              -nan            -nan            -nan
LJ           1.30137         2.05186          2.0487
LJ              -nan            -nan            -nan
LJ              -nan            -nan            -nan
LJ              -nan            -nan            -nan
LJ          -2.53472       -0.565034        -2.09739
LJ              -nan            -nan            -nan
LJ         -0.933275      -0.0843403       -0.155765
LJ         -0.544387      -0.0507669         1.09163
LJ          -2.04768       -0.187142       -0.350661
LJ           2.44762         1.30047         1.13544
LJ          -1.53822        -1.70595        -1.20265
LJ          -1.59797        -2.47555        0.396894
LJ          -2.38851         1.39081        0.975071
LJ          -1.46984        0.864931        0.540924
LJ          0.431774        -1.57509        0.672693
LJ            1.8796        -2.06184         2.11703
LJ              -nan            -nan            -nan
LJ          0.871813        0.295729       -0.932141
LJ              -nan            -nan            -nan
LJ          0.387236         2.33698        -1.21582
LJ              -nan            -nan            -nan
LJ          0.486219        0.351236         1.23001
LJ            1.0055        -2.28266        -2.00758
LJ           1.27931        -2.33727        0.607328
LJ           1.87271         1.23671        -2.45393
LJ          -2.31101        -2.39341         1.26526
LJ         -0.873908        0.570838       -0.867493
LJ          -1.82048         -0.8457      -0.0317597
LJ           2.27241       -0.674623        -1.65236
LJ           1.35222       -0.030293       -0.903355
LJ          0.903991         1.19158         1.10571
LJ         -0.562123       -0.858414        0.115916
LJ           1.14392         1.33443        -2.19448
LJ          -1.48797        -1.56449         2.11343
LJ           1.20591        0.701612         1.62874
LJ          -2.27271        -1.66999        -1.38548
LJ         -0.646686         1.23153        -1.44255
LJ          -1.93576        0.989729       -0.311555
LJ              -nan            -nan            -nan
LJ          0.778963        0.401257        0.426208
LJ           1.92831          2.5404        0.900067
LJ         -0.526767         1.68206          1.1141
LJ           1.31201       -0.210259        -1.08474
LJ           1.22253        -1.64363         1.78512
LJ           2.20219         2.12667       -0.266009
LJ          -2.33362        0.988079        -1.00876
LJ          0.475091         1.09722         -1.0665
LJ         -0.853086        0.826657      -0.0758152
LJ           2.20031        -2.43138         2.50523
LJ         -0.071849         -1.4954       -0.202405
LJ              -nan            -nan            -nan
LJ          0.881179        -1.04966       -0.075839
LJ         -0.537967        0.386376         1.18498
LJ              -nan            -nan            -nan
LJ         -0.435468        0.920362        0.606575
LJ           2.34778          1.9643        0.396971
LJ          -1.92578        -2.07912        -1.79731
LJ         0.0348048       -0.330594       -0.015249
LJ          0.480853        -1.90895         0.15542
LJ         -0.279728        -1.47874        -2.20387
LJ          -0.35194         1.68567       -0.738283
LJ           1.17023         1.99662        0.798269
LJ          -2.47692         1.16967         1.28338
LJ           2.00412        -1.64502         2.37751
LJ          -1.31015         1.45389         2.32745
LJ           2.42904      -0.0215184        -0.93214
LJ         -0.654753       -0.281741        -1.92748
LJ          0.930835        -1.05368        0.261202
LJ          0.702032         1.35906       -0.605598
LJ          -1.01972        0.924072          1.0139
LJ          -0.43786        -1.19951        0.990144
LJ          -1.40772        0.141624         0.39046
LJ          -2.32847        -1.56231        0.345646
LJ          0.652511        0.665438         1.47323
LJ         -0.459376        0.914233        -1.61437
LJ           1.54057         1.60732         2.28771
LJ              -nan            -nan            -nan
LJ         -0.835844        -1.24919       -0.171491
LJ        -0.0300073         1.83821       -0.364573
LJ          -1.73329          -2.123        -2.02393
LJ         -0.501018        -1.92696        0.919156
LJ            -1.846        -1.83796        0.105588
LJ         -0.605303         1.41707       -0.308697
LJ          -1.48997        -2.07208        -1.70553
LJ              -nan            -nan            -nan
LJ          -2.18578        0.168398         1.91719
LJ           2.36339        -2.04538         1.55576
LJ           1.07287        0.858959        0.802483
LJ          -2.48047         2.45565        0.929002
LJ          0.371999       -0.171976        0.656209
LJ              -nan            -nan            -nan
LJ           2.41656        0.282695        -1.34589
LJ         -0.554644        -1.90506        -1.40055
LJ              -nan            -nan            -nan
