108
#Comment!
LJ           2.23072       -0.621467        0.295045
LJ           2.03364        -2.11925         1.46018
LJ          0.671855       -0.519668        -1.86585
LJ            2.0619        0.268948         -2.0602
LJ           2.14159       -0.664917        0.210518
LJ         -0.333685        0.875283          1.7891
LJ           2.54852         2.31551        0.261465
LJ          0.585387         1.17575         1.35855
LJ          -2.26695         2.38026         2.32385
LJ          -2.48506         2.45526        -1.74456
LJ              -nan            -nan            -nan
LJ          0.465884       -0.182978         2.18259
LJ          0.410425       -0.515028         2.27673
LJ          -1.25956        -1.06457          2.2572
LJ           1.99685        0.422776         1.37151
LJ          -1.68103        -1.95404        -1.14882
LJ           1.83567        -2.15793       -0.427596
LJ          -1.23731         2.46377        0.426685
LJ          0.226911         -2.3205       -0.425708
LJ           1.87506        -2.43678         1.23707
LJ          0.417682         1.36564        0.978203
LJ           1.03439        0.975793        0.459213
LJ           2.39443        -1.39288         1.94561
LJ           2.17967         2.46872       0.0744447
LJ           1.82343         1.70722        -1.17306
LJ          0.936732        0.692936       -0.702975
LJ          -1.45546        -2.22039        -2.46812
LJ          -2.46052         1.29895       -0.699798
LJ            2.4065        0.646391         2.19178
LJ          -1.03539         1.99898         1.20069
LJ          0.757032        -1.31238         1.18167
LJ           1.86109        -1.60117       -0.912692
LJ              -nan            -nan            -nan
LJ           0.84735       -0.718046          2.0134
LJ           2.43964        -2.16649       -0.174916
LJ           1.14943        0.377412        -1.16872
LJ         -0.445258        -1.94107       -0.749295
LJ         -0.374873        -1.72123       -0.033416
LJ            2.2685       -0.497129        0.351135
LJ           1.86632        -1.57502        0.404352
LJ          -1.28729      -0.0357864         1.36145
LJ           2.36728        -2.38272         1.01049
LJ          -2.46657       -0.837609         1.23117
LJ           2.10184        -1.87534       -0.486538
LJ          0.554483         2.11871        0.561863
LJ          -2.27341        -1.86793        0.227449
LJ           1.46234          1.7145         1.70239
LJ          0.469211       0.0115258        -1.55514
LJ          0.383839       -0.589622          2.4481
LJ         -0.408132       -0.492943        -2.03191
LJ           2.21669        -1.55456      -0.0021052
LJ          -1.60178         1.74551       0.0772171
LJ          -1.64506         1.52445         1.38941
LJ           1.65456          1.0875        -2.18036
LJ           1.64795         0.70094       -0.062383
LJ         -0.741659       0.0764414       -0.595716
LJ           1.51971        0.712402        0.774658
LJ         0.0382176        -2.24814        -1.96145
LJ          -1.66694        0.740651        0.880006
LJ           1.70992         2.45688        0.191101
LJ            2.2715       -0.776155       -0.870532
LJ       -0.00558761        -2.11995          1.3512
LJ          0.554376       -0.985489         2.28786
LJ          -1.93851        -1.24119         2.20275
LJ           2.48362        0.327575         1.52934
LJ          -1.67859       -0.617616        0.275987
LJ           1.62653       -0.886815        0.631998
LJ            -1.044        0.024674       0.0330114
LJ        -0.0486877       -0.212102        0.379149
LJ          0.932636         1.40811       -0.297441
LJ           2.49018       -0.862283        -1.18204
LJ         -0.449576        0.830153       -0.496099
LJ          -2.22879        -1.27241         1.39332
LJ           1.59684         1.69164        -1.03159
LJ          -1.48734        -2.46671       -0.273101
LJ       -0.00627653         1.84224         1.43213
LJ           0.69485         -1.0627         0.97955
LJ          0.408005         1.37661        -1.66613
LJ         -0.866614        0.785418         1.49707
LJ          -1.46014         1.84637        -1.81814
LJ          -2.51569       -0.416713        -1.94684
LJ          0.164278         1.32022         2.11926
LJ         -0.214824        -1.77759         1.11523
LJ         -0.940845         1.67498        -1.60531
LJ         -0.693263         1.61891        0.233522
LJ          -0.50151        0.915925         2.00371
LJ          -2.28796         -1.1236       0.0332988
LJ           1.05626       -0.799028      -0.0608509
LJ           1.37489        -2.20898         1.00732
LJ           1.84641         1.66317        0.527877
LJ          -1.00079       -0.572961         1.05091
LJ           0.87678        0.941106         1.46843
LJ          0.958459        -1.07061         1.30312
LJ         -0.154604        0.630802         1.72332
LJ           1.72559         -2.2371       -0.123647
LJ           2.15831         2.12783        -1.29119
LJ           0.79358        -1.54348         1.57153
LJ           1.50622         1.22564         1.50359
LJ          0.895316       -0.744162        -2.53283
LJ           1.17683         2.26835         1.50954
LJ           1.30804         1.06904         1.36332
LJ          -2.14703         2.06365        -1.09925
LJ          -2.41636        -2.29797        -1.14919
LJ          -2.08448        -0.56667         1.87859
LJ         0.0371813        -2.16523       -0.489894
LJ          -1.54202         -2.4426       -0.701666
LJ          0.455585        -1.66602        -1.54802
LJ         -0.449033      -0.0988109        0.710451
