108
#Comment!
LJ           1.76345         1.74128       -0.145376
LJ         -0.876677         2.26162        -1.57542
LJ          -2.39376         1.71467         1.97419
LJ          0.407512         2.45895         1.79117
LJ          -2.30622         1.01159         1.16529
LJ           2.15381         1.19089       -0.487631
LJ          0.699784       -0.103374        -2.17326
LJ         -0.665462        -2.56135       -0.841497
LJ          -2.28851       -0.847363        -2.38512
LJ          0.413785         2.55574       -0.972376
LJ              -nan            -nan            -nan
LJ          -1.14172        0.327643         1.07536
LJ         -0.667426         2.56458        0.613315
LJ          -1.25328         1.06956        0.292416
LJ          -0.45463        0.976131        0.499061
LJ              -nan            -nan            -nan
LJ              -nan            -nan            -nan
LJ              -nan            -nan            -nan
LJ           2.02299       -0.329924        0.281572
LJ              -nan            -nan            -nan
LJ          -0.89308        -1.90924        -0.74948
LJ         -0.365867         1.54896         1.48478
LJ          -2.10805        -1.81222        -0.15379
LJ           1.39532        -1.74649        -1.25984
LJ          -2.36549        0.217913         1.11945
LJ          -2.51685         1.95901        -1.12372
LJ          0.517898         0.79685        -1.13902
LJ          0.443185      -0.0428769        0.266079
LJ           -1.9371        0.328983        -2.35774
LJ           2.54888        -2.13547         2.46427
LJ          -1.31381         2.26562        0.355882
LJ         -0.328843        -2.36734        -2.27035
LJ              -nan            -nan            -nan
LJ         -0.676181       -0.829425         1.37428
LJ              -nan            -nan            -nan
LJ           2.43041       -0.475328        0.406219
LJ         -0.691385        0.496009         1.69724
LJ           1.44949         1.56029        -2.25766
LJ            1.2755         1.52621        -1.56041
LJ           1.53475         1.47097        0.543745
LJ           0.66514        -2.42145       -0.528419
LJ          0.419963        0.618025         2.32415
LJ           1.85521        -1.09722         1.50141
LJ           1.88602        -1.31007        -1.62485
LJ          -2.31126        -2.46079         1.16327
LJ           -0.6276        0.989893          1.5937
LJ         -0.199351       -0.904985        0.284368
LJ            1.9932      -0.0355281        -1.97301
LJ           1.19581         1.31779       0.0120651
LJ            2.2012        -2.43394        0.637701
LJ          -2.25744       0.0851025         2.28721
LJ          0.669508        -1.25625         2.21879
LJ              -nan            -nan            -nan
LJ           1.90499       -0.731511        -1.27869
LJ          -2.46953         1.57214         1.94193
LJ         -0.387098        0.114835        -2.06944
LJ           2.48276        -1.57099        -0.98885
LJ           2.42525        -1.18112        -0.31612
LJ          0.888848        -0.21291         1.62665
LJ        -0.0977216         1.23712        -2.01967
LJ            1.2825         2.37318       0.0298445
LJ          -0.56585        -2.12794       -0.014853
LJ          -2.53004       -0.930225         -1.6484
LJ          -2.18473       -0.233169           1.382
LJ           2.17346        -1.89123       -0.745881
LJ          0.579664         1.94669          0.3604
LJ           2.02178       -0.522607        -1.40656
LJ              -nan            -nan            -nan
LJ         -0.965343       -0.697232         1.05493
LJ          0.136618        -1.88601        -2.36443
LJ           2.05089         2.56459         -1.3057
LJ           1.87695         1.06179        -1.57849
LJ         -0.374876         2.14388       -0.795914
LJ         -0.487854        -1.65682       -0.921784
LJ            1.6023        -2.29021         1.03869
LJ            2.0482         2.14777         1.97155
LJ          -2.44295      -0.0605303        -1.82064
LJ          0.134401        0.876086        -1.03188
LJ        -0.0540354          2.4664         2.46512
LJ          -2.55624         1.50035        -2.05079
LJ           2.44866        -1.65042      -0.0692361
LJ          -1.52096        0.330818         1.92493
LJ          -2.34173       -0.375225        -1.12727
LJ          0.990244         -1.5185        -2.08556
LJ         -0.755774       0.0316878        -2.37873
LJ            1.9668         1.31254         2.52104
LJ           2.12083        -1.95457         1.09747
LJ          -1.27558         1.36346         -2.2936
LJ         -0.135658          2.5474       -0.672312
LJ           2.01112        0.129834          1.6464
LJ              -nan            -nan            -nan
LJ           1.88718         2.11026       -0.956642
LJ         0.0849578       -0.601848          2.5324
LJ          -1.05632        0.661212       -0.218884
LJ         -0.630628         1.81904        -1.11728
LJ          -2.01323       -0.168844        -2.19247
LJ          -2.07885        0.460791        -2.21482
LJ          0.488774        -2.55193        -1.88669
LJ              -nan            -nan            -nan
LJ           1.69201        -1.22064         -2.2647
LJ         -0.110786         2.42348          1.0701
LJ          -2.14823        -1.33586         1.55846
LJ           2.30261        -1.33337         1.10594
LJ          0.532466         1.62836        -1.57366
LJ           1.79313       -0.408167      -0.0388566
LJ           1.83701         1.88062        0.922776
LJ          -1.82347        -2.38771         2.08293
LJ              -nan            -nan            -nan
