108
#Comment!
LJ          -2.55831         2.01893        -1.46101
LJ          0.130662        -0.77722         1.98292
LJ           1.61664        -2.00349         2.17674
LJ          0.725444       -0.850198         1.57477
LJ          -1.36939         2.20361         2.55207
LJ           1.20415        -0.87807        0.668703
LJ          -1.75533        0.186929         2.31601
LJ          -2.13813        -2.16762         2.04455
LJ          0.120225         0.18833        -1.50714
LJ          0.112833        -1.05004       -0.264849
LJ              -nan            -nan            -nan
LJ         -0.147701         1.64061        0.459418
LJ          0.443296        -1.04144        0.154654
LJ         -0.385781      -0.0412318         1.60148
LJ          -1.46584       -0.640258          2.1298
LJ           0.57793        0.564889        -1.65385
LJ           1.77696      0.00868479        0.301745
LJ           1.29387        0.765478       -0.376379
LJ           1.98147        -1.64903         1.75131
LJ           1.37276        -1.92455        -2.55174
LJ          -1.14435          0.6412        -1.39986
LJ           1.35261         -1.9411       -0.180662
LJ           2.43401        -1.21596        0.676654
LJ          0.519317         2.17413       0.0297704
LJ          0.239946         1.68078         1.91618
LJ           2.37438        -1.45094         1.81631
LJ         -0.973334       -0.223309       -0.290267
LJ           1.88492         -2.0495        -1.50722
LJ          -1.65625         1.85709        -1.64116
LJ          0.538412        0.616079        -1.73592
LJ           -1.2312        -1.09503       -0.507421
LJ          0.219174       -0.593358        -1.91353
LJ              -nan            -nan            -nan
LJ           1.82342          2.0254        -1.99549
LJ           -0.2512        -1.59955      -0.0552253
LJ          -1.49863         1.24886       -0.504966
LJ          0.411341        -2.06765         -1.1187
LJ          -0.42275        -2.37572        0.098387
LJ          0.462603        -2.08507        -1.63236
LJ           1.89197        0.537236        -2.44923
LJ          -1.55826        -2.18352         1.80889
LJ          0.217245        -1.85668         1.84524
LJ          0.886945         -2.5222        -0.32705
LJ          0.598788        0.275629         2.33337
LJ         -0.616197        -1.57756        0.315978
LJ           2.34441       -0.587058         1.25354
LJ          -1.20962       -0.153076        -1.95935
LJ        -0.0992346        -1.91488         0.51013
LJ          -1.63565      -0.0347464          1.3119
LJ          0.305122        -1.53963         1.87488
LJ          0.372788       -0.920584        -1.20845
LJ           1.05407         1.40348        -1.09986
LJ           1.74633         2.24208       -0.515777
LJ         -0.075313       -0.937777        0.105682
LJ           1.10438        -2.14896       -0.648743
LJ           1.67778      -0.0450592         1.43768
LJ          0.188948         1.76875        0.700378
LJ          -1.99418        0.846417         2.14194
LJ         -0.485203         2.33663        -1.46525
LJ          -1.46915         1.69299         1.20477
LJ         -0.284027        0.349847        -2.29016
LJ           0.56568        -2.14354         1.10006
LJ           1.32536          2.2518        0.283688
LJ         -0.378859        -1.77642        -0.17328
LJ          0.723202       -0.501661        -1.50598
LJ           1.91502       -0.288044       -0.746346
LJ           1.31509         2.46329       -0.865635
LJ          -2.22599       -0.180888       -0.870106
LJ          -1.56921         1.87525       -0.209795
LJ          -1.65664         2.02937         1.92315
LJ          -1.77756         1.23799       -0.892838
LJ           1.13503        -1.04292        -1.66569
LJ           1.17445         2.47911        -1.54014
LJ           1.77991        -2.42873         1.55258
LJ          0.633234        -1.53332       -0.714539
LJ          0.455865        0.582219          2.5062
LJ          0.205628       -0.530605        0.304588
LJ           1.03212         -1.4458        -1.34864
LJ          -1.12115        -2.35479        -1.43508
LJ        -0.0994372       -0.356631         1.50309
LJ          -2.31721        -2.25462         2.18582
LJ          -1.66467        0.103144        -1.55431
LJ           2.02953          1.5959         2.23458
LJ          -1.04462        -1.17712        -1.41864
LJ         -0.708113        -1.41193        -0.89451
LJ            1.8105      -0.0581445        -2.13478
LJ        -0.0185551        -1.54124       -0.372658
LJ           2.17054          2.1984         1.28749
LJ           -1.8248        -1.87484        0.364863
LJ          0.907729         1.44183       -0.262474
LJ           1.50301        -1.03608         2.52492
LJ          -2.02582         2.44861         1.74174
LJ          -1.14694          1.0696         1.75378
LJ             -1.08           1.213        -2.42188
LJ          0.119868       -0.456383        -1.67388
LJ          0.937871        -0.45881        0.844782
LJ          -2.42137        0.873408           1.633
LJ         0.0612134        -0.26871         2.04348
LJ         -0.739214       -0.396338        -1.29035
LJ           1.69249        0.398111        -1.20667
LJ          0.851606         2.38266        0.563003
LJ          0.899002         1.77626         1.44711
LJ          -1.32242        0.181711        -1.46158
LJ          0.121718        -1.37389         2.55572
LJ          0.196449         -1.6309        -2.10592
LJ           2.36852       -0.342006       -0.663348
LJ          -2.47302         1.67534       -0.184302
LJ           1.59406       -0.619393       -0.105403
