108
#Comment!
LJ          0.832928        -2.43717          2.1214
LJ           1.59008        -2.02334         1.48682
LJ          0.256162         1.51529        -1.39549
LJ          -2.29121       -0.435149        -1.86209
LJ          -1.88407         2.21193        -0.75202
LJ           2.03201         1.93926        -2.03696
LJ           2.46318       -0.893538         2.03227
LJ          -2.29098       -0.763792        0.297962
LJ         -0.964529        0.789246       0.0851219
LJ         -0.162728         2.47515        0.587806
LJ              -nan            -nan            -nan
LJ         -0.189645         2.42662        -1.16432
LJ          0.796863        0.597704       -0.391258
LJ              -nan            -nan            -nan
LJ         -0.975431        -1.76774        0.632732
LJ              -nan            -nan            -nan
LJ              -nan            -nan            -nan
LJ              -nan            -nan            -nan
LJ          -1.07815        -1.23592        -2.43844
LJ              -nan            -nan            -nan
LJ          0.458087         1.74549         1.79436
LJ          0.023694      -0.0289026         1.46311
LJ         -0.466306        0.839815         1.05473
LJ          -1.88411        -1.90531      -0.0655428
LJ           0.79297        0.931679        -1.02113
LJ          0.681061        -2.22606         2.06116
LJ           1.35901        -2.22595        -1.16165
LJ          -2.02017        -1.40197         1.90005
LJ          -1.11769        0.585776          2.4851
LJ           -0.6993       -0.559155         1.24001
LJ              -nan            -nan            -nan
LJ           2.34114       0.0729741       -0.913225
LJ              -nan            -nan            -nan
LJ            -2.511         1.93799        -2.03733
LJ              -nan            -nan            -nan
LJ            2.3039        -1.56587         1.71839
LJ          -1.31067       -0.529416      -0.0272588
LJ          -2.50989         1.07536        -2.35342
LJ         -0.858732       0.0807042        0.713194
LJ         -0.352269         1.58491         1.61602
LJ          -1.89049       0.0721784        -0.78344
LJ           2.13465       -0.418254       -0.290998
LJ          -1.68824        -1.73359        0.127554
LJ         -0.758233        -1.50588        -2.47672
LJ          0.150157       -0.806535       -0.582403
LJ           1.25965        0.402514         1.39705
LJ          -1.20998        0.271195        -2.28088
LJ          -2.55928        0.501643     -0.00346687
LJ           2.01182        -1.79693        -1.74475
LJ         -0.576221         1.63572         1.37216
LJ          -1.35092        -1.84222        0.288302
LJ            1.8669        0.468204        -2.01546
LJ              -nan            -nan            -nan
LJ           1.12604         1.49805        -2.25781
LJ          -2.10673         1.29568      -0.0997474
LJ          -2.36137        -2.30149        -2.08751
LJ           2.20085         2.55587       -0.412641
LJ          -1.98482         0.48841         1.63227
LJ          0.632042         1.94201        -2.41754
LJ           1.45552        -1.33478         2.56435
LJ          -2.25562         1.87386           1.467
LJ         -0.892546        0.128421        -1.45958
LJ           1.26168         2.25094         -2.1501
LJ          -1.60756       -0.385412        -1.65623
LJ              -nan            -nan            -nan
LJ         -0.900117        -1.70976        -2.02804
LJ         -0.761918        0.874077        0.237707
LJ              -nan            -nan            -nan
LJ          0.624493       -0.495907        -1.29341
LJ           2.27155        0.707634         1.67893
LJ          0.326505        0.830431          1.9249
LJ             2.048        -1.95931        -1.42495
LJ           2.37362        -1.49068         0.68846
LJ          -2.02807        0.631485        -1.75677
LJ          0.184763       -0.196643        -1.92284
LJ          -1.25992        -2.48508         2.00259
LJ         -0.308795       -0.814895       -0.164004
LJ          -1.06085        0.697019        -1.95878
LJ          -2.06899        -2.17432         2.43698
LJ         -0.895549         1.00647       -0.360604
LJ          0.257948         0.21633        -2.21593
LJ           2.02361         1.52218         1.72512
LJ         -0.996845         1.53194        -1.90853
LJ           1.00043          1.1391         2.11992
LJ          -1.42024         2.50019         0.60125
LJ           2.51633        -1.91616        0.974822
LJ         -0.154815         1.77562        0.812949
LJ         0.0181709        -1.17102       -0.650897
LJ          -1.33268       -0.361014         -2.0538
LJ          -1.53288     -0.00251143       -0.710998
LJ              -nan            -nan            -nan
LJ         -0.832539         1.91772       -0.557985
LJ       -0.00749959         0.15216        -1.59359
LJ         -0.230909         2.36635        -1.35335
LJ         -0.476604        -1.25657         1.89934
LJ         -0.788952         2.45505         1.41543
LJ         -0.186549       0.0883521          2.4496
LJ           2.27838       0.0528084         1.03726
LJ              -nan            -nan            -nan
LJ           1.12812         -1.0599         1.66842
LJ          0.454336        -1.84848        0.677317
LJ            1.9032         1.42153        -2.08862
LJ           -2.1908         2.39053         1.90184
LJ          -2.04742         2.35199         1.50673
LJ              -nan            -nan            -nan
LJ            1.3869        0.737715         2.08863
LJ           2.05186         2.00211       -0.997301
LJ              -nan            -nan            -nan
