108
#Comment!
LJ           1.59604        0.662803         2.47442
LJ          0.846005       -0.909897       -0.192952
LJ           2.48138        -2.13763        -1.36445
LJ         -0.344701        -1.08888         1.30122
LJ          0.133518        -1.32577       -0.784265
LJ          -2.49551        0.831031        -1.24109
LJ          -2.11182      -0.0448925       -0.330936
LJ            2.1642        -1.16824        -1.20941
LJ           -2.5455         2.48608        -1.17443
LJ           1.94096        -1.03446        -1.20111
LJ              -nan            -nan            -nan
LJ           2.07056       -0.991297        -1.12001
LJ          -1.23336       -0.836687        -2.31027
LJ          -1.09519         2.25307        -2.11817
LJ         -0.865775       -0.179586        0.688058
LJ              -nan            -nan            -nan
LJ              -nan            -nan            -nan
LJ              -nan            -nan            -nan
LJ            1.4298         2.02928          1.2787
LJ              -nan            -nan            -nan
LJ           1.42349        -1.39849         -1.4661
LJ         -0.849517        0.186343       -0.236835
LJ         -0.813244         1.47127        -1.67808
LJ          -1.90798        -2.23532       -0.352601
LJ          -1.69671         1.77149       -0.648958
LJ           2.31873       -0.911671        0.299683
LJ           2.06496       0.0675376        0.972652
LJ          -1.57211       -0.186581        0.582086
LJ          -2.05947     0.000739195         2.41248
LJ         0.0306785       -0.569477       -0.791837
LJ         -0.771445       -0.863858       -0.458479
LJ         -0.599052         1.58787        -2.05406
LJ              -nan            -nan            -nan
LJ           0.34006          1.8584        0.995015
LJ              -nan            -nan            -nan
LJ          -1.48967         1.14174       -0.159631
LJ          0.765283        -1.03467        -1.96407
LJ          -1.53235         2.31013        -1.64561
LJ           1.37841         1.16596       -0.883926
LJ          0.774984        -1.40334        0.486628
LJ         -0.857803      -0.0723843        -1.09675
LJ         -0.763627         1.89459        0.504713
LJ         -0.289857        0.200707       -0.278976
LJ          -1.81028        0.750578       -0.716027
LJ           1.78972        0.807998        -1.73936
LJ           1.16431         2.31783          1.9222
LJ           1.44831        -1.59625       -0.465059
LJ           1.63378        -1.98645         1.22276
LJ          -2.08648           1.709        0.169506
LJ          -2.51571         0.12613         2.07017
LJ          0.738053       -0.504604      -0.0431335
LJ          -0.71062       -0.745083        -1.23634
LJ              -nan            -nan            -nan
LJ          0.541992        0.742872         2.33945
LJ          0.223247        0.304319       -0.410746
LJ           1.52362      -0.0621818        0.742073
LJ          -1.92182      -0.0938553        0.132459
LJ           2.14732        -2.20719        0.582884
LJ         -0.634844        -2.48892        -2.38477
LJ           2.05145        0.199986        -1.44287
LJ           2.47018         2.30362        -1.60334
LJ           2.29839        -0.27497       -0.444507
LJ           2.19189         1.54974        -1.01502
LJ          -1.05138        0.924447        0.931528
LJ           1.27058        0.802939        -1.55212
LJ          0.889277        -0.17818         1.13957
LJ        -0.0247535          1.0384        -2.53101
LJ              -nan            -nan            -nan
LJ          -1.67766      -0.0400485        -2.46807
LJ          0.523915        -1.57074         1.94968
LJ         0.0691998        0.527891        -1.06069
LJ          0.824381        -0.41759        0.383136
LJ          0.274034       -0.582017        0.357033
LJ           1.41959        -1.24975        -1.28443
LJ          -1.16239        -2.07964        0.556525
LJ         0.0569713        -2.27546         1.95207
LJ           -2.0726        0.154408        0.142031
LJ         -0.441521         -2.2964         1.33583
LJ          -1.69587        0.574105        -1.39558
LJ         -0.579973       -0.320376        0.982102
LJ         -0.596684        0.896368        -1.15264
LJ          -1.25458         -2.1674       -0.662923
LJ          -1.15365        0.382496         1.44109
LJ          -1.57579         2.22495         1.28047
LJ          -1.89527        -1.32504        -1.67289
LJ           1.14083        -2.55417         2.37657
LJ            2.2398         2.10967        -2.03025
LJ           1.70213        0.768274        0.960377
LJ          -2.36354        -2.49166        -1.86242
LJ           1.72246         1.34868        0.993463
LJ              -nan            -nan            -nan
LJ          -0.64899        0.909009          1.3831
LJ          -2.22021        -1.38595        0.445216
LJ          -0.73628        -1.15535        -2.35979
LJ          -1.32801         1.94253        0.712263
LJ           1.65986        0.236081        -1.18683
LJ            1.5646        0.252569         2.42286
LJ          -1.74992         -1.0412       0.0750444
LJ              -nan            -nan            -nan
LJ          -2.32848       -0.213819         1.26555
LJ         -0.141048        0.990759        -2.09605
LJ          -1.14412       -0.716019        0.533729
LJ           1.99789       -0.518671       -0.118609
LJ           2.04897       -0.538934         1.62087
LJ          0.621574        0.253504        0.562239
LJ          -2.39847        -2.51815         2.21996
LJ           1.69283         1.31794        -2.56338
LJ              -nan            -nan            -nan
