108
#Comment!
LJ         -0.941662        -1.19916        0.875365
LJ           0.46552         1.12907        0.813823
LJ         0.0202286          2.3212         2.31196
LJ           1.73816         1.60948         1.31374
LJ          -2.51191        -2.30488         1.46719
LJ           1.05253        -1.10788        -1.53496
LJ           2.27604        -2.16372         1.17787
LJ          -2.13457         1.68568       -0.361283
LJ           -1.1734        -2.38522         1.01037
LJ         0.0456333          1.3299        -2.16526
LJ              -nan            -nan            -nan
LJ          0.558964        0.804994        -2.22708
LJ          0.470724        0.569149        -1.07386
LJ           1.21554         1.63713        -2.20981
LJ           2.08276        0.953227        -1.33208
LJ          -1.69464        -1.64579         -1.9269
LJ              -nan            -nan            -nan
LJ              -nan            -nan            -nan
LJ          -2.20691        -0.82368        0.764522
LJ              -nan            -nan            -nan
LJ          -0.73473        -1.93456        0.654136
LJ          -1.33099         2.15397        -2.14991
LJ          0.996585         2.14259         2.06594
LJ            2.4556        0.237802         2.41217
LJ         -0.709004       -0.913252         1.46048
LJ           2.47599         0.55783        0.104798
LJ           1.15136        -0.48245         -2.2888
LJ           2.46009          2.1591        -1.41894
LJ          -1.21011        -1.07189        -1.87995
LJ          -2.55522        -1.26832          1.4796
LJ          -1.40797        -1.74972      -0.0492252
LJ        -0.0249429        -2.16011        -1.96421
LJ              -nan            -nan            -nan
LJ          0.122253        0.104527       -0.708019
LJ              -nan            -nan            -nan
LJ           2.37088        -2.28431          -2.378
LJ          -1.35973         1.09299       -0.467656
LJ         -0.125106         2.36826        0.217151
LJ           2.37502         1.32958       0.0608569
LJ           1.14539        -1.84565        -1.79177
LJ         -0.921443        -1.74442          1.3077
LJ          0.145405        0.439753        0.352645
LJ          -1.96888         1.78762          1.9108
LJ          -1.75293        -2.29229          0.9406
LJ          -1.73281         1.15987         1.50085
LJ           2.40285         1.92363         2.35887
LJ           1.61536         2.45987        -1.77873
LJ          -1.85318        -2.10628         2.15368
LJ           1.08525         1.71096        0.491953
LJ           1.91255        -1.39484         2.36004
LJ          -1.19962        -1.92575        -1.15627
LJ            -1.195        -1.29344       -0.273435
LJ              -nan            -nan            -nan
LJ         -0.225438        0.986704        0.748231
LJ          0.384858         1.18288       -0.398611
LJ          -2.50285        -1.83327         1.77702
LJ         -0.451157        0.210098         -1.8915
LJ          -1.86732         1.82459        -2.06769
LJ           2.51481         -1.7417         1.79262
LJ         -0.639779         1.53222        -2.55753
LJ           2.32594        -1.05663        -1.48353
LJ          -2.29209         1.25868         2.43661
LJ         -0.340886         1.98882       -0.509751
LJ          0.565184       -0.848942         1.01532
LJ           1.05209        -0.48676          1.5918
LJ          -2.40559         1.85048        -0.90919
LJ          0.745602        0.383493         2.42531
LJ              -nan            -nan            -nan
LJ          0.663107        -1.03871        0.833982
LJ          -1.70397         1.06979     -0.00831242
LJ         -0.269947       -0.442202         1.99593
LJ            2.3472        -2.54083       -0.123748
LJ           1.28761         1.19912        0.844641
LJ          0.827371        -1.46029       -0.554938
LJ           -0.3216         1.94497       -0.552077
LJ         -0.986967        -1.90378         2.11126
LJ          0.149758        -1.62377         2.13097
LJ         -0.533737         2.00961        0.384755
LJ          -1.18673       -0.363044        0.613484
LJ          -1.45044        -1.40822         2.09518
LJ           1.76094        0.328739        -1.23091
LJ          -1.37594       0.0691785         2.38065
LJ           1.98561        -1.34271         1.16808
LJ         -0.639996        0.252404        0.676327
LJ          0.108111         2.07714        -1.28346
LJ          -2.25555        0.947175      -0.0985091
LJ           1.22317        0.378757        -1.22626
LJ          -1.36622         -1.8465         1.87703
LJ          -2.10139       -0.799897        -2.08647
LJ         -0.548094        0.889973         2.35484
LJ              -nan            -nan            -nan
LJ          0.705712        0.350276       -0.884253
LJ          -1.86887        0.727315         0.89009
LJ          -2.49643        -2.24329         1.88335
LJ          -1.03036        0.239829        -1.89243
LJ           2.06056        -1.37591        -2.44055
LJ          -2.31865        0.915946         1.42324
LJ         -0.860762        -0.50164         1.86564
LJ           2.21033          1.6162        -1.60895
LJ          -2.28268        -1.69287        0.742104
LJ          -2.00367        -1.05232         1.07539
LJ          0.979264        -2.50209         1.03623
LJ          -2.26117        0.766485         1.00504
LJ           1.68217        -2.39734        -2.22825
LJ          -1.19298       -0.416161        -2.41657
LJ          -2.05507         1.82103        -1.75346
LJ          -1.54473        0.546273        0.371764
LJ              -nan            -nan            -nan
