108
#Comment!
LJ           1.59277        -0.66509        -2.17144
LJ          -2.40891         1.22627        0.629579
LJ          -2.05367        -1.50781        -2.16716
LJ         -0.760631      -0.0173918         1.42046
LJ           1.41535        -0.44093       -0.120525
LJ           1.74302        0.312314         2.27293
LJ          -2.10264         1.31053        0.936274
LJ          0.443633         1.68132        0.887279
LJ          0.447812        -1.71735        -2.13575
LJ          0.427997        0.800894         2.04873
LJ              -nan            -nan            -nan
LJ          0.605388       -0.300603        -2.14176
LJ          -0.47572        0.810306         2.11356
LJ           2.06236       -0.179857         2.33007
LJ         0.0517873         1.84324        0.694708
LJ          -1.00945        0.177466      -0.0728169
LJ              -nan            -nan            -nan
LJ              -nan            -nan            -nan
LJ           1.39842        -1.27439       -0.520328
LJ              -nan            -nan            -nan
LJ          -1.23745         2.35227        -1.58127
LJ           2.35752         1.70361        -0.23483
LJ          -1.89375        0.890636        -1.15443
LJ          0.277195       -0.156205        -1.38503
LJ           1.93207        -2.43443       -0.362899
LJ          -1.61893        0.346228         1.62959
LJ          -0.53058         1.51705        -1.87692
LJ         -0.903816        -1.71938        -1.07498
LJ          -1.92114        -2.07541         1.57166
LJ          -1.60861       -0.111438       -0.511768
LJ           1.42073        -2.10787        -1.18278
LJ           2.54763        0.927998        -1.67643
LJ              -nan            -nan            -nan
LJ          -1.44448        0.708037       -0.347021
LJ              -nan            -nan            -nan
LJ          0.208455         2.28761        0.316667
LJ         -0.865872        -2.01111       0.0481645
LJ         -0.343492        -1.75116        0.168608
LJ         -0.636003        0.154469        0.748491
LJ          -1.54262        -2.52752        -2.16041
LJ          -1.60415         1.79754      -0.0501492
LJ          -2.12979        -1.86903        -1.46355
LJ         0.0604913        0.511192        -1.97756
LJ          -1.66647        -1.66006        -2.16358
LJ         -0.919431       -0.498518          2.4082
LJ           1.50068        0.748641        -1.74992
LJ          0.334431        0.383578        0.709513
LJ         -0.110783        -2.32348        -1.35067
LJ           1.98581        -2.20547         2.07039
LJ           1.74099       -0.692063        -2.54041
LJ           1.68687         -2.0978          1.1684
LJ          -1.62751         1.31513        0.569165
LJ              -nan            -nan            -nan
LJ           1.05979         1.23437         -2.2844
LJ          0.893532         2.20266         1.65297
LJ          -1.32666        0.163536        -1.31555
LJ         -0.961121       -0.411075         1.17846
LJ         -0.605513         2.31005        -2.53252
LJ           1.20588        -1.48367         2.29407
LJ         -0.178968        -2.11148         -1.8578
LJ         -0.803757         2.12289       0.0286097
LJ           1.58127        -2.50348       -0.753725
LJ          0.705921         1.54785       -0.323604
LJ         0.0846046       -0.676883       -0.727528
LJ           1.25558        -1.28789        -2.54436
LJ           2.32847       -0.536933         1.77984
LJ           -1.9831        -1.63187       -0.176849
LJ              -nan            -nan            -nan
LJ         -0.724067         1.14128          1.1961
LJ          -2.10157        -1.87953         1.82416
LJ          0.462716      -0.0840651        0.715036
LJ          -1.71874       -0.335876         2.50241
LJ          -1.52275         2.40502        -1.52256
LJ          -1.71528       -0.635536         1.09512
LJ          -1.25605       -0.946347        -1.57305
LJ          0.336558        -1.69358        -0.70233
LJ          -2.37596         -1.9501         1.76241
LJ          -1.19884       -0.379366        -2.20587
LJ          0.208616       0.0998397         1.43619
LJ          -2.47653        -2.54156        0.520601
LJ         -0.223892         1.67008       0.0675173
LJ          0.893824         2.09791        0.396421
LJ           2.26708         -2.0878        0.425693
LJ           2.50882         1.71185        0.646101
LJ         -0.125061        -1.04413        -1.52615
LJ          -2.17078        -2.16539         1.23867
LJ         -0.210859         1.11016        -2.33044
LJ           1.88328         1.58593        0.574396
LJ          0.754171          1.0863        -2.44086
LJ          -1.44303       -0.238991        0.356084
LJ              -nan            -nan            -nan
LJ          0.688067         1.07829        -1.58805
LJ           2.50917         1.55942        -1.31186
LJ          -2.17705         0.82931        0.686782
LJ          0.145777        -1.65338        -2.27797
LJ          -1.50024       -0.321782        0.624753
LJ         -0.269486       -0.895472         0.23328
LJ           -1.7696        -2.49283          2.1199
LJ          -2.17932        -2.50273        -2.36407
LJ         0.0608387        -2.29037         2.44881
LJ           1.51126        -1.36209        0.502565
LJ          0.976727        -2.44893        0.244383
LJ          0.938735        0.987797         2.12895
LJ           1.96134         1.86174       -0.899692
LJ          -1.36113       -0.443707        0.825189
LJ          0.737137        0.685268        -2.12222
LJ          -2.20762        -2.47855        -2.13186
LJ              -nan            -nan            -nan
