108
#Comment!
LJ          0.256785        0.694485        -1.67161
LJ         -0.989965        0.200934        -1.89438
LJ           -1.7285         2.31664       0.0896493
LJ          -2.09128         -1.1293        -0.94391
LJ          -2.38517       -0.071754          2.4954
LJ          -2.02843         1.14703        -1.26299
LJ        -0.0544268        -1.69575         1.95306
LJ          -2.14147        -1.29819         1.39933
LJ          -1.71393       -0.606801        -1.61882
LJ         -0.161611        -1.47461       -0.243323
LJ              -nan            -nan            -nan
LJ           2.27939        -1.63573        -1.00966
LJ          -2.37078        -1.14998         1.54644
LJ              -nan            -nan            -nan
LJ         -0.649551         1.81061       -0.685494
LJ              -nan            -nan            -nan
LJ              -nan            -nan            -nan
LJ              -nan            -nan            -nan
LJ          -1.69287         2.19364        -1.69249
LJ              -nan            -nan            -nan
LJ           1.42669       -0.140775        -1.79375
LJ            0.9369       -0.110239        -2.05846
LJ          -2.27075         1.88485         2.44477
LJ          0.648626         1.36738        0.882254
LJ         -0.230134         -1.0791         2.31642
LJ           -2.1374         1.22789        -0.72201
LJ          -1.08378          1.9883        -2.24649
LJ          0.842617         1.83591         1.67297
LJ           1.03972         2.08673        0.662708
LJ         0.0863031        -1.30221        0.903973
LJ              -nan            -nan            -nan
LJ          -1.69859       -0.281923         0.74895
LJ              -nan            -nan            -nan
LJ          -1.23153       -0.811373        -2.35008
LJ              -nan            -nan            -nan
LJ         0.0922637        0.820253         2.06627
LJ         -0.631073        0.883351         2.32044
LJ            2.2511         -1.3113        -2.06369
LJ           1.98337         1.63262       0.0307779
LJ          0.588487       -0.791328        -1.71106
LJ          -1.39349        0.108101         2.50892
LJ           1.82019        -2.14904       0.0847238
LJ           2.00496        -2.47898        -1.38336
LJ           2.22809        -1.70182        -2.31036
LJ         -0.787437       -0.957339       -0.784062
LJ           2.28507        -2.31492     -0.00368311
LJ         -0.864022        0.771027       -0.227828
LJ          0.561388        0.726133       -0.822363
LJ         0.0579619        0.367188        -2.40637
LJ          -0.66186        -1.25144         1.06028
LJ           2.34844        -1.76828         1.02015
LJ         -0.364108        -1.06439        -1.06324
LJ              -nan            -nan            -nan
LJ           1.68398         1.06485        0.333138
LJ            -2.548        -1.72716        -1.64029
LJ           1.41544         1.09824         2.32563
LJ          0.154041        0.399474        -1.34563
LJ          -1.81219         2.23405       -0.321943
LJ           -2.0393        0.850089       -0.384794
LJ         -0.682959        0.903406        0.353448
LJ          -1.28651       -0.641237        -2.35011
LJ          -0.58144        -1.12209         2.22073
LJ           2.31204        -1.36318        0.767803
LJ        -0.0567029        -1.17632         1.88046
LJ              -nan            -nan            -nan
LJ         -0.370576        0.136569        -1.44082
LJ          0.605374       0.0804234        -1.52366
LJ              -nan            -nan            -nan
LJ          -1.50503       -0.678342        0.690586
LJ          -2.12156         1.17862         1.97343
LJ         -0.614704         0.63609       -0.330594
LJ           0.18364        -2.54115        -1.83191
LJ          0.666083       -0.688237       -0.886016
LJ           1.01128          1.0789        -2.50188
LJ          -0.73588        -1.79118        0.413967
LJ           0.68274        -2.14203          2.5592
LJ          0.706024         2.34364        -1.58752
LJ         -0.618595        0.290114       -0.604931
LJ          -1.47993        -1.89594        -2.01201
LJ         0.0155668        0.610854       -0.994104
LJ          -1.50602         1.32233       -0.584972
LJ           1.22088         2.22256         1.89825
LJ          0.388394        -1.54056         1.25149
LJ          0.103387        0.599343         2.44884
LJ          -1.74738        -1.65857         -1.5093
LJ         -0.396885         -1.7214        -2.09373
LJ          -1.56547      -0.0448544          2.0443
LJ          -2.09361         -1.2415        -2.27954
LJ           2.22743        -0.82946          2.4771
LJ           1.10663         -2.2734       -0.385278
LJ              -nan            -nan            -nan
LJ          -2.37346         1.07246          1.1176
LJ          -1.35976        -2.14249         1.23863
LJ            1.4858        -2.41535        -1.18577
LJ          0.554309        0.296903         -2.3055
LJ          0.815902         1.08245         2.31949
LJ          -2.14031      -0.0514701        0.698016
LJ           2.23403        -1.34891       -0.354401
LJ              -nan            -nan            -nan
LJ         -0.511364        -1.58753       -0.691959
LJ           1.36481        -1.12673       -0.188197
LJ          0.591934         2.32171        -1.18181
LJ           2.42769         1.34572       -0.315569
LJ          0.587255        0.625259       0.0639263
LJ              -nan            -nan            -nan
LJ           1.54266          2.4321       -0.299185
LJ        0.00307999        0.657846       -0.510073
LJ              -nan            -nan            -nan
