108
#Comment!
LJ           2.08583         1.85354       -0.361188
LJ           0.39647       -0.762817       -0.951195
LJ           1.00012        -1.49705         2.49704
LJ           1.02831         2.40144         2.51282
LJ           1.93083          2.2426         1.61857
LJ          0.930007         1.53343        -1.09488
LJ          -1.03141       -0.127094         1.42946
LJ          -1.74177       -0.645732        -1.84916
LJ          -2.01423         1.00588        -1.68514
LJ         -0.346986         1.93869        -1.36823
LJ              -nan            -nan            -nan
LJ           2.25253        -2.10986        -1.76793
LJ        -0.0274048         1.21683       -0.474723
LJ          0.855087       0.0939329        0.864819
LJ           1.11646        -1.08272       -0.952985
LJ           2.02128        -2.12881         2.38009
LJ           0.61767        -2.39043          1.3391
LJ          -1.52309        -1.74309      -0.0575639
LJ         -0.261764        0.540564         1.44003
LJ           1.13349         2.12926         1.83924
LJ         -0.856521         1.59203         2.15553
LJ          -1.80616         1.21032        -1.31527
LJ          -1.11763       -0.882494         2.41252
LJ            0.8349        0.553005         -1.2376
LJ          -2.30061        -1.07014       -0.336694
LJ          -1.24314        0.217339        -1.62798
LJ          -1.90979        -1.91828         1.21201
LJ        -0.0770743         1.29956        -2.44656
LJ         -0.569305        -1.34821          -2.249
LJ           1.20881        0.294448        -1.40268
LJ          0.618433        0.707811         1.44636
LJ          0.708606        -0.65888         1.20881
LJ              -nan            -nan            -nan
LJ          0.394519         1.73316         0.97697
LJ         -0.600082       -0.879255       -0.805257
LJ         -0.897031         1.13015       -0.321031
LJ           1.18964        -2.29255         2.35646
LJ         -0.448041        -1.20929       -0.704168
LJ          0.364586         1.01008         -1.9256
LJ          0.499525        0.336313       -0.489792
LJ          0.433271        -2.33226       -0.560168
LJ          0.930934       -0.413295        -1.77529
LJ          0.916514         1.61182         2.50237
LJ           1.38242       -0.841872       -0.488815
LJ           1.47378        -1.87681         2.32032
LJ        -0.0507303       0.0867851         2.06696
LJ           2.36373        0.802559         1.93282
LJ         -0.817691        -1.36778         -0.1415
LJ           2.14713         1.29671          1.3958
LJ          -2.43335        -1.97815        0.618027
LJ          0.395205        -2.19137        0.481074
LJ         -0.916895        -1.21274        0.735581
LJ           2.39168         1.40251        -1.74854
LJ           1.33563       -0.194342       -0.515042
LJ           2.51334        0.217237        -1.30376
LJ           -2.3153         2.42614         -2.0196
LJ         -0.568884        0.860543        -1.36009
LJ         -0.674144         -1.7449         1.98645
LJ          -1.76301        -2.29594        -1.91243
LJ          -1.29123         1.40141        0.160377
LJ          0.106332        0.366527        0.401849
LJ         -0.577219         1.60071        -1.03896
LJ          0.454073       -0.826866          0.5928
LJ         -0.130896        -1.10024        -1.17703
LJ           1.13663         1.08436         1.21622
LJ           1.10309        -2.51502          2.1725
LJ         -0.904322        -2.11307        0.866543
LJ           1.44321         2.26635       -0.671788
LJ          -1.47932         2.12799       0.0997572
LJ         -0.955279        0.362248        0.841101
LJ          -2.47969        0.360351       -0.650627
LJ           1.09065          1.5249        0.493951
LJ          0.413647        0.953432       -0.575307
LJ          0.727661       -0.179518        -1.59075
LJ          -1.85023        -1.03213        -2.21592
LJ          0.211046       -0.415749        -2.50615
LJ          -0.88498        -1.87232         -2.4117
LJ          0.476835        -2.08132         2.27586
LJ          -2.06569         -2.4075       -0.975401
LJ          0.970271         1.34821        -1.06909
LJ          -1.68559        -1.39851         2.07119
LJ           1.07888        -2.31109         1.29221
LJ          -1.00708        0.155467        0.930991
LJ          0.290957        -1.85305        0.556654
LJ           -2.5482       -0.510385        -2.10127
LJ         -0.359923       -0.206013         2.00561
LJ            2.2097        -1.14774      -0.0235892
LJ          -1.27259         -1.3686         2.53858
LJ           1.50575         1.44782        -1.71625
LJ           2.52614        -2.17801         1.66049
LJ           1.99203       -0.359957         2.02896
LJ           1.22362         -1.8086       -0.784677
LJ          -2.12086        -1.76495        -1.76664
LJ           1.96395       0.0482995        -2.02236
LJ           0.25582         -2.3082         1.20682
LJ          -0.69133        -1.65271        0.537025
LJ           2.42129          2.4825         -1.9885
LJ          0.381788        -2.28066        0.877791
LJ          -1.60713        0.839501         1.58014
LJ           1.61641        0.285884         2.19208
LJ         -0.938068        -1.15688       -0.972057
LJ          -1.55463        -1.75872        -1.27166
LJ         -0.160353         1.43619        -1.39859
LJ          -1.61113       -0.246049        -1.43843
LJ         -0.711161         1.19431        0.836962
LJ          0.802462         2.52244         2.37208
LJ           1.55077         2.56314         2.37333
LJ           1.97745        -2.43909        -1.51292
