108
#Comment!
LJ           1.02792        0.856583        0.946726
LJ           1.87925         1.24612        -2.04133
LJ         -0.484697       -0.572221       -0.493998
LJ           -1.4268       -0.742532        -1.09513
LJ          0.546913         -2.4572        -2.40235
LJ         -0.954541        -1.24523      -0.0818813
LJ          -1.41442        -2.11719       -0.200069
LJ          -1.03137         1.75448         1.69259
LJ          0.391441          1.2216         1.32922
LJ          -1.01902        -2.00386        -1.00154
LJ              -nan            -nan            -nan
LJ          -2.09125       0.0990247         1.37409
LJ          -2.27886        -2.00302         2.43417
LJ              -nan            -nan            -nan
LJ          0.607407         1.67612        -2.51616
LJ              -nan            -nan            -nan
LJ              -nan            -nan            -nan
LJ              -nan            -nan            -nan
LJ       -0.00761129        0.536867        -1.09676
LJ              -nan            -nan            -nan
LJ          0.157236        0.433218        -1.20186
LJ           1.42776         1.03898       -0.188997
LJ           2.15346        -1.30005        -1.07732
LJ              -nan            -nan            -nan
LJ          -1.05994         1.08223       -0.307381
LJ           2.53959         2.19306         1.55956
LJ          -1.65577       -0.187934        -1.99999
LJ         -0.969852       -0.272159        0.893163
LJ        -0.0340183        0.192886       -0.125257
LJ          -2.13529       -0.644061        0.425992
LJ              -nan            -nan            -nan
LJ          -1.86054       -0.428287        0.280164
LJ              -nan            -nan            -nan
LJ          -1.70349         0.40694        -2.39177
LJ              -nan            -nan            -nan
LJ          -1.00193         2.50802         2.18849
LJ           0.74296        0.919701        -1.84902
LJ          0.802789         1.30498        -1.13565
LJ          -2.07337        -1.11899       -0.855807
LJ          -1.48197         1.69406          1.9929
LJ           1.03239        0.047872         1.09566
LJ          -1.36423        -1.52277        -2.25361
LJ         -0.229088         2.44177        -2.14717
LJ          -1.52437        -1.00372        -1.52556
LJ          0.613469        -2.33896       -0.673955
LJ         0.0982189         1.25536          1.5131
LJ           0.58178        0.659082         2.42343
LJ            1.3738       -0.156294         1.96075
LJ          -1.53483         2.17156         2.34479
LJ         -0.875586        -1.57974         1.52099
LJ          -1.50721       -0.880498        0.502402
LJ           1.65416         1.98047       -0.620925
LJ              -nan            -nan            -nan
LJ         0.0343562        0.230757       -0.458749
LJ          -1.78065        0.475949        0.880216
LJ          -1.03531       -0.650356         1.69406
LJ         -0.460955        0.955002          1.2805
LJ        -0.0488234       -0.619006         2.06057
LJ          -1.30264         2.46585         2.54074
LJ         -0.635967         2.06028      0.00687681
LJ         -0.199105         2.26877         1.35042
LJ          -1.14469        -2.16121         2.40354
LJ           1.40056       -0.875576         1.29581
LJ              -nan            -nan            -nan
LJ              -nan            -nan            -nan
LJ          0.846735        0.986357        0.742093
LJ          -1.61838        0.789445        0.431955
LJ              -nan            -nan            -nan
LJ          -2.16752         2.15147         2.34717
LJ          -1.20927        0.751131         2.16751
LJ         -0.459142        -1.59567       -0.754125
LJ         -0.792676        0.141171         0.68526
LJ         -0.137273         1.07535         1.15758
LJ          0.478682         1.37353       -0.816861
LJ         -0.973277       -0.548372        0.780148
LJ         -0.750599         2.25336         2.34749
LJ          0.824372        -1.56519        -1.31537
LJ           2.10008         1.20715         2.47281
LJ          -2.42906        -0.38377         1.17937
LJ          -1.89053        -1.17029        -2.18569
LJ          -2.54352         2.03399        0.880245
LJ            1.2042       -0.871313        0.841539
LJ          -1.02614        -2.27565         1.25246
LJ           1.54241         1.92716       -0.945912
LJ           1.50154         1.81365        -1.07085
LJ          0.521168       -0.973639         2.13533
LJ         -0.941874         2.47019         1.95341
LJ          -2.24307         1.00126       -0.995537
LJ           2.48105        -0.53243      -0.0581994
LJ           1.61131        0.734682       -0.271482
LJ              -nan            -nan            -nan
LJ           2.32538        -2.42857        0.315558
LJ            2.2494         1.42999        -1.10448
LJ          -1.38882        0.706372        -2.00249
LJ          -1.98513         2.31837         2.33595
LJ         -0.655449        0.336665       -0.733346
LJ           1.65762       0.0208516        0.584784
LJ           1.96368        -1.62053        -1.86557
LJ              -nan            -nan            -nan
LJ         -0.750598         1.77227         2.29572
LJ          -2.07708         1.84225        -2.02062
LJ            1.8905        -2.14387       -0.173553
LJ          -2.52043        -1.09075       -0.512142
LJ            -1.771      -0.0812238        -2.08055
LJ              -nan            -nan            -nan
LJ          -1.88753       -0.393803         2.24915
LJ           1.90072        -1.16009         1.12515
LJ              -nan            -nan            -nan
