108
#Comment!
LJ          -2.26821      0.00602726         2.26115
LJ         -0.192497        -2.03035        0.436104
LJ       -0.00413964       -0.427035      0.00343837
LJ           1.77417        -1.81831         1.83748
LJ         -0.144948         1.57171        0.524355
LJ          -1.75027        -1.95532        -1.51313
LJ           1.45595        -1.20654         2.48948
LJ          0.803271        -2.25674         1.48792
LJ          0.761623         -2.1042       0.0432403
LJ          0.231511        -2.21054       -0.240648
LJ              -nan            -nan            -nan
LJ          -2.15332        -1.15456         2.38054
LJ          -0.11656          2.1699        0.194284
LJ           1.28645       0.0681891        0.753276
LJ          -2.40773      -0.0617665         -2.2546
LJ         -0.878051         1.23892       -0.770536
LJ              -nan            -nan            -nan
LJ              -nan            -nan            -nan
LJ          -0.24563         1.42967        0.213332
LJ              -nan            -nan            -nan
LJ        -0.0435425        -1.38313        -2.03732
LJ           1.95837         1.17743         0.85056
LJ           1.71751         1.43998        -1.28816
LJ          -2.51172       -0.734763       -0.114745
LJ          0.935129        -1.10513       -0.588191
LJ           2.23992        0.549588       -0.723409
LJ           1.22472        -2.37732       0.0405361
LJ          -1.40384         1.92799         1.07672
LJ          0.434845        -1.59994       -0.165439
LJ           1.66983         2.50051        0.646807
LJ          -1.28491        -2.10368        0.590249
LJ           -0.1687        -2.02039       -0.995885
LJ              -nan            -nan            -nan
LJ        -0.0462313        -1.15547         1.01598
LJ              -nan            -nan            -nan
LJ           1.89751       -0.732912       -0.149822
LJ         -0.658137        -0.66706       -0.839513
LJ         -0.404847       -0.986468       0.0145058
LJ           -0.1574      -0.0242051         1.70993
LJ           1.77818        -2.07533       -0.702041
LJ         -0.876227         2.55606        0.881945
LJ          -0.96634        0.324407        0.577943
LJ           2.12594         2.44894      -0.0279816
LJ          -2.53301        0.663496         -2.0818
LJ          -1.24906        0.835387        -1.73538
LJ          0.137892         -1.9191         -2.3009
LJ          -1.23765         2.09086         2.11508
LJ           1.92349         1.56847         2.18422
LJ           2.15131        -1.69763         2.40623
LJ          -1.80035         1.65534        -2.00762
LJ          0.677017         2.40172         -2.5199
LJ           1.48911       0.0996297        0.736284
LJ              -nan            -nan            -nan
LJ          0.845016        0.121787        0.360108
LJ           2.21713        0.117238        0.669525
LJ         -0.247837         1.49088        -1.61817
LJ          0.614376       -0.150288         1.85062
LJ           1.55095        0.688754        -2.31232
LJ          -1.80547         1.18025        -1.63713
LJ           2.20405         1.13907        -0.77173
LJ          0.646401      -0.0366469       -0.826349
LJ       -0.00929936       -0.986569        -2.32657
LJ          -1.21754        0.155656         -1.7744
LJ         -0.643225         2.54304         1.04775
LJ           2.52834        -1.51307       -0.567009
LJ           1.92049        0.506918          -1.738
LJ          -2.44427        -2.39423       0.0379552
LJ              -nan            -nan            -nan
LJ          -1.34294         2.22763         0.36661
LJ          0.208451       -0.570947       -0.916196
LJ          -2.06842        -1.23879         0.37183
LJ            1.7519         1.60137         1.67548
LJ          0.620277         1.95818        0.627675
LJ         -0.996683       -0.855903         2.35221
LJ         -0.419183        0.880533        -1.33885
LJ          0.646648         1.87096         2.12447
LJ         -0.737712        -2.12608         1.85962
LJ          -2.53315         -1.5227        -2.49589
LJ           2.38161         1.46782        -2.31222
LJ          -2.03079        -1.86623        -1.44019
LJ         -0.587183        -1.45545       -0.856714
LJ          -1.44298         2.53469        0.876606
LJ          0.721404        -0.10519        0.630542
LJ           -1.3949         1.95035        -1.67019
LJ         -0.396453       0.0883041       -0.711442
LJ          -1.19764        -2.03437        -1.48687
LJ          0.719382         1.11956        -1.39613
LJ         -0.180596        0.675823        0.276875
LJ          0.794387      -0.0698659          2.0205
LJ          -2.38686        0.139341        -2.13253
LJ              -nan            -nan            -nan
LJ          -2.21107         1.97235         1.15548
LJ          0.906529        0.587661         -2.2321
LJ         -0.665479       0.0200301       -0.324658
LJ          0.292213       -0.635236         1.96992
LJ          -2.50769       -0.942592        -1.91647
LJ          0.482769         1.50006       -0.637679
LJ          0.318302         1.72041         -1.4093
LJ         -0.474103        -1.45331         -1.6569
LJ          -1.83542         1.76907       -0.868325
LJ         -0.876641       -0.356219       -0.653772
LJ           1.27737         1.97996         2.48682
LJ         -0.743898          -1.483         1.26466
LJ         -0.961378         2.42897        -1.78559
LJ         -0.953704       -0.976347        -1.45246
LJ          0.420538         1.48571        0.975475
LJ          -2.36461         1.83797        0.372293
LJ              -nan            -nan            -nan
