108
#Comment!
LJ          -1.52961         1.28665         2.03794
LJ         0.0381868        0.383706         2.44686
LJ          -2.30521        -2.19046         2.09668
LJ           2.54596        -1.51565       -0.430624
LJ         -0.997445        -1.90628         1.82041
LJ           1.18445         2.40858        0.815006
LJ           1.00102        0.391667        -2.30041
LJ           1.68901          2.5105        0.928216
LJ         -0.933457        -1.39923        0.340965
LJ         -0.957997        0.412367       -0.895259
LJ              -nan            -nan            -nan
LJ            2.1691        -1.72341        -2.20234
LJ          0.254784       -0.177613         1.87994
LJ         -0.480656        -2.56024         1.84495
LJ          0.788728         1.28463        -1.64273
LJ              -nan            -nan            -nan
LJ              -nan            -nan            -nan
LJ              -nan            -nan            -nan
LJ          -2.19793       -0.314934         2.35945
LJ              -nan            -nan            -nan
LJ         -0.667273       -0.138449        -2.38303
LJ          -1.02689         1.46117        -2.44816
LJ           -1.1943         2.04249        -1.82111
LJ          0.665282         1.83798        0.288006
LJ           1.16438        -1.68348       -0.266702
LJ          0.390277        -1.77204       -0.783311
LJ           2.44164         2.14113        -1.83128
LJ           1.29891        -1.51154         1.61986
LJ         -0.275626         1.06102         1.85395
LJ           1.57355         1.96569        -2.27089
LJ          -1.34237       -0.936658        -2.06444
LJ          -2.31574         1.15236         0.66652
LJ              -nan            -nan            -nan
LJ         -0.786038         2.38506         2.42245
LJ              -nan            -nan            -nan
LJ           1.43025        0.898752        0.264001
LJ          -1.55374         0.50262         1.71581
LJ           2.01063         1.25198       -0.276785
LJ           1.79247         1.12026         2.23174
LJ          -2.40285        -1.38173         -2.3776
LJ           1.16501        -0.36257        0.402983
LJ           1.12575        -1.11643       -0.186143
LJ         -0.440453         -1.1929         1.99539
LJ           1.39688         2.37172         2.48509
LJ         -0.819527        0.681244          1.7318
LJ           1.10569        -2.18784       -0.337662
LJ           1.10344        -1.96266         0.42834
LJ           0.99094        -1.41605         1.49796
LJ           -1.3678       -0.163858         1.47725
LJ          -1.67867         1.55038        -1.15879
LJ         -0.178821         0.78113        0.797835
LJ         -0.767174         1.07499         2.49147
LJ              -nan            -nan            -nan
LJ          0.815193        -1.18593       -0.274225
LJ         -0.481614         1.01773      -0.0409532
LJ           2.41889        -2.30734        0.566919
LJ           1.12894        -1.43014         2.13461
LJ           1.36372        -2.47948      -0.0446294
LJ         -0.135139        0.264805         2.05989
LJ           1.69322         1.29202          1.8117
LJ           1.58039         2.22685        -2.44012
LJ         -0.884712     -0.00210269        -2.38101
LJ           -2.4337        -1.88612        -1.62682
LJ          -1.02499         -1.7294         1.27206
LJ         -0.796185         -1.0206         2.29451
LJ         -0.930622         1.19172       -0.363213
LJ           1.00367        0.400337        0.377115
LJ              -nan            -nan            -nan
LJ          0.629595        0.308963        -1.04343
LJ         -0.123229        -1.36871       -0.224826
LJ          0.195729         1.63334         1.83893
LJ          -2.03619         1.21648       0.0931226
LJ          -2.07644         2.18191         -2.2993
LJ          -0.74068         -1.3258         1.13511
LJ          -1.07378        -1.43079        0.106895
LJ           1.32621         1.87158        0.505724
LJ          -1.04634         1.40037       -0.922195
LJ           1.23683        -2.21876        0.686533
LJ          -1.56245        -2.23758        -1.69744
LJ           2.20728         1.75613         1.61657
LJ         -0.610331        -1.21953     -0.00316994
LJ         -0.871606         1.38626         2.37505
LJ         -0.763782        -2.01257         1.20784
LJ         -0.823399        -1.91915        -1.28305
LJ          0.484238       -0.856944       -0.925069
LJ          0.427836        0.223771         1.23553
LJ          -1.65275        -1.33742       -0.680853
LJ         -0.995062        0.499801         1.70042
LJ          0.995992        0.489863       -0.693113
LJ          0.887468        -2.37387      0.00757835
LJ              -nan            -nan            -nan
LJ          -2.11928        -1.53545        0.712521
LJ          0.245274        -1.28234        -1.71312
LJ           -1.7887         2.25563       -0.830328
LJ          0.665697        0.348442        -1.38616
LJ          -1.25331       -0.394881        -1.37501
LJ          -1.09129        0.717405         2.50505
LJ          -0.15406        -1.32919        -1.49594
LJ              -nan            -nan            -nan
LJ          -0.97821        -1.22311         2.30597
LJ          0.103087        0.234862         2.03672
LJ           1.21271        0.404665        -2.01434
LJ           1.36003        -2.36376         2.08244
LJ          -1.52859         1.26179        0.586314
LJ           1.65188         1.21002       -0.641558
LJ          0.604605         1.16001       -0.325032
LJ           2.26667        -1.88687         1.18058
LJ              -nan            -nan            -nan
