108
#Comment!
LJ           2.03318        0.761537         -1.7697
LJ            1.6712        -2.23912        -1.73007
LJ           1.50284        -1.73913       -0.559036
LJ             2.437       -0.540984        0.956019
LJ          0.183962         2.13938       -0.945136
LJ          -1.73284         1.02662         1.39841
LJ           2.12767       -0.751338         1.79043
LJ           2.47099         2.49599         0.25099
LJ          -1.02266        -1.40875        0.625793
LJ          -1.03249        0.662253      -0.0577564
LJ              -nan            -nan            -nan
LJ           2.09951       -0.884317        -1.64155
LJ          0.467648       -0.642448          1.8143
LJ              -nan            -nan            -nan
LJ         -0.817795         1.47567        0.480263
LJ              -nan            -nan            -nan
LJ              -nan            -nan            -nan
LJ              -nan            -nan            -nan
LJ           1.65774       -0.113994         1.64123
LJ              -nan            -nan            -nan
LJ         0.0787095         1.09399        -2.38813
LJ          -1.98634       -0.866835          1.1606
LJ           -2.2208        -1.73383         1.40985
LJ              -nan            -nan            -nan
LJ           1.47351         1.39477         1.70882
LJ             1.408      -0.0600951       -0.855267
LJ          -2.46907         0.46261         2.07637
LJ          0.465151       -0.534619        -1.67152
LJ          -2.13894         1.04677       -0.304805
LJ         -0.753466        -1.50224        -1.18388
LJ              -nan            -nan            -nan
LJ           2.44404       0.0674507         -1.8178
LJ              -nan            -nan            -nan
LJ       -0.00466771         2.15243          1.9614
LJ              -nan            -nan            -nan
LJ          -2.26559         1.80592       -0.123283
LJ         -0.290861         2.36708        0.402837
LJ         -0.665051         2.04323      -0.0486708
LJ          0.886679        -1.62367         2.55972
LJ           1.32989       -0.538495         2.54133
LJ           1.58921        -2.23881        -2.03003
LJ          -1.73644        -2.45592         1.06907
LJ          0.937318         1.80243        -2.33279
LJ           1.51409        -2.48813       -0.419014
LJ          0.372753          1.3702         -1.6965
LJ          -1.53844       -0.831684        0.713384
LJ          0.502761        0.336106         1.69915
LJ           2.52432       -0.278011         1.92316
LJ           1.19868         2.49792       -0.827966
LJ          -2.30363        -1.31738       -0.941641
LJ         -0.332536        -1.53228        -2.13831
LJ          0.882645         -2.2128        -1.53219
LJ              -nan            -nan            -nan
LJ           1.94513        -1.92941      -0.0526434
LJ          0.586835         2.34039        -1.57459
LJ          0.693065          2.4584         2.10205
LJ         -0.128109         2.46793        -1.57066
LJ          -1.28158         0.58936         2.16547
LJ         -0.558749         1.30334        -1.64206
LJ           2.37014       -0.840552        -1.62252
LJ           1.36758         1.60181         1.20006
LJ           -2.4852        0.883852        0.862262
LJ       -0.00903505         -2.2931         1.31019
LJ              -nan            -nan            -nan
LJ              -nan            -nan            -nan
LJ          -2.42007        -1.63136        0.643342
LJ         -0.799849         1.42206       -0.155865
LJ              -nan            -nan            -nan
LJ          -1.13451        0.817921       -0.664552
LJ            2.2418       -0.433783       -0.849571
LJ         0.0460203         2.35832        0.861638
LJ           1.32205      -0.0159399        0.806007
LJ           2.31317         0.25589        0.552791
LJ         -0.473075         2.11138         2.45453
LJ          -1.16175         1.74556          2.0651
LJ           1.36362         2.18942        -1.27833
LJ          0.187135        0.954022         2.21275
LJ          0.679528         1.06795         2.30197
LJ          -2.08367         1.40893         2.07843
LJ         -0.123509        -1.70724         2.13412
LJ          0.370078       -0.594854       -0.178136
LJ          -1.26672         1.43009       -0.214129
LJ          -1.45788       -0.958612         2.42674
LJ          -1.49789        -1.86226         1.71704
LJ           2.46367        -2.47652         1.96758
LJ          -1.93474        0.193106         -2.4098
LJ           1.00438        0.727825        -1.76286
LJ          -1.11595          1.6502        0.267463
LJ         -0.254797         1.20797       0.0568065
LJ         -0.773087         1.21625        -1.12138
LJ              -nan            -nan            -nan
LJ          -1.23711       -0.883336        -1.13324
LJ           1.12608        -0.99447        -1.59335
LJ         -0.661573        -1.99894        -2.10101
LJ         -0.333064         2.13978        0.176355
LJ          0.783778        0.254766       -0.431058
LJ           1.35059       -0.959128         1.77722
LJ           1.54214         1.04036         2.18757
LJ              -nan            -nan            -nan
LJ           2.11047       0.0565528        0.552351
LJ           1.80904        -1.91809        -1.99279
LJ          0.563065       -0.681878        -1.69027
LJ           2.35123      -0.0657001        -1.07166
LJ          -1.27131        -1.26079        -2.53911
LJ              -nan            -nan            -nan
LJ         -0.454827         2.20093         2.30478
LJ           1.61367        -1.21887         2.13309
LJ              -nan            -nan            -nan
