108
#Comment!
LJ          -1.65304        -1.38921         1.08887
LJ           2.16002       -0.417762       -0.666207
LJ          -1.07568           1.424        0.551594
LJ        -0.0390677       -0.900482         2.21836
LJ          0.579783        0.979885         1.05854
LJ          0.135582         1.95708         1.79037
LJ          -1.13223        -1.16602           -1.64
LJ          0.463084        -2.33036        -0.69077
LJ           2.18945        0.167384         2.42441
LJ          0.201116        0.798241         2.43428
LJ              -nan            -nan            -nan
LJ           1.18705        -2.17949         2.39831
LJ           2.37883        -2.16735      -0.0875526
LJ          0.862996        0.489279         1.29713
LJ           2.22046        0.786167        -1.76418
LJ          0.470462       -0.778369        -2.29938
LJ           1.14102       -0.870244         -2.3761
LJ           1.63161        -2.51207        -1.99435
LJ         -0.654482         1.11068        0.446605
LJ         0.0323368        -2.48849        -2.45961
LJ          -1.42276       -0.580931        -1.39387
LJ          0.512359        -2.14781       -0.082833
LJ           1.04555          -1.519        0.209364
LJ          -1.14355         1.56723        -1.51401
LJ         -0.943928         2.05953        0.749316
LJ         -0.294285        -1.35141         2.27377
LJ          0.695196         1.46299        -2.19882
LJ          0.582387       -0.903093        0.325191
LJ          -1.83012         2.29388         1.87554
LJ         -0.457581         0.60209         1.66043
LJ         -0.562108        -1.00953         0.74747
LJ          -2.29231      -0.0130072        0.728744
LJ              -nan            -nan            -nan
LJ            -2.213        0.540167       -0.178993
LJ              -nan            -nan            -nan
LJ            2.2129        -1.31753         2.20245
LJ          0.555295       -0.213466        0.474605
LJ           1.61309         1.57761       -0.318982
LJ          -1.33142        -0.26624        0.300269
LJ          -1.90111         1.36975        0.743029
LJ          0.483231        0.360418         -1.8382
LJ          -1.57452         1.14835         2.09571
LJ          -0.67433         1.61078       -0.788369
LJ           2.34526        0.707279        0.186875
LJ          -2.30398        -1.49719        -1.39815
LJ           1.80623        -1.54008         1.72858
LJ           1.77148         1.93665         -1.2534
LJ         -0.737746         1.68284         1.94983
LJ          -1.28953         1.06564        -2.46161
LJ           0.30038        0.115517        -1.70371
LJ        -0.0793606        -1.04097         1.18818
LJ           1.01424        -1.20392       -0.392494
LJ         -0.111915       -0.637882        0.969991
LJ         -0.325974      -0.0387555        -1.84045
LJ          0.928606       -0.222662        -1.06139
LJ          -1.73356         1.74288         1.03208
LJ          0.658696         -2.2281         2.47345
LJ           1.31473        -2.47704        0.977291
LJ          0.222754       -0.543945       -0.421337
LJ           1.94041         -1.2275       -0.375046
LJ           1.87758        0.454499         1.80317
LJ         -0.336047         2.39479        -1.81402
LJ          0.376837        -1.81209        -1.79908
LJ           -1.6694         2.40508        -1.86643
LJ          -1.56192        -1.97484        0.427873
LJ           1.27132         -1.1076         1.85486
LJ          0.956627         1.19564          2.1937
LJ              -nan            -nan            -nan
LJ          -1.98587          2.4942        -1.95569
LJ          0.320334        -2.39146         1.88414
LJ           1.26282        -1.50208        0.989583
LJ           1.40309        0.137856         -1.4351
LJ           -2.0061          2.0831         1.61537
LJ           1.16925         1.60142         2.08293
LJ           0.60818       -0.835884        -2.43629
LJ          0.667731         2.52025         2.32897
LJ         -0.234982        -1.84607         2.55247
LJ         -0.920308        -1.54915       -0.408277
LJ          -2.21332        0.320566         -1.0751
LJ          -1.58897       -0.689159       -0.499628
LJ           2.34927        -2.32036          1.6395
LJ            1.3635         1.72578        0.376592
LJ          -1.98148        -1.83244         1.35855
LJ           1.17841         1.70889         1.08699
LJ         -0.527356         2.15171        -1.88055
LJ           1.45207      -0.0128746      -0.0421455
LJ          -1.52459        0.940759        -1.44628
LJ            1.4569        -1.17307        0.265056
LJ            1.5636        -1.91631       0.0191982
LJ         -0.817261          -1.709        0.640466
LJ          -1.09716         1.99005        -1.64591
LJ          -1.62285        -1.95156        -1.55131
LJ          -1.94325         -2.0387       -0.644226
LJ             2.238         2.35706        0.168697
LJ          -1.72394        -2.28657         2.18068
LJ           1.63926        -0.51984      -0.0429472
LJ          -1.39557         1.72819        -2.26373
LJ        -0.0701237         1.58347         1.62964
LJ          -2.53003         -1.3705        -2.16438
LJ           2.05112         1.84859          2.0884
LJ          0.384797         2.24198         2.50938
LJ          -0.97528         2.30033        0.545145
LJ           1.38867        -1.06799        0.069986
LJ         -0.326177        -1.35457        -1.64226
LJ          -0.76515        -1.87893         1.04803
LJ         -0.986187        -1.37975         1.91625
LJ           1.11682        -2.39487         2.00511
LJ           2.43706        0.575882        0.735076
