108
#Comment!
LJ         -0.312612       -0.522171        -1.21538
LJ          -1.91293         1.00262        -1.91714
LJ          -1.71105        -1.44133         1.92054
LJ          -2.14583         1.48673         -2.0134
LJ           1.66083          1.2025         1.64988
LJ            -2.252        -1.23995         1.64776
LJ           -1.1424        -2.52204       -0.481934
LJ           1.29172         1.24054         -1.7838
LJ          -1.56862          2.3084        -1.50197
LJ          -2.05488          1.5152       -0.432328
LJ              -nan            -nan            -nan
LJ           1.64981         1.33525       -0.123766
LJ          0.422497       -0.842044         2.22565
LJ              -nan            -nan            -nan
LJ          -2.49075        -2.32876        -2.46192
LJ              -nan            -nan            -nan
LJ              -nan            -nan            -nan
LJ              -nan            -nan            -nan
LJ          -2.46874        -0.26805         1.67494
LJ              -nan            -nan            -nan
LJ         -0.822041       -0.214139        -0.38324
LJ           1.34742        -1.64121        -2.24439
LJ           -1.5351        0.940427        -2.37012
LJ           2.03971        -1.86547        0.456166
LJ          -1.34283         2.52941         2.54328
LJ          0.587896         2.04823        0.674178
LJ         0.0576716       -0.498647       -0.388141
LJ           0.94077         1.50261         -1.2771
LJ           1.87765        -2.07039        0.468279
LJ         -0.929134        0.202951        -1.02062
LJ              -nan            -nan            -nan
LJ          0.549039        0.994007        0.717892
LJ              -nan            -nan            -nan
LJ          -1.32555         1.78144        0.963147
LJ              -nan            -nan            -nan
LJ          -1.10813        -2.26469       -0.020382
LJ          -1.67823       -0.632162        -2.26201
LJ         -0.498527        -1.90086          -1.662
LJ          -2.52498        -2.50342         1.33789
LJ          -2.16427       -0.150581         1.03956
LJ         -0.510538        -1.77416          2.1874
LJ         -0.770672        -1.13668         -1.6746
LJ        -0.0978716       -0.114732        -1.93417
LJ         -0.715615         1.31408        -1.90861
LJ          0.510319         -2.4063        -2.49583
LJ          0.192705          2.2529         1.45636
LJ           1.74981        -1.95748        -2.26987
LJ           -1.6821        -2.41142         1.98773
LJ          -2.38368        0.152313         1.45782
LJ           1.70759       -0.408643        -1.68502
LJ          -2.33553        0.235983         1.42308
LJ          -0.58027         1.76567         2.37586
LJ              -nan            -nan            -nan
LJ           1.28544        0.720447       -0.971043
LJ           1.85443        0.953683        -0.50003
LJ           1.22381       -0.405011       -0.756755
LJ          -0.14507       0.0860289         0.65087
LJ          -2.29087         -1.2547        0.171218
LJ         -0.599255        -2.49608        -1.71662
LJ          -2.33844        -2.55583         2.07665
LJ          -1.87106         1.41462         2.13245
LJ            1.9672         1.02931         1.45579
LJ         0.0897529         1.13536        -1.13394
LJ          0.693899         1.90643        -1.40694
LJ              -nan            -nan            -nan
LJ         0.0804997        -2.41455         1.85832
LJ          -1.04311        -0.25902         1.24179
LJ              -nan            -nan            -nan
LJ         -0.432039        -1.80744        -0.87105
LJ           1.93814         1.25684         1.10811
LJ           1.65961        0.977557        -1.06508
LJ         -0.085717         1.00426       -0.995838
LJ           -1.7974         2.42761        -2.04874
LJ          -2.06841       -0.361864        -0.71363
LJ          -1.20324        0.568107        -1.71738
LJ           2.04857        -1.62139        -1.51082
LJ          -1.59181       -0.696546        -1.95805
LJ          0.811947       -0.464202        0.244739
LJ          -2.31479         1.17946       -0.666871
LJ            2.1785       -0.920266        -2.48096
LJ            2.4054      -0.0441985         1.07003
LJ           1.56184         1.77804        -1.24618
LJ          -2.54483         1.43278        0.638635
LJ          -1.49608          1.7155        0.910476
LJ           2.51415        -2.32397        0.637042
LJ           1.09481        -1.27551        -1.73816
LJ          -1.75744        -1.64524         1.70368
LJ         -0.322068         1.28649      -0.0183742
LJ          -2.48958         1.11982         2.04011
LJ           -2.3808        0.562395        0.726731
LJ              -nan            -nan            -nan
LJ          -2.05727        0.826307         2.35347
LJ          -1.96269        -0.70736      -0.0852546
LJ         -0.482849        0.778992        0.412028
LJ           1.72444        0.897929        -1.48542
LJ           2.41048        0.750271       -0.801316
LJ           1.83477       -0.244117         1.70204
LJ         0.0762857         1.78729        0.625588
LJ              -nan            -nan            -nan
LJ         -0.591429         1.53505       -0.715312
LJ           2.31548          1.3137        -2.44691
LJ          -1.13457         1.18306        0.985405
LJ          0.489116        0.879846        -1.46941
LJ        0.00467179        0.932954        -2.05698
LJ              -nan            -nan            -nan
LJ         -0.497701         0.62383        -1.74344
LJ             -1.86      -0.0792936        0.487504
LJ              -nan            -nan            -nan
