108
#Comment!
LJ           -1.6361       -0.586409         2.25563
LJ         -0.469089        -1.38103        0.669944
LJ           1.41122         1.11958        -2.17852
LJ          -0.85593         0.30845        0.222722
LJ         -0.633509         -1.4532        -1.48889
LJ          -1.77009     -0.00432252        -1.99837
LJ           1.15936         2.05767         1.26769
LJ           1.70093        0.903246        -2.06724
LJ         -0.137751         2.52977        -1.50438
LJ           1.43811        -2.25972       -0.674379
LJ              -nan            -nan            -nan
LJ            1.0344        -1.14562        0.281578
LJ          0.356868        -1.12757        -1.42765
LJ          -1.17404        -1.52724         1.86339
LJ           -2.1922      -0.0272247        -1.45729
LJ           1.84404         2.55489         2.07356
LJ          -1.34157         1.68914         -1.9437
LJ         -0.524544          2.0223         2.44901
LJ          0.641284         -0.2855        -2.04964
LJ          -2.12618         1.41501        0.773841
LJ           1.84847        0.384019       0.0535936
LJ          -2.18865         1.53799       -0.609972
LJ            1.6386        -1.62164        0.128129
LJ          0.802133         1.40569        -1.71873
LJ          -2.44793        0.920102        0.250158
LJ           1.80151        0.528703         2.51481
LJ         -0.928837        -0.11662         1.90712
LJ           1.68771        -0.99099         1.91505
LJ           -2.2132        0.557472        -2.55865
LJ         -0.896462        -1.95046         1.58905
LJ          0.745112        -1.50591       -0.312748
LJ          -1.99039         1.00086         1.57466
LJ              -nan            -nan            -nan
LJ           2.52463          2.3744        0.530253
LJ           2.14208        -2.11601         1.30685
LJ           -2.5138        0.399995         -1.5822
LJ           1.89498          2.0824        -2.20819
LJ         -0.434997        -1.19349        0.871492
LJ          0.633495        0.691038         1.97252
LJ           1.38254        -2.41751        -1.44879
LJ           1.68691         -1.7532       -0.693161
LJ         -0.478592         2.02477        -1.75378
LJ          0.114455         1.89503        -2.35489
LJ         -0.375102      -0.0381231       -0.235314
LJ           1.95189         2.41917        0.946879
LJ        0.00813087       -0.640492        -1.25778
LJ           2.17082       -0.345303        -1.51161
LJ              1.91         -0.3701        -1.27142
LJ          -1.02448         1.07168        0.261676
LJ           2.31088        0.773828       -0.168737
LJ          -2.05344        0.138995       -0.915848
LJ          -2.55855         1.09526        -2.36563
LJ           2.54506       -0.558815        -1.91723
LJ          -1.11857         2.14636        -1.02396
LJ          -1.50125          1.2755         -1.4775
LJ           2.35582        0.436146        0.106996
LJ           2.45022        -1.21866         1.00934
LJ           1.04014       -0.524084         -2.0284
LJ          0.999799       -0.218272        -1.18555
LJ          -2.12907         0.36116         2.40176
LJ          -1.49278        -1.54554         1.13958
LJ           -1.0763        -1.99207         2.48337
LJ           2.34917       -0.296488      -0.0155524
LJ           2.28702         -2.1539        0.997168
LJ           1.65692         2.50249        0.339034
LJ          0.832924       0.0851002        0.425999
LJ           2.22012        -1.23202       -0.118865
LJ          -1.23434        0.823734        -1.45947
LJ           2.53425        -2.11392        -1.09269
LJ            1.7644       -0.778863         2.21406
LJ           2.33171        0.954649        -1.91536
LJ          -1.07514        -1.89481        -1.48349
LJ          0.227981        -0.18761        0.985393
LJ          0.472832        -0.34435       -0.568623
LJ          0.195479        0.322189         1.45436
LJ          -1.14119        -1.69983       -0.810543
LJ          -2.05322       0.0200874         1.68384
LJ         -0.985147         2.51226        -1.84175
LJ          -1.77973       -0.119991         -1.5247
LJ         0.0771028        -1.79705        0.437922
LJ         -0.433805       -0.399471       0.0637237
LJ         -0.124085        -1.56493         1.11147
LJ            1.3559         1.53756       -0.983768
LJ          -1.64183        -1.92648         2.03852
LJ          -1.11034         1.32248       -0.344306
LJ         -0.660778         1.99687         2.40979
LJ           1.69612        -0.38509         -1.3938
LJ           1.92871         1.89587         0.48046
LJ          -2.45136         2.48099          -1.593
LJ          0.504313         2.39163        0.600474
LJ           2.13903        -2.51573        -1.20853
LJ          -1.86634        -1.80166      -0.0472499
LJ           1.94794       -0.292759        -2.18106
LJ          0.222672        -0.44166         1.74386
LJ           1.37245         -1.7139       -0.752095
LJ         0.0435576        -2.05932        0.253293
LJ           2.54325        -1.15723        -2.06969
LJ           2.40888         1.57369        -2.40083
LJ           1.01888         0.37797       -0.522151
LJ          -1.31785        -1.66594         -2.4245
LJ          0.319004        -1.76381        -2.53236
LJ        -0.0400412         1.21729        0.688679
LJ          0.983725       -0.921294         1.54482
LJ           2.14781        -1.43941         1.68769
LJ           1.40779        -1.98827       -0.798163
LJ          -1.10026         2.17787        -2.12301
LJ         -0.806649        -1.77642       -0.963414
LJ          -2.16978       -0.953802        -2.13888
