108
#Comment!
LJ          0.250428        0.798619       -0.337588
LJ          -2.16728         1.93602        -1.57907
LJ           2.26518        -2.35985         2.49664
LJ           1.56704        -1.06672         1.90063
LJ         -0.858157        0.307322         2.36731
LJ           -0.3444      -0.0239614        -2.04884
LJ          -2.56241        -1.65962        0.456066
LJ          -2.32005        0.096924        -1.14036
LJ          -1.03235          1.7522        -2.49567
LJ          0.556884         1.93927         1.55295
LJ              -nan            -nan            -nan
LJ          -1.34239         1.23249         2.06721
LJ           1.85007         2.24772       -0.747401
LJ           1.96316         1.23535         2.35047
LJ           1.73611       -0.269059        -0.34961
LJ            2.2836          1.1464        0.488255
LJ              -nan            -nan            -nan
LJ              -nan            -nan            -nan
LJ          -2.10116       -0.754771         1.40934
LJ              -nan            -nan            -nan
LJ           1.22157         2.27292          1.6912
LJ           1.39935        0.796131        0.332607
LJ          0.102129        -1.52587        0.132009
LJ          -1.60984        -2.24943         2.28639
LJ          -2.46396       -0.679349       -0.877538
LJ          -1.61918        -1.64202         1.69582
LJ          0.569972         1.28249          1.0696
LJ         -0.886556         1.15669        -1.61772
LJ          -1.26428         2.46567       -0.710246
LJ          -2.24075       -0.336149       -0.943192
LJ           1.84118        -2.02036       -0.952881
LJ           1.69939        -1.35944      -0.0873146
LJ              -nan            -nan            -nan
LJ         -0.117192         2.13062          1.5951
LJ              -nan            -nan            -nan
LJ          -1.96345         0.78186       -0.492041
LJ          0.446872       -0.366453        -1.51562
LJ          0.852777        -1.68187         2.37581
LJ           1.29524         2.21916       -0.584768
LJ           1.61205       -0.519228         -2.4955
LJ          -0.85447        -2.48569         -1.0155
LJ          -1.77721         1.14869        -2.39982
LJ          -2.13629         1.42849       -0.986423
LJ          -1.71509         2.37433         0.70096
LJ         -0.802535        -1.76618        0.546023
LJ          0.782719         2.39005         -2.5564
LJ          -1.98362         1.75299        -1.46296
LJ          -2.27595       -0.897381         1.31124
LJ           1.49896         2.48806         2.24044
LJ           -2.5181         2.37496        -1.85021
LJ         -0.241007         1.38462        0.202916
LJ           2.34723        -2.19576         1.73309
LJ              -nan            -nan            -nan
LJ           2.40766      -0.0413674       -0.201599
LJ           1.59879         2.20479        -2.30769
LJ         -0.849343      -0.0257965         1.61248
LJ          -2.52264       -0.335862        0.844968
LJ          -0.11713        -2.35347        -1.32851
LJ           0.74576        -1.75478         1.46824
LJ           2.09293        -2.51081        -1.84645
LJ           1.23006         2.04916         2.06828
LJ          0.922689        0.957522        -1.83247
LJ         -0.194352        0.374394          1.3191
LJ          -1.88529        -1.38444       -0.781352
LJ           0.33683         2.04027        -2.45937
LJ           1.24146           1.604        -2.32544
LJ           2.05031         1.98849        -1.74333
LJ              -nan            -nan            -nan
LJ          0.643107        -2.29082       -0.576496
LJ           2.29029        0.724758         2.09165
LJ          0.945921        -2.16872       -0.627027
LJ         -0.484996         -2.4296        0.764526
LJ          -1.36107        -1.94763        0.291803
LJ          -1.76106          2.1073         1.05541
LJ          -2.14538         1.19247       -0.991447
LJ          -1.92341        0.258403        -2.44502
LJ           1.50828        -2.43454       -0.527858
LJ           0.92781         1.22853       -0.962471
LJ           1.98023         2.10007        -1.21656
LJ          0.123437        0.178925         2.01475
LJ          -1.88074        -1.89517         2.29563
LJ           1.73388        -0.63437         0.46321
LJ          -2.45378        -1.36184        -1.79705
LJ           1.08013         2.33562        -1.64485
LJ           1.01369         -1.8822         2.29803
LJ           1.14596        0.361192        0.582457
LJ          -1.00537        -0.55709        0.607247
LJ          0.561605        -1.16513          1.3691
LJ          -2.18756        -1.97548        -0.65819
LJ         -0.616587         1.36682       -0.995819
LJ              -nan            -nan            -nan
LJ         -0.356622        -1.52784        -1.23423
LJ           2.33523        -2.14394         0.48033
LJ          -1.68036         2.51467         -1.2215
LJ          -2.34183         2.15897        -2.28566
LJ          0.225213        -2.36638       -0.572803
LJ          -1.13761         1.44211        -1.77568
LJ          0.943812         2.28065       -0.365415
LJ          0.683626          2.3546       -0.123078
LJ         -0.471342         2.22562         -2.0437
LJ        -0.0951032        0.549842        -1.04727
LJ           2.07886       -0.900617       -0.840123
LJ           2.44177        -1.84586         1.16999
LJ           1.84027       -0.680752        0.725152
LJ          -1.58344         1.91293       -0.596688
LJ           1.81255        0.207127        0.284161
LJ          -1.76591        -0.60862         1.06572
LJ              -nan            -nan            -nan
