108
#Comment!
LJ           1.28957        -1.10863         1.28479
LJ          0.862852        0.278351        0.444897
LJ          0.196529        -1.39532        -2.51183
LJ           2.19034        -2.43887         1.17516
LJ           -2.1335       -0.314171         -1.5299
LJ          -1.25207         1.24347       -0.660497
LJ           1.44082         1.21694        -2.52162
LJ          0.645186         2.05952       -0.828564
LJ          -1.83675        0.646485        -1.13769
LJ           1.83603         1.41619          2.4055
LJ              -nan            -nan            -nan
LJ          -2.51762        0.114938        -1.66511
LJ         -0.561557         1.95919         1.88123
LJ              -nan            -nan            -nan
LJ        -0.0986301        0.307803        -1.00668
LJ              -nan            -nan            -nan
LJ              -nan            -nan            -nan
LJ              -nan            -nan            -nan
LJ          -2.28414        0.309677      -0.0659615
LJ              -nan            -nan            -nan
LJ          0.284491       -0.645494       -0.305753
LJ        -0.0479056         1.44541         1.12672
LJ           1.40886         1.16914        0.281515
LJ              -nan            -nan            -nan
LJ          -2.20006        -1.56849       -0.504473
LJ         -0.458893        -1.57825        -0.43966
LJ           1.77935       -0.470872         -1.0578
LJ          0.743049        -1.75178       -0.743449
LJ          0.350898         -1.4014       -0.287423
LJ           1.96383         2.04126        -1.14235
LJ              -nan            -nan            -nan
LJ          0.942086        -2.50543        -1.35237
LJ              -nan            -nan            -nan
LJ           1.49625       -0.154042         1.66366
LJ              -nan            -nan            -nan
LJ          0.428816       -0.859062        -1.05297
LJ           2.20732        -1.70188        0.723924
LJ          -1.46719         -2.3833         1.23352
LJ          -1.56249        0.116669         2.45843
LJ           1.46887         -1.8106        -1.93413
LJ           2.13238       -0.711483         2.20604
LJ          -1.97001         1.68963        -1.57521
LJ          -1.64288       -0.878956         2.19788
LJ          -1.52952         1.07173       -0.435081
LJ          0.256565        -2.53843        -1.84717
LJ          -2.26994        0.508874         2.39258
LJ          -2.34878         2.26925        0.727676
LJ           1.74696       -0.572186        0.909203
LJ         -0.421853       -0.787296        -2.45289
LJ         -0.151396        -2.33726        -2.43026
LJ          -2.39541         1.80646        0.788867
LJ           1.95023         2.32499       -0.115677
LJ              -nan            -nan            -nan
LJ         -0.340643        -0.53428       -0.973436
LJ           1.90759          -2.024         2.33585
LJ          0.472103        -1.93748          2.5042
LJ          -1.42176        -1.29772        -1.53882
LJ          -2.05296         1.69607        0.734482
LJ          -2.40863        -2.21098         1.63291
LJ            1.2505        0.927945        -1.23879
LJ           1.76596        -2.00419       -0.902791
LJ          -2.43432         1.99244         1.66162
LJ           1.66397        -1.31203      -0.0214434
LJ              -nan            -nan            -nan
LJ              -nan            -nan            -nan
LJ           1.08795        0.514115        0.366399
LJ           1.38703        0.652645       -0.927853
LJ              -nan            -nan            -nan
LJ         -0.573082         1.97678         1.32514
LJ         -0.312958         -2.2424         2.25909
LJ           2.47396       -0.996418        0.320257
LJ          0.670445        -1.02841       -0.699442
LJ           1.28641        0.713088     -0.00454396
LJ            2.5403        -1.18069       -0.835067
LJ           -1.2364       -0.859436         1.28201
LJ          -1.83887       -0.497833          1.0977
LJ           1.15834         1.80135        -1.21199
LJ          0.655573        -1.38278         1.63053
LJ         0.0545297       -0.206515        -0.43019
LJ         -0.635536         1.35824          1.0612
LJ           1.32563         1.60789       -0.667657
LJ           1.47864        -2.26447       -0.512321
LJ          -2.23809        -1.37602        -0.75931
LJ          0.804696         2.54703       -0.618938
LJ          -1.29697        0.834335       -0.216636
LJ          0.141303         2.30427        -2.19153
LJ         -0.542679        0.851068         1.75714
LJ           1.66422        0.879479          2.0906
LJ          -1.96548        0.496987        -2.44338
LJ           2.02115        -1.63987        -1.07678
LJ              -nan            -nan            -nan
LJ          0.273295         2.36652         1.78013
LJ           -2.0848        0.529207        -1.64169
LJ           1.18718       -0.644142        -2.08219
LJ          -0.62779         1.82789         1.67358
LJ          -1.61587        -0.58947         2.17551
LJ         -0.282821         1.35537        -1.41421
LJ          -1.48319      -0.0924977       -0.820666
LJ              -nan            -nan            -nan
LJ          -2.38184           -2.55        0.375606
LJ           1.09173        -2.35062        -2.07921
LJ          -2.55582        0.263324         2.46265
LJ         0.0635745        -1.02492         1.35728
LJ           1.88538         2.52961        -2.55473
LJ              -nan            -nan            -nan
LJ          -1.19558        -1.45551         2.02953
LJ          -1.41039       -0.945034        0.867897
LJ              -nan            -nan            -nan
