108
#Comment!
LJ           1.87607         1.96021         2.03018
LJ          -1.59664       -0.120279       -0.747767
LJ          -1.98342        0.291623         2.02466
LJ           1.31085         2.35718       0.0425835
LJ         -0.644313        -2.22265         1.15297
LJ          0.401995       -0.860383        0.191262
LJ           2.09591        0.631262        0.739368
LJ           -0.8886         2.38542        -1.09377
LJ           1.31526         1.87836       0.0758654
LJ            1.7797         1.54636       -0.438395
LJ              -nan            -nan            -nan
LJ          -1.02542          1.9794        -2.49494
LJ          -1.94536         1.51127       0.0780797
LJ              -nan            -nan            -nan
LJ          -1.45648       -0.130114        -1.42675
LJ              -nan            -nan            -nan
LJ              -nan            -nan            -nan
LJ              -nan            -nan            -nan
LJ         -0.654545        -1.42352        -2.04503
LJ              -nan            -nan            -nan
LJ          -2.09999        0.590814       -0.871134
LJ          0.288171         1.09096        0.686257
LJ          0.410735        0.971856         1.63632
LJ           2.07138        0.899819        0.140004
LJ           1.47251        -1.72746        -1.28267
LJ         -0.551456         1.17584         1.65405
LJ          -2.33359       -0.203271       -0.465856
LJ          -1.63303         2.55304         2.42285
LJ           2.13645       -0.405595        0.702097
LJ          0.751561       -0.521456        -1.70046
LJ              -nan            -nan            -nan
LJ          -1.38054      -0.0914271         1.02397
LJ              -nan            -nan            -nan
LJ           2.00433         2.11112        0.334145
LJ              -nan            -nan            -nan
LJ           -1.4795        -1.15371        -1.05356
LJ          0.705378        -1.05411         1.49891
LJ         -0.977294        0.197622        0.570179
LJ           1.13461      -0.0459584       -0.841303
LJ          0.161112        0.456898        -2.29875
LJ           1.31538        -1.56056         2.22602
LJ          0.105007         1.75707         1.07575
LJ           2.47367         -1.8484        -1.70358
LJ          -0.33754        0.212896        0.597968
LJ          -1.12739         1.13187       -0.167982
LJ         -0.512084        -1.42884         -2.0129
LJ           1.96993       -0.373331         2.49152
LJ         -0.389371        -2.21223       -0.992134
LJ          -1.16829       0.0204466          1.4579
LJ           1.70144        0.424407        0.139794
LJ        -0.0490669         1.84471       -0.942463
LJ           2.16308        -1.37391        0.152496
LJ              -nan            -nan            -nan
LJ          -0.51768        -1.01426       0.0956275
LJ          -1.28406        -1.40405         1.41959
LJ          -1.27933        -1.72809       -0.647125
LJ         -0.132894       -0.120766        0.129322
LJ          -1.53415        0.604671        -2.39836
LJ           1.99661          1.5314       -0.244978
LJ          0.897072        -1.85695        0.306959
LJ          -1.05829        -1.14207        -1.57372
LJ          -1.58527        0.804267        -1.75797
LJ           1.54896       -0.870269        -2.08539
LJ          -2.28051        -1.55961        -1.60557
LJ              -nan            -nan            -nan
LJ          -1.96719        -1.08589         1.18651
LJ           2.51013        0.667736         2.48242
LJ              -nan            -nan            -nan
LJ          0.452449         1.50434        -2.05949
LJ         -0.216764            1.27        -1.97011
LJ           1.44531        -1.11695        -1.32702
LJ        -0.0367477        -2.50463         1.88138
LJ          -2.04235        -1.72851        0.403322
LJ          -1.92289        0.582968        -2.08632
LJ           1.16671        0.486606        -1.64423
LJ           1.89236        -1.78178        -1.23278
LJ           1.17963         1.74135         2.07081
LJ          -1.38581         1.37738         1.41692
LJ          -2.39189         1.06497        -1.26444
LJ           2.41508        -1.02429         1.68135
LJ          0.377353        -1.72783         -2.5038
LJ         -0.819478      -0.0703405           1.511
LJ          -1.99361         1.83381         1.41051
LJ         -0.827201         -1.2479        -1.34075
LJ          -1.71809       -0.603578         -1.4063
LJ          -1.11371        -1.59396         0.75958
LJ           1.21614         2.04335        -2.42932
LJ          0.265105        0.693148        -1.10673
LJ          -2.34822         2.36869         1.14649
LJ           2.12206        0.268133        -1.69137
LJ              -nan            -nan            -nan
LJ         -0.996193        0.234559       -0.424873
LJ           1.56785        -1.58865         1.33824
LJ           1.37232          1.3253        -2.39955
LJ          0.180509          1.8776        0.725529
LJ           2.39001         1.20504         2.36815
LJ          -2.28738       -0.789153         -0.6299
LJ           2.24458        0.299745        0.270244
LJ              -nan            -nan            -nan
LJ         -0.553195        -1.45757         1.56966
LJ           0.15528        0.315139         1.15853
LJ         -0.673071       -0.135764       -0.632657
LJ          0.366076      -0.0486658         2.42326
LJ           1.94146          1.0142       -0.906957
LJ              -nan            -nan            -nan
LJ          -1.78205        -1.73753        -1.87791
LJ          -1.99319        -2.07205        -2.06976
LJ              -nan            -nan            -nan
