108
#Comment!
LJ          -0.22738         1.20239         2.21894
LJ          0.277309         1.28893         1.50017
LJ         -0.273393        0.554578         -1.7725
LJ          -2.48884        -2.40292          1.8068
LJ          -1.09369        -2.28955         2.36569
LJ          -1.55693       -0.682867        0.898371
LJ         -0.944726        0.256172        0.303526
LJ          -1.59506        -1.69341         1.69051
LJ            2.3951         1.01706         1.37396
LJ           1.86443        -1.63773         1.09266
LJ              -nan            -nan            -nan
LJ          0.804156        -1.05877       -0.562919
LJ          -1.53384        -1.28916        0.132264
LJ          0.282343       -0.194473      -0.0529109
LJ         -0.860005        0.374139       -0.763373
LJ           2.06815       -0.365037        -1.93565
LJ          0.999734       -0.789868        -2.22097
LJ         -0.216902      -0.0764446        -1.70651
LJ          0.861579         1.84857          1.7318
LJ          0.988296       -0.819397           1.037
LJ           0.20696       -0.205098        -1.84796
LJ            2.5418        -1.08149         1.89867
LJ           2.23864         2.09314        0.783881
LJ         0.0070443         2.55191         1.29103
LJ            2.4827        -1.45408         1.42484
LJ          -1.27276        -2.53853         2.28288
LJ         -0.906682       -0.958994         1.89424
LJ           1.35001        0.966227        -1.65891
LJ           1.88199           -2.46        0.761604
LJ          -1.70207        0.297707         2.54407
LJ         -0.999154         2.14102       -0.333671
LJ          0.880984        -1.89703       -0.206783
LJ              -nan            -nan            -nan
LJ         0.0541717        -1.12406        0.976633
LJ         -0.411961        -2.00933       -0.603916
LJ          -1.96226       -0.278451        -1.85985
LJ          -0.99275      -0.0569555        -1.99486
LJ         -0.710028         2.33788        0.881085
LJ           2.14507        0.617524        0.998971
LJ           1.13322        0.320107        0.376416
LJ          -2.15288     0.000665464        -1.85199
LJ         -0.362792       -0.357626        0.273228
LJ           2.26628       -0.823589        -1.27262
LJ           2.28133         2.18449       -0.515703
LJ          -1.26357       -0.835049        0.800294
LJ          0.302926         1.28656        -1.64046
LJ           1.82942         2.15518       -0.508234
LJ          0.572773        -2.40491        -1.57948
LJ          -2.40749          1.9421         -2.1229
LJ          -2.03329       0.0768351         2.11808
LJ           -1.8599        0.663443         1.15495
LJ           2.31846       -0.402849         2.44468
LJ         -0.921514       -0.573159         2.33907
LJ           2.17938         -1.1194        0.506187
LJ          -1.70947        -2.38744         0.12843
LJ         0.0911638       0.0433245       -0.437296
LJ           -1.2149      -0.0750483        0.576932
LJ          -2.36673         0.12045        -1.92332
LJ          -1.78088        -2.24764         1.24005
LJ          0.778636        0.939118          2.4604
LJ         -0.954875         1.25164         2.35821
LJ          -2.31834        -2.54275        -1.88169
LJ           1.26878          1.7004        -0.58223
LJ           1.81278        -2.55457        0.717902
LJ          -2.35148        -1.63966         2.39428
LJ           -1.1646         1.13633        -2.39169
LJ          -1.88058       -0.225669        -1.99006
LJ          -2.55208        -1.53751        -1.17467
LJ           1.06484        -1.18111           2.279
LJ           1.92802        0.533124       -0.683057
LJ           1.57634         1.27018        -1.86968
LJ          0.442579        -2.53478         0.10962
LJ         -0.666217        0.599687          2.0936
LJ           1.98956         2.24947        0.828065
LJ           1.68019         1.65195        -2.21778
LJ         -0.910433       -0.175068        -1.42826
LJ          -1.84152        0.344888         1.62172
LJ           2.29548        -1.06723       -0.530527
LJ            2.2078         1.50237        0.887563
LJ          0.939603        -1.57934         0.27086
LJ         -0.662317        -2.12817         1.93271
LJ           0.57209        -1.93857        0.725909
LJ         -0.111505        -1.07306        -1.10848
LJ          -1.48077        -0.45509        -2.41826
LJ            1.3036         1.82234         2.22312
LJ         -0.678952       -0.815371        0.706904
LJ         -0.504647        0.758419         1.26864
LJ          0.334823         1.19773        -1.36428
LJ          -1.21721      -0.0293797        0.599733
LJ          -2.46777        -1.43938         2.08271
LJ           -1.3672       -0.475831        -1.20938
LJ           2.18585         -1.7986       -0.116416
LJ           -0.9433       -0.600708       -0.230307
LJ          -1.57836        -1.05776         1.41995
LJ           1.80365         1.66899        0.873611
LJ           1.18555         -2.1459         -2.2069
LJ           1.20203       -0.183013        -2.35893
LJ          -1.99919        0.564078       -0.286832
LJ          0.170158         1.36289        0.164111
LJ           1.99365        0.697566         1.43935
LJ          -1.32524        -1.50996        -2.13439
LJ           2.39092        0.405987       -0.497723
LJ          0.511119        -1.11289        -1.94259
LJ          -2.04606        0.322199        -2.21374
LJ           1.03467        -1.57439       -0.757268
LJ           2.50731         1.50198        0.624149
LJ           -2.4901        -1.47226        0.185996
LJ          -2.38263        0.937943        0.649399
