108
#Comment!
LJ           1.52511        -1.48054         1.63167
LJ         0.0876424        0.897198        0.337577
LJ          -0.99556         -1.4144         1.60034
LJ           2.50917         1.77133        0.171556
LJ         -0.274659       -0.930745         1.96899
LJ         -0.824664       0.0380864         -1.2934
LJ          0.473007         2.43483        -1.93057
LJ         -0.731044        0.316941        0.778009
LJ          0.866738         1.51885         2.54141
LJ          0.321954      -0.0630987        -0.24737
LJ              -nan            -nan            -nan
LJ          -1.79248        0.656881      0.00435135
LJ          -2.44002        -0.81254       -0.733567
LJ          -1.32883        0.773937        0.538733
LJ          0.394038        -1.24047       -0.954256
LJ              -nan            -nan            -nan
LJ              -nan            -nan            -nan
LJ              -nan            -nan            -nan
LJ           1.27385        -1.73224         1.66724
LJ              -nan            -nan            -nan
LJ          -1.40761         0.40451       -0.915753
LJ          0.374457       -0.188691         2.54589
LJ          -2.24508       -0.825931         1.48292
LJ          -1.03753         -1.0838       -0.531107
LJ          -0.81854        -1.39756       -0.830557
LJ          -1.20976       -0.885113      -0.0605446
LJ            1.2598        0.192967       -0.851059
LJ           0.19135        -2.06083         1.42658
LJ            2.1591        -2.06238         1.86669
LJ           1.00351        0.952734        -2.37804
LJ            1.2373        0.084765       -0.730157
LJ           2.56361        0.272767        0.294492
LJ              -nan            -nan            -nan
LJ         0.0418601           1.262        0.806475
LJ              -nan            -nan            -nan
LJ         -0.991188        0.688819        -1.65945
LJ           1.73314        0.256161      -0.0141977
LJ           1.39931         1.47227        -1.79169
LJ          -1.90475        0.270327        -2.02433
LJ          -1.99689         0.68746       -0.730492
LJ          0.756319        0.237299        -1.92081
LJ          -2.10534        -1.26405         0.26728
LJ           1.52015        -2.36575       -0.671577
LJ         -0.446264          2.3116        -2.19211
LJ          -1.37622         2.05668        -1.43144
LJ          0.556841        -1.00672       -0.859096
LJ          0.303126        -1.15702         2.07065
LJ          0.810078      -0.0290059         2.33571
LJ          -2.32785         2.27492         2.22154
LJ         -0.837772       -0.715967         1.72445
LJ          -2.30838         1.61952        -1.61651
LJ          -0.60056        0.704652        -1.30892
LJ              -nan            -nan            -nan
LJ          0.812372       -0.516526       -0.744394
LJ          0.333401         1.39821        0.616589
LJ           1.00329         -1.1372         1.09702
LJ          -1.86669       -0.619404         2.34059
LJ           1.85657         1.53541        -1.86931
LJ           -1.5509        -1.66139         2.09953
LJ          0.679558        -1.59074       -0.536711
LJ          0.753642        -1.37313       -0.253108
LJ          0.719073        -1.85685        -1.72171
LJ             1.394        0.850167        -2.39929
LJ           1.41233        0.790323       -0.972862
LJ          0.384312       -0.691659          1.1335
LJ          -2.23469          -1.751         1.88233
LJ          -1.10409       -0.638654          1.8404
LJ              -nan            -nan            -nan
LJ           1.30219         1.21872         -1.9363
LJ          -2.30511      -0.0540735       -0.641241
LJ          -1.52649        0.908648        0.058022
LJ             2.234         -1.9619         1.75675
LJ           1.48854         1.23501       -0.098739
LJ        -0.0377458       -0.254623         2.29034
LJ         -0.097461       -0.452605         1.56401
LJ           1.86323        -2.02202          -1.118
LJ          -1.82033       -0.423366         1.98007
LJ           -2.5644         1.18071        -1.39043
LJ          0.887914         1.61363       -0.580937
LJ         -0.596739        0.840147        0.426238
LJ          -1.24868        -1.70588        -1.81812
LJ          0.905083         2.43834        -1.43483
LJ         -0.567973         1.24017      -0.0808982
LJ          0.858325         1.50583        -2.14389
LJ           2.44589       -0.898284         1.90864
LJ           1.87914         1.28619        -1.19009
LJ          -1.91672       -0.448074         1.89393
LJ          0.247306        0.436389       -0.959596
LJ         -0.800009         1.43577         1.45706
LJ          0.774774        -1.38302         -2.0812
LJ              -nan            -nan            -nan
LJ          0.969921         -1.6194       -0.621331
LJ           1.35468        -1.21498         2.30249
LJ          -1.72954         1.38877        0.900102
LJ          -1.67784        -1.32646        -1.14553
LJ          0.170554        -2.02187        0.600206
LJ           1.68285        -2.34836       -0.230639
LJ         -0.996587         2.06503         2.29915
LJ              -nan            -nan            -nan
LJ           0.95505         2.14569          2.2891
LJ          -1.19141         2.21002        0.879965
LJ          0.236298        -1.62214        -2.08529
LJ        -0.0839128        -1.03006        -1.20383
LJ           1.65598         1.23577        0.264542
LJ           2.51358       -0.243611         2.19012
LJ           2.10023        0.885637         2.22112
LJ         -0.507044        0.819903         0.90534
LJ              -nan            -nan            -nan
