108
#Comment!
LJ           -2.1552        0.590843       -0.623676
LJ          -2.42334         2.07551       -0.565318
LJ         -0.358517         2.20037         2.13892
LJ         -0.359375        0.957018         -1.6507
LJ          -1.96362       -0.461774        -2.30354
LJ            2.1507       -0.969346        -0.14248
LJ          -2.56155        0.298694      -0.0659389
LJ           2.17696         1.43553       -0.665233
LJ         -0.892996            1.96         1.36333
LJ          0.688736        -2.44934         -2.4285
LJ              -nan            -nan            -nan
LJ          0.186359        -2.01308     -0.00634619
LJ         -0.862731       -0.600506        0.219513
LJ          -1.78795         1.38504        0.100121
LJ          -1.46352          2.2455      0.00109288
LJ          -1.34721         2.17117        -1.71521
LJ           -1.4215        -1.95723        0.407084
LJ          -1.85142       -0.328509          1.6712
LJ           1.10404         1.56698       -0.521065
LJ           1.91852          1.8478        0.682345
LJ         -0.597931        -1.87222          1.0813
LJ           2.10532        0.375014        0.484939
LJ           1.23431         -2.2759       -0.921253
LJ          -2.41685        0.737695         1.99495
LJ       -0.00488275        -1.92057        -1.33274
LJ           1.28346       -0.829078       -0.727524
LJ           1.16772      -0.0195693         0.75478
LJ          -2.36175         1.32077         2.00353
LJ          -1.84158         2.11517           1.807
LJ          0.991025        0.699646         -1.9488
LJ        -0.0131633        -1.70853        -2.19576
LJ          -2.24257         -2.2821        -1.26894
LJ              -nan            -nan            -nan
LJ          0.176755        0.664917        0.736799
LJ          0.799937      -0.0638544        0.907274
LJ          0.245042          -2.195         0.61495
LJ          -1.96726        -1.17196        -1.91885
LJ          -1.83409       -0.880106        -1.63954
LJ           0.76328        0.616403        -1.45899
LJ          0.368786         1.39507         1.07432
LJ           2.52207         2.04775       -0.903422
LJ           1.20633       0.0555026        -1.04188
LJ          0.316128         1.82333         1.75962
LJ           1.54855        -1.50356         2.21382
LJ           1.92742         2.56257         1.17243
LJ          0.718222        0.533169        -1.57628
LJ          -1.76091       -0.841623        -1.46505
LJ           1.60752          2.1944         -1.1569
LJ           1.05464         2.07424       -0.494124
LJ           2.26104        -1.64283        0.985234
LJ          -1.88412         1.51833         2.03519
LJ           1.68955       0.0313678        -2.17535
LJ          -2.48352        0.180397         2.14262
LJ          0.167811        0.106588         2.12791
LJ          -2.47438         1.63915       -0.736357
LJ           2.30458        0.527666       -0.418223
LJ           1.96961         1.34575         2.26716
LJ           1.46618        -2.09647        0.551122
LJ            2.4893        -1.20977         2.34915
LJ           1.48377        -1.67003       -0.588203
LJ           1.64609         2.48869        -2.44196
LJ            1.3902        -2.14345        0.334583
LJ          -2.24285        -2.34553         1.15858
LJ           1.48713       -0.689385        0.831156
LJ          -2.21443        -1.19924          2.5074
LJ          0.151839         1.10848        -2.24038
LJ          0.564733       -0.105581        -2.12543
LJ         -0.287015         1.09264        -1.41361
LJ          -1.63362        0.180642        -2.05019
LJ          -2.40163       -0.906219         1.44828
LJ           1.48891         -1.1561        0.480306
LJ         -0.811698         1.08508        -2.29426
LJ         -0.627962           2.162        0.593597
LJ          0.831388        -1.08279         1.71664
LJ            -0.667         1.62885       -0.470569
LJ          0.966987         1.74936        -2.51242
LJ          -1.90188        -2.05932         1.06957
LJ           1.12161          1.2761         2.19756
LJ           -1.3421        -1.92519         1.09245
LJ          -2.49528          2.3381        -1.14732
LJ         -0.350175         -0.6059        -1.10874
LJ           1.53271       -0.897989        -1.45481
LJ          -2.48416        -1.27425        -2.20659
LJ           1.67668         1.83115          1.7844
LJ          0.797375        -0.78299       -0.394877
LJ         -0.312395         1.21403        0.694345
LJ           1.91138        0.116169       -0.826318
LJ          0.086254        -2.50309        -2.01743
LJ         0.0330597         2.41621        -1.80512
LJ         -0.196198       -0.560781         2.22768
LJ           2.46915         1.65497       -0.180826
LJ          -2.39949        0.112379        -1.52573
LJ          -1.53123        0.290755         2.47036
LJ          -2.16876       -0.849041        0.879904
LJ          0.695772        0.214233         1.68869
LJ           2.54227         1.01563        -1.27007
LJ          -2.24845         1.26261       -0.521614
LJ         -0.604627         1.93725        -1.95676
LJ           0.24125       -0.509548         2.15154
LJ           1.49991        0.491474         1.95041
LJ         -0.687738       0.0485895        -1.97928
LJ           2.02607         2.44418        -2.22144
LJ            -1.491         1.83994       -0.891922
LJ           2.51839         1.73841        0.384139
LJ          -1.48474         1.58156       -0.505517
LJ           1.52497         2.44466       -0.503217
LJ         -0.857928       -0.200366        -1.78634
LJ           2.45884        -1.82399        -2.27759
