108
#Comment!
LJ           2.09151       0.0977179        -1.55026
LJ          0.357147         1.29453        0.769683
LJ         -0.575994        -1.48163        0.345874
LJ         -0.730219      -0.0950851        -2.22095
LJ          0.754305        -2.19032        0.671256
LJ          -1.92061        -2.15139        -1.36368
LJ           2.19932        0.936996       -0.699442
LJ           1.31193        0.618099        -2.55205
LJ           1.73451          1.5828         1.70317
LJ        -0.0909376       0.0801882        -1.75811
LJ              -nan            -nan            -nan
LJ           -1.3181        0.364399        0.251522
LJ         -0.291269         1.61583        -1.01496
LJ         -0.132974        -1.21478        -1.85431
LJ         -0.535912          1.0491      0.00645893
LJ           1.93419       -0.755649         2.47317
LJ           2.50631         1.89089         1.55582
LJ          0.897569       -0.405446        -1.74454
LJ           2.13891         1.81048        -1.57847
LJ          -1.12234        0.729296         1.35139
LJ        -0.0481331        0.428088      0.00816938
LJ         -0.631587       -0.232932       -0.722669
LJ          -2.04663         1.37313       -0.582058
LJ        -0.0559459       -0.852623      -0.0116061
LJ          -1.04223       -0.675207         1.64815
LJ          0.391329         1.21024        0.621516
LJ         -0.362368        -0.78188       -0.897869
LJ           1.39874       -0.973301         2.48989
LJ          -1.39291        -2.56192         2.42807
LJ           1.04303         1.82559       -0.406263
LJ          -1.11586         1.16017        -1.60265
LJ           1.23721       0.0720794         0.98985
LJ              -nan            -nan            -nan
LJ          -1.02362         1.90794        0.866731
LJ          -2.18878         1.96691         1.44105
LJ         -0.964814        -1.47951         1.69345
LJ           2.10929       -0.839971      -0.0176064
LJ          -1.25654        -1.28685         -1.3854
LJ           2.28284         1.56449         2.10471
LJ           1.70423         2.20836        -2.31168
LJ          -2.19746         -1.3502         -2.5592
LJ          -2.28727         2.52802        -2.13403
LJ          -1.39267         1.51641        -1.66891
LJ          -2.27768         2.33794         1.57419
LJ           1.72105        0.700483         2.43553
LJ           1.10169        -2.09401         1.02223
LJ          0.579925        -2.55816       -0.797044
LJ          -2.12854      -0.0232282       0.0257606
LJ         -0.736636       -0.900143        0.185507
LJ           -2.1173        0.396955         2.18231
LJ           0.93761        -0.66463        -1.70918
LJ          0.930867        -1.61305       -0.850645
LJ          0.502897        -1.46899         1.59962
LJ          0.719422         2.39388        0.190395
LJ          -2.01484         -1.8985        -1.50544
LJ         -0.560656       -0.206918         2.16613
LJ         -0.764955         1.21738        0.887639
LJ          -1.15253         1.67695        0.314325
LJ          -1.39833         1.35375      -0.0583487
LJ          0.979546         2.16305        0.898449
LJ         -0.228295       -0.725452         1.87334
LJ          0.601539        0.242523         1.52768
LJ          -1.73503        -1.80059         2.28717
LJ          -1.28459        -1.45873          1.6371
LJ          -1.16818        -2.16373         1.93249
LJ           2.00281        0.130764        -2.53995
LJ         0.0675425        -1.04365        -1.19969
LJ           2.46897         2.44859       -0.157627
LJ          -2.37274        -1.88358       -0.146966
LJ           2.22345         1.23543      -0.0489046
LJ           1.00786        -1.14584        0.187207
LJ          -1.54288       -0.690755        -1.04565
LJ           1.67521         1.27299         -1.1952
LJ          0.394636         1.09571        0.449717
LJ          0.844248         1.22624         2.14797
LJ           2.30202        -1.29113        -2.30753
LJ          -2.48501        -2.04787        -1.41987
LJ          0.554572        -2.55976        -1.44864
LJ          -1.72822        0.198143        0.961534
LJ           -2.2927         1.59587       -0.661687
LJ          0.164064        -1.81591        -2.02688
LJ         -0.443923       -0.840089         1.69727
LJ         -0.141264       -0.965351       -0.998314
LJ         -0.140612       -0.852197          1.9457
LJ          0.663459          1.0983        -1.88437
LJ           0.37976        -0.50734      -0.0234131
LJ         -0.266684         0.36196        0.876705
LJ         -0.334058        -0.21976        -1.10242
LJ           1.13619        0.416803        0.597426
LJ          0.358041        -1.49794         1.98847
LJ           1.56679         1.70606      -0.0137779
LJ           1.42825        0.597319         1.00409
LJ           0.46959        -1.73224        -2.47605
LJ           1.10513        -1.13371       -0.616851
LJ          -1.04247        -1.55631        -2.23497
LJ          0.279514         2.06873       -0.877316
LJ         -0.388024       0.0170298        -1.55597
LJ            1.7433        0.233905       -0.593319
LJ        -0.0758427        0.162562         2.34433
LJ         0.0489665        -1.44151         2.14053
LJ           2.15445       -0.594824        0.227836
LJ         -0.894328       -0.935513          1.6168
LJ           1.98348         1.48781       -0.714906
LJ          0.492733         1.52229        -1.20473
LJ         -0.165421       -0.958515         1.60299
LJ          0.547622        -1.08048        -1.13383
LJ         -0.594268        -1.21214        -2.23511
LJ          0.448402       -0.516479          1.4765
