108
#Comment!
LJ          -2.02143        -2.29119         2.12264
LJ          -1.00452        -2.24066        0.593967
LJ          -1.71355       -0.452784        -2.30178
LJ          -1.75562        -1.80002        -1.87788
LJ           2.37176        0.952039         1.81849
LJ          -1.90638         1.23612         1.21784
LJ          -1.80551         1.19954       -0.941923
LJ          -1.70943        -1.82377        -1.60781
LJ          0.171051       -0.996873         2.43335
LJ           1.96274        -1.67407       -0.786798
LJ              -nan            -nan            -nan
LJ         0.0249564        -2.16484        -1.16718
LJ           -1.9374        -1.03696         1.41561
LJ          0.787475        -1.26259        -1.98418
LJ         -0.929684        -2.17735        -1.52113
LJ              -nan            -nan            -nan
LJ              -nan            -nan            -nan
LJ              -nan            -nan            -nan
LJ          0.244147         2.31468       -0.935097
LJ              -nan            -nan            -nan
LJ           0.87881         1.95889        -1.23771
LJ           1.77205       -0.484448         1.46786
LJ         0.0509432         0.61023        -2.42508
LJ          -1.22294       -0.506819         1.55572
LJ           1.36153      -0.0970807      -0.0276499
LJ         -0.415197        -1.64778        -1.53429
LJ          -2.11095        -2.10623        -2.34402
LJ         -0.804278        -2.32386        0.990634
LJ         -0.621357        -2.13788        0.629202
LJ         -0.776838          1.7243         1.91087
LJ           1.41209      -0.0686325        0.419195
LJ           1.79297       0.0375456         2.19916
LJ              -nan            -nan            -nan
LJ          -1.02149         1.08274         2.42282
LJ              -nan            -nan            -nan
LJ         -0.380392       -0.901178          2.4768
LJ          -0.15377        0.147968        -1.10005
LJ          -1.22942        0.892086       -0.662071
LJ           2.49136        0.608406        -2.02071
LJ        -0.0259027        -2.10331        -1.29334
LJ          0.430119         -2.3843        0.745546
LJ          0.489257         1.74416         2.39267
LJ          -1.19548         1.52455         1.61041
LJ           -1.6169         1.93271         1.22904
LJ         -0.441724        -1.59263        -1.72243
LJ           1.23076       -0.630641         2.46314
LJ           1.75162        -1.26411        0.954643
LJ           1.05353         2.40046       -0.619245
LJ           1.92064         1.85313         2.38839
LJ           2.25287        0.863357         -1.5722
LJ          0.268001       -0.338083       -0.497915
LJ          -1.99304         2.17905        0.503886
LJ              -nan            -nan            -nan
LJ          0.891761        -1.65383       -0.884801
LJ          0.231489       -0.287148        -1.97285
LJ         -0.326154        -2.39227        -1.82613
LJ           2.11456         1.98752        -2.06428
LJ           2.55229       -0.715702        0.471242
LJ          -2.21095         1.98433         -2.0742
LJ          -2.29923         1.51152         1.81619
LJ           1.39125        -1.49753       -0.468473
LJ          -2.41285        -1.58398        0.084191
LJ         -0.467833         1.64212         1.00027
LJ           1.92108         1.01029         1.86945
LJ          -1.23702        0.933616         1.12296
LJ          -1.11391        -1.90595          1.1263
LJ          -1.86082       -0.728498        -1.51966
LJ              -nan            -nan            -nan
LJ           1.93822       -0.307365       -0.391472
LJ          -1.70987        -2.15514        -2.22416
LJ          -1.62964         1.21425        -2.35392
LJ           2.14155        -1.13145        -1.66415
LJ          0.313916        -2.11361        0.977838
LJ          -1.06837        -1.30729        -0.58886
LJ           -1.2964        0.900444          -2.514
LJ         -0.176457          1.0154         1.97505
LJ         -0.579986       -0.786416        0.599784
LJ         -0.254761        -1.17463        0.215596
LJ          -1.50385       -0.278514      -0.0787105
LJ           1.36449         1.89363         1.60992
LJ          0.624405         1.30051        -2.09496
LJ         0.0902035        -2.51698        -1.33929
LJ        -0.0998236         2.38287         2.00167
LJ         -0.959354        -1.45992        0.231498
LJ            0.8556         -1.4986       -0.163398
LJ           1.07446         1.34834        -1.47336
LJ          0.230043         1.42317       -0.841483
LJ           1.95076        -1.59356        0.550652
LJ           1.06853       0.0696349         1.18034
LJ         -0.544073        -2.43053         2.46749
LJ              -nan            -nan            -nan
LJ          -0.18144       -0.627257        -2.52288
LJ          0.435516        -2.32894         1.92574
LJ           -1.3769        -1.36451        -2.17298
LJ        -0.0544684       -0.430855         1.54308
LJ           1.64841        -1.53348         2.43111
LJ           1.50665        0.414431        -1.76291
LJ           1.31576      -0.0899819         2.22181
LJ              -nan            -nan            -nan
LJ           0.47604        -2.03247       -0.466579
LJ         -0.641574         1.54482        0.668318
LJ          -2.20479       -0.781512         1.14075
LJ          0.892711        -1.55968         2.00307
LJ           1.78995       -0.521227        -1.92718
LJ          0.502135          2.1231       -0.333519
LJ          0.448961         2.24867        0.818846
LJ          -1.99764       -0.890266        -1.38546
LJ              -nan            -nan            -nan
