108
#Comment!
LJ           2.22738        -1.02311        -1.90282
LJ           1.35471        -2.43972        -2.35371
LJ            1.7145         2.45474        0.188671
LJ          0.170524        0.993849         0.63842
LJ          -1.52221         1.62972       -0.207462
LJ          0.776697        -1.28461        -1.85531
LJ          0.550782        -1.54564       -0.102903
LJ         -0.647354        -1.77181        -2.13928
LJ           2.26262           2.465       -0.344738
LJ          -1.33087        -1.09311        -1.99067
LJ              -nan            -nan            -nan
LJ           1.56398         1.48075        -1.71703
LJ           1.37307       -0.583802         1.90556
LJ          -2.02855      -0.0105461       -0.485744
LJ          -2.27618         0.22087          1.8229
LJ          0.246686         -2.0504         2.18146
LJ              -nan            -nan            -nan
LJ              -nan            -nan            -nan
LJ          0.513055        0.272794        0.325166
LJ              -nan            -nan            -nan
LJ          -1.62888        -2.06876        -1.45692
LJ          -2.50985         2.21592        0.136657
LJ          -1.37937          1.9935        0.910706
LJ         -0.402277       -0.910518         -1.6512
LJ          -1.75413       -0.725021         0.40702
LJ           2.17775          1.7888         0.21077
LJ          -1.97432          2.0737         1.73808
LJ          -1.50934        -2.14816        0.524481
LJ         0.0157408         1.46637       -0.145733
LJ          -2.19745         0.65369         1.01079
LJ         -0.883758          2.4118         2.32998
LJ          -1.47075        -1.82974        0.717575
LJ              -nan            -nan            -nan
LJ          0.339334        -1.17364        0.672599
LJ              -nan            -nan            -nan
LJ          -1.92883     -0.00971932         -1.8141
LJ         -0.428558        -2.12513        -0.53486
LJ          -2.31809       -0.970412       -0.854207
LJ          -2.48996        -1.35994        0.945994
LJ           1.44963        0.327196        -1.87102
LJ           2.10346       0.0940829        -2.48398
LJ          0.216362         1.43263        0.108754
LJ         -0.972923         2.52332         1.42891
LJ           1.82441         1.06073        -1.84027
LJ          0.950057          0.6206        0.435143
LJ           0.94034        0.105502         -1.8482
LJ           1.11233         1.31929        0.172746
LJ           2.12246        0.051393       -0.192161
LJ         -0.442593        -1.43422        -2.30069
LJ           2.42259        -1.95859        0.778869
LJ          0.550987          1.6274         1.18386
LJ          -1.41437         0.74347         1.46389
LJ              -nan            -nan            -nan
LJ          -1.26142         1.35728        0.816467
LJ          0.764041       -0.628478        -1.25747
LJ           1.08484       0.0149967         2.52514
LJ           1.56598      -0.0380076        -2.37589
LJ        -0.0851763         2.18974        -2.35772
LJ          -1.24034        -1.94173        -1.00603
LJ         -0.486298        0.641663         1.12528
LJ           2.26126        -1.46678        -1.62778
LJ         -0.909395         1.90808        -1.61583
LJ          0.991406         1.50397           1.276
LJ          -2.19185        -1.70577       -0.613735
LJ          0.501482         2.34812        0.632642
LJ          -0.70624         -1.9723        -1.45473
LJ           -0.2587         1.42326       -0.600329
LJ              -nan            -nan            -nan
LJ          -1.79047         1.47531         1.43678
LJ           -2.1458        -2.11984        -2.39613
LJ        -0.0945417        -2.46512        0.540129
LJ         -0.396373         1.75266      -0.0244203
LJ          -2.23982         2.03728         -1.1077
LJ          -1.36366        -2.02266        -1.46423
LJ         -0.416758       -0.872177        0.612561
LJ           1.23238        -1.25701         1.37421
LJ         -0.357744        -1.06599         1.19032
LJ         0.0296135         0.40803        -1.25666
LJ          0.242134         2.18812       -0.310385
LJ           1.87907         1.19003         2.24364
LJ           -2.2135       -0.861467        0.586558
LJ         -0.986351         2.56485      -0.0712828
LJ          0.576378         2.18273        -1.96442
LJ           1.85654        0.123314       -0.612987
LJ           1.57053       -0.592744        -2.46512
LJ          -1.51401        -1.48167        0.190353
LJ          -1.88846        -1.37892         2.35149
LJ           2.08766         1.59708         -2.1007
LJ        -0.0757241        -1.86339       -0.545133
LJ          0.582913         2.08696         1.17107
LJ              -nan            -nan            -nan
LJ            1.0265         1.06352        0.936797
LJ          0.168466       -0.532271         1.21534
LJ           1.20457        -1.86351       -0.968497
LJ          -1.16035         1.02882         2.51475
LJ         -0.272262        0.818633      -0.0334413
LJ          0.810101         1.31018        0.787415
LJ           2.09164        -2.42038         1.82015
LJ         -0.451757        -1.09823        0.258319
LJ          -2.07482        -1.92338        -1.41724
LJ           2.31438        -1.47464       -0.577633
LJ           2.31436         1.06783        -1.90667
LJ           1.28506         -1.2121        0.403148
LJ           1.98697         -2.0213        -1.19707
LJ         -0.308743        0.496738         2.23701
LJ            2.3865         -2.3659        0.812212
LJ         -0.270043       -0.175534         2.01232
LJ              -nan            -nan            -nan
