108
#Comment!
LJ          0.231865         -1.8212        -2.53244
LJ           1.51213      -0.0187389        -1.28424
LJ            1.3348         1.79524        -1.68569
LJ           1.46537        0.889075         2.05908
LJ           1.15108        -1.64394       -0.381181
LJ          -1.23706         1.52213       -0.440609
LJ          -1.95808         2.24605        -2.54906
LJ          -1.82866        0.571704        -1.12872
LJ          0.980628        -2.53858        -1.79021
LJ          -1.48378        0.809184        -1.48507
LJ              -nan            -nan            -nan
LJ          -2.36117        -1.14261        -2.51633
LJ          0.381877      -0.0397556        -1.64887
LJ              -nan            -nan            -nan
LJ           -1.5935        -1.94835        -1.95209
LJ              -nan            -nan            -nan
LJ              -nan            -nan            -nan
LJ              -nan            -nan            -nan
LJ          -1.27785        -1.55357          1.4579
LJ              -nan            -nan            -nan
LJ         -0.196872        -2.18073         -2.1692
LJ           2.00978        -1.66892         1.67195
LJ         -0.843182         1.03621        0.909653
LJ            -1.087       -0.615151        -1.50976
LJ         -0.872163        -2.15944        0.995748
LJ            1.8824       -0.117142       -0.177971
LJ          -1.94858         2.13018      -0.0103782
LJ          0.140164        0.560078         0.76785
LJ          -1.38098        0.558714         1.84646
LJ           2.45859       -0.791826        -0.35076
LJ              -nan            -nan            -nan
LJ          0.388252        0.916558        0.887887
LJ              -nan            -nan            -nan
LJ          -1.97305         1.81581         1.44957
LJ              -nan            -nan            -nan
LJ         -0.285716        0.818433        0.519773
LJ        -0.0863398         0.04448        0.318253
LJ          -0.89174         2.48825         2.05256
LJ         -0.337869         1.87564         1.17871
LJ           -1.3031         2.11334         -1.4778
LJ          -1.65884        -2.03148         -2.2943
LJ           2.06728        0.473728         2.10541
LJ          0.697573       -0.703966        -2.16058
LJ           2.37346        -1.66114         2.12453
LJ         -0.617752         2.49374          0.8222
LJ          0.885435        -2.07598          1.1933
LJ         -0.602412        -1.18059        0.959036
LJ         -0.381456         1.88474       -0.967068
LJ           2.25924          1.1918          2.3683
LJ           -2.0429       -0.261038        -1.90004
LJ           1.23699        -2.27154        -2.40366
LJ         -0.820536        -1.92331        0.328647
LJ              -nan            -nan            -nan
LJ          -1.36017        -0.70084        -0.51606
LJ           1.35895        -1.61556         1.61817
LJ           2.38509        0.765854       0.0284494
LJ          -1.40935         2.33971        -2.42899
LJ           2.20752         2.40337        -1.46951
LJ          0.774086         1.23608         1.25764
LJ           1.87237       -0.882252        -2.42132
LJ          -1.36421       -0.780616         1.17793
LJ          -1.96475        -2.33679        -2.50889
LJ          -2.37227        -2.50283        -2.43827
LJ          -1.57341         2.25549        0.428742
LJ              -nan            -nan            -nan
LJ          0.774177          2.5147        0.664186
LJ           1.37275        -1.73233        0.932648
LJ              -nan            -nan            -nan
LJ           1.22949         1.40383        0.804505
LJ           1.19491          2.2605        0.861344
LJ           -2.5421       -0.618426        -2.25568
LJ          -0.24708       -0.720813         1.11017
LJ           0.90814        -1.10664       -0.696313
LJ          -1.44628         0.27845         1.09631
LJ          0.477955         2.36764        -1.49003
LJ          0.728802          -1.675         -1.2023
LJ           1.69307         1.92952         1.49192
LJ            -1.148         1.36463        0.832073
LJ           1.06337        -1.93142       0.0481794
LJ          0.449849        -1.10787        -1.97221
LJ          0.251917         2.35529        -1.85007
LJ         -0.186542       -0.432621         1.14042
LJ       -0.00175064        -2.48179         1.00752
LJ          -2.16989        0.649744       -0.972093
LJ           1.43665         1.61684       -0.492208
LJ          0.348371      -0.0648483        0.759129
LJ           0.31102          1.1488        0.969565
LJ           1.65466       -0.476393         2.48283
LJ           2.18434        -1.06875         2.50613
LJ          0.962419        -1.89056        -1.20194
LJ              -nan            -nan            -nan
LJ          -0.81813         0.86229         0.56363
LJ         -0.329158        -0.30712         2.20602
LJ          -2.04857         1.06387        0.711103
LJ          -2.00689        -2.46983        -2.48852
LJ          0.740784        -1.70446         1.22803
LJ         -0.888669         2.33176         1.28045
LJ           1.96074       -0.222364         2.51607
LJ              -nan            -nan            -nan
LJ           1.50695        -1.73542        -2.46885
LJ          -2.05259       -0.200417         2.00105
LJ         0.0583475        -1.05315        -1.65709
LJ          -2.18264        -2.07709         0.42239
LJ          -2.18226         -1.0587       -0.427607
LJ              -nan            -nan            -nan
LJ           1.75256       -0.893926       0.0548215
LJ         -0.557437         2.12328         2.32875
LJ              -nan            -nan            -nan
