108
#Comment!
LJ          0.562374         1.50758        -2.07769
LJ           -1.2859       -0.613879        -2.48691
LJ          -2.47794         2.01308        0.479017
LJ          -1.48528        0.862249         1.78825
LJ           1.40272       -0.413003       -0.249246
LJ         -0.043193         1.04477        -1.47946
LJ         0.0682968        -1.66186        -2.20026
LJ          -1.53173        -1.45156        0.518687
LJ          -1.58559        0.816916         0.79215
LJ          -1.27689        0.897554        -2.22187
LJ              -nan            -nan            -nan
LJ           -1.0788        0.990206         1.00277
LJ           -1.0439        -1.09391        -2.23704
LJ          -1.96436        -2.46792       -0.720189
LJ         -0.771469         1.44279          2.3071
LJ         -0.368412       -0.707592       -0.546988
LJ              -nan            -nan            -nan
LJ              -nan            -nan            -nan
LJ          -2.33485         1.27521        -2.13861
LJ              -nan            -nan            -nan
LJ           1.69363         -2.5614         2.13539
LJ          -1.17698         2.24646         1.81548
LJ         -0.580792       -0.618466         1.05572
LJ          0.169924         2.54998         1.39613
LJ           1.96163       -0.590284        -1.62239
LJ            1.9354        0.448341        -2.45719
LJ          0.186925         -2.1127        -2.26252
LJ         -0.511673        0.824277        -1.62902
LJ           1.58283        0.443186         1.67948
LJ         -0.715996        -1.50745       -0.246353
LJ           2.37217         1.85688         2.02334
LJ           1.47838         2.03246       0.0136506
LJ              -nan            -nan            -nan
LJ          -2.51429       0.0812195       -0.699919
LJ              -nan            -nan            -nan
LJ          -1.61006       -0.474434          1.1941
LJ           2.20588        0.604376         1.03458
LJ           0.46709        -2.10032         2.30265
LJ         -0.439046        -1.00621        -1.41614
LJ          -1.11381         2.53243        0.606399
LJ          0.258209          1.6786         -2.5508
LJ          0.449943       -0.215362         1.55739
LJ        -0.0460741       -0.432334         1.47075
LJ          0.452598          2.1668        -1.19588
LJ            1.2499         1.41178        -1.26631
LJ          -1.90139         2.41167        -1.39337
LJ           -1.9992     -0.00401962        -2.30957
LJ         -0.411538        0.458698         0.91461
LJ           2.03236       -0.444099        -2.22053
LJ          -2.32979        -2.41087       -0.717577
LJ           1.54468        -0.37313        0.838613
LJ          0.140524        -1.41558        0.534817
LJ              -nan            -nan            -nan
LJ         -0.533813       -0.568685        -2.46474
LJ          -2.22939       -0.930133         1.11028
LJ          0.576679       0.0718946        0.387447
LJ          -2.26811       -0.909637        0.813738
LJ          0.907432       -0.923225         2.11569
LJ           1.64493        0.831552       -0.531861
LJ           1.92974        0.228689         2.20849
LJ           1.07686       -0.668483        -1.81939
LJ         -0.806132        -1.25604        -1.46644
LJ          0.715936         2.47601         1.37759
LJ         -0.256837          1.4252        -2.20976
LJ           -1.5211         2.55055       -0.155469
LJ          0.256987         1.66715         1.09423
LJ           1.50933        0.819572         1.37789
LJ              -nan            -nan            -nan
LJ         -0.450547        -2.45063       -0.876177
LJ           1.05897         1.46474        0.640718
LJ          -2.27322        -1.05556          1.6209
LJ            1.0431         2.42078         -1.3563
LJ           2.49149         1.66417       -0.739164
LJ           1.63994       -0.574795       -0.211467
LJ          0.948882         1.44442         2.09788
LJ           1.59295       -0.431707         2.19244
LJ          -1.55884        -2.23224        0.216768
LJ           2.21529       -0.749895        -2.18365
LJ          -1.93907        0.879583         -1.0836
LJ          -1.56361       -0.250127        -2.22197
LJ          0.968417        -2.24909      -0.0938112
LJ          -2.08084       -0.840433        -2.48473
LJ         -0.787707       -0.276673        0.565726
LJ           1.98199        -1.42479        -0.17405
LJ           1.49842        -1.06024        -1.02656
LJ           1.39615         1.05038         2.34148
LJ          -1.32202        -1.23855        -1.64595
LJ           -2.3151        -1.07232        0.842296
LJ          0.727571       -0.702512        0.730169
LJ          -1.65332        -1.84906        -2.05388
LJ              -nan            -nan            -nan
LJ          0.484862        -2.31864       -0.321679
LJ          0.965815       -0.476894         1.86798
LJ          0.624849      0.00579119        0.935174
LJ          -1.14395        -2.50625       -0.591048
LJ          0.850349         1.69784       -0.501187
LJ             1.258        -1.57911        0.698184
LJ          -1.47438         1.33213         1.81436
LJ           1.00912        -1.88994        -2.00139
LJ          -2.52226        -1.16321         1.00109
LJ          0.284319       -0.821629         2.51398
LJ         -0.573856          1.0275         0.66901
LJ          -1.29098       -0.677818       -0.196403
LJ          -1.00217        -2.55492       0.0773404
LJ          -1.53988         1.34168         2.10371
LJ          -1.21037        -1.80915         -1.5774
LJ          -2.29782        -2.51991          -1.664
LJ              -nan            -nan            -nan
