108
#Comment!
LJ           1.17421        0.117401       -0.705847
LJ          -1.26637           1.063         1.02178
LJ          0.650097       -0.599756        0.150006
LJ          -1.26299        -2.42993        -1.41455
LJ           2.17503       -0.321058        -1.28551
LJ          0.722162        -2.11745         2.37327
LJ          -1.57347        0.693973          1.2342
LJ           1.25315         1.76523          1.0621
LJ           1.96578         1.52589        0.422088
LJ         -0.593419         2.51526        -0.18755
LJ              -nan            -nan            -nan
LJ         -0.603451         2.25917      0.00628426
LJ          0.274886        -1.84117        -2.49602
LJ         -0.614059         2.24199        -1.33767
LJ          -1.37064         2.51519        -2.51139
LJ           1.41141         1.81069        -2.11157
LJ           1.87193         2.38555        -1.80331
LJ          -2.19903         1.43737        0.686801
LJ          -1.73412       -0.272054        -1.66119
LJ           1.36108         2.23553         1.38327
LJ           2.25969        -1.50743        -0.08889
LJ          -1.73215         2.37738       -0.181165
LJ            1.2883         1.18575        0.217849
LJ           0.30164        0.966133       -0.282739
LJ           0.82618         1.75506        -1.71379
LJ          -2.56033       -0.118635         2.21623
LJ          0.458582        -1.58275         1.80456
LJ           1.56909        0.349851       -0.470278
LJ           1.47647        -1.63232        -2.14608
LJ          -2.11278       -0.441003         1.07704
LJ          0.940842        0.598695        -1.87864
LJ          0.982798        -1.92364        0.593943
LJ              -nan            -nan            -nan
LJ          -2.43729         2.11612         2.17593
LJ          0.989902        -1.15328         1.42323
LJ          0.128178       -0.346301         1.68088
LJ          0.817002        -2.47284       -0.609883
LJ           1.94457         2.13386         0.64768
LJ          0.670076        0.951385        0.740189
LJ           1.48798         1.59643         1.31644
LJ           -1.7274        0.876815        -1.99043
LJ           1.29453        -2.09691        -2.14539
LJ          -1.92107       -0.715485         1.75034
LJ          -1.61273        -1.53818        0.896801
LJ          -1.45246         2.48372          1.2691
LJ           1.98025        -1.42323         1.39923
LJ          0.712865        -1.14491        0.385698
LJ           0.78217        -1.45695       -0.595596
LJ           -1.0494       -0.453754       -0.560574
LJ          0.559153        0.877153         -2.4787
LJ         -0.903372         2.42967         -1.2305
LJ           1.74083        -1.87829        -1.21375
LJ          -2.54066        0.620594        -2.24327
LJ          -2.04877         1.54736        0.729343
LJ          -1.47675       -0.895742         1.28939
LJ          0.242764         1.14341        -1.83022
LJ           -1.1648         1.17999         1.28071
LJ          0.326311         -1.8191        0.442631
LJ         -0.684526        -1.55981        -2.17533
LJ          0.440405        0.374669         1.90532
LJ           1.72119        -1.58295        -1.82645
LJ          0.606985         -1.9322        -1.21037
LJ           -1.4649        0.396272      -0.0276305
LJ           1.79938         0.88507         2.20735
LJ          -1.34384        0.898689         1.90878
LJ          -1.42745        -1.52905        -2.51964
LJ         -0.577366        -1.58213        -2.11186
LJ           1.02554        0.939659       -0.788254
LJ         -0.413653         -2.2179        -1.01687
LJ          -2.07022        0.633213        0.494997
LJ          -1.82664        -1.37089         1.22435
LJ           1.66262         -2.4671        0.732176
LJ           1.11118        -1.13571       -0.925918
LJ          -1.71432       -0.235687       -0.366648
LJ          0.151212         2.27958       -0.106444
LJ         0.0406013       -0.178786        -2.09854
LJ           1.82314         -1.3616       -0.908034
LJ           1.67426         1.15121        -2.07485
LJ        -0.0631468       -0.121079        0.526762
LJ           1.47815       -0.877175      -0.0794736
LJ           1.91274        0.560736        -2.40363
LJ          -2.18395       -0.155811          2.2472
LJ           1.27532        0.629169         1.80775
LJ           1.63232         1.47753        -1.70705
LJ          -2.16911        -1.14712         1.51644
LJ          -1.58063        -1.40419         0.87872
LJ           2.44319       -0.790575         1.61379
LJ          -1.88402       -0.769022          1.7707
LJ         -0.229976        -2.55848       -0.471461
LJ           1.67508       -0.665464       -0.362657
LJ          -1.28929         2.49851       -0.308664
LJ            1.9075       -0.771246        -0.30984
LJ          0.210329         1.46245        0.454967
LJ         -0.648187       -0.441334        -1.19802
LJ         0.0734104        -1.96164       -0.341571
LJ          -2.17575         1.63042         2.18089
LJ          -1.28364         1.06647       -0.642408
LJ          -1.31769        -1.42201       -0.176072
LJ          0.712621        0.647114     -0.00313507
LJ           -1.3183        0.133334         1.96721
LJ          -2.44482         2.04945         2.50799
LJ          -1.25532        -1.54788        0.135453
LJ         -0.112159        0.234251        -0.44421
LJ           2.50109       -0.770496       -0.793262
LJ           1.58161       -0.854001         1.88264
LJ           1.29681         -1.0799        -2.24645
LJ           2.18856        0.333551         2.20754
LJ          -1.80679        -2.21487       0.0277165
