108
#Comment!
LJ          0.239059       -0.548858        0.446853
LJ         -0.873184       -0.340119       -0.284626
LJ          -1.46341        0.160678        -1.20833
LJ          -1.98707         2.21044         0.98012
LJ          -1.88439        0.870253        -0.81611
LJ           2.44112       -0.411942       -0.532305
LJ           2.05682         2.32211         -1.2935
LJ          -1.77323        -1.52631        -1.14212
LJ          -1.25977        -2.56467        -0.69397
LJ           1.86091         1.31094      -0.0263959
LJ              -nan            -nan            -nan
LJ          -1.76164       -0.645444       -0.827973
LJ           1.68552        -1.58783          2.0586
LJ          -2.27272        0.775787         1.71866
LJ          0.910108         0.51992        -1.02548
LJ           1.40207        -2.52945        -1.50378
LJ           0.31175       -0.234388       0.0520018
LJ           -2.1659       -0.681355         1.48667
LJ          -1.59103       -0.514687        -2.30553
LJ            1.9291         0.28724        -2.27428
LJ          -1.61856        -1.05444        0.710374
LJ           2.20697        -2.22953         -2.5424
LJ          -1.15349        -2.26488        -1.31494
LJ           2.49139        -2.16326        0.451028
LJ          -2.24371       -0.633723        -1.15477
LJ         -0.833447        0.879276        -1.69988
LJ          -1.17787        -2.43653         1.14293
LJ           1.16335        0.793595       -0.413152
LJ           2.28021        0.612346         1.16062
LJ           2.37406       -0.829693       -0.859827
LJ          -1.25268      -0.0224646        -1.88813
LJ          -1.29602         2.53627        0.469617
LJ              -nan            -nan            -nan
LJ          0.318213       0.0139871         -1.3155
LJ              -nan            -nan            -nan
LJ           1.09145        -2.04982          1.3441
LJ           1.84547        0.489201          1.9251
LJ           2.38245         1.74085         1.80388
LJ           2.52923        -0.20242        -2.56033
LJ          0.668838         1.56938        -1.86598
LJ           1.26232       -0.304996        -1.04804
LJ           1.75059       -0.861908          2.3506
LJ          -2.11582         -2.1053       -0.925071
LJ         -0.620094         0.66148        -2.10232
LJ          0.446255         2.41707         0.65011
LJ          0.547963        -1.52665        -1.42115
LJ          -1.72695         1.39624         1.16538
LJ         -0.770298       -0.222206       -0.680683
LJ           2.35571        -1.94284        -2.06935
LJ          0.870042         1.01781        0.540543
LJ            2.0046         2.48158         1.05305
LJ          -1.49355       -0.845034         1.35252
LJ           2.25351        -1.12249        -1.97802
LJ          0.755785        0.289128        0.731079
LJ           1.76463         -1.3391         1.34576
LJ           1.56412         1.73912          1.2853
LJ           1.73438        -2.37793         2.09046
LJ            2.2381        0.322247        -1.45244
LJ          -2.02153       -0.238949        0.159366
LJ         0.0957917       -0.495984      -0.0806682
LJ          -1.47986         2.23994         1.80827
LJ           1.00601        -2.45855        0.784017
LJ           1.21839       -0.360288        0.961867
LJ           1.84042        -2.29466        0.105353
LJ          -1.35059         1.79957        -1.54838
LJ           1.01377       -0.733866        -1.68094
LJ           1.08226        -1.53014        -2.11974
LJ              -nan            -nan            -nan
LJ           -2.0808         1.11955         1.87668
LJ          -1.01989        0.873953       0.0947254
LJ          -1.51432       -0.103148        -1.18487
LJ         -0.662815         1.17516        -2.56226
LJ           -2.3351       0.0841144        0.735017
LJ          0.878006        0.383314        -1.33735
LJ           2.53633        -1.17827        -1.90193
LJ          -1.45699        0.559797        0.392734
LJ          -1.55883         2.23841       -0.206621
LJ          0.651673         1.06081       -0.746872
LJ           1.90712         -1.2333        0.507235
LJ           2.43782        -1.66415       0.0772342
LJ            2.5134         1.46405        -2.13955
LJ         -0.350101         1.00121        -1.06034
LJ           1.07176        -1.94988        0.171825
LJ         -0.907785        0.698414        -2.11357
LJ          -2.49194        -2.27499        -2.56208
LJ         -0.470355       -0.875598        -1.03125
LJ            1.3755         0.71793        0.935565
LJ           1.27983         1.45796       -0.324953
LJ          -1.03529       -0.683768        -1.35455
LJ           2.38571       -0.485728       -0.749162
LJ          -2.07178       0.0726155         -1.6368
LJ            2.1614         1.07251        0.650832
LJ           2.23479         1.57571       -0.973857
LJ         -0.342899         1.79093         0.12531
LJ         -0.303727       -0.786271         1.55695
LJ         -0.302909       -0.853499        -1.78491
LJ         -0.307183         1.40702         1.42016
LJ          0.316655        0.498951         2.11043
LJ            1.0644        -1.68437        -1.26666
LJ           -1.4919       -0.176289        -1.56536
LJ           2.16632        -1.83238       -0.946619
LJ          -1.05856       -0.587469       0.0900074
LJ           0.21447        -1.37949        -1.65842
LJ          0.597898        0.419138        0.776282
LJ           2.47802         2.19408        -1.88272
LJ          -1.63336         1.61717         2.21715
LJ          -1.18406        -2.42018          1.5794
LJ           1.57286        -2.08521         2.03858
