108
#Comment!
LJ           2.22957         2.47743         -1.8768
LJ           1.92277       -0.718912         -1.3494
LJ          -1.31429        0.417937         1.66424
LJ            1.1344       -0.490732        -2.04382
LJ           0.12017           1.209        -2.07354
LJ          -1.34125         1.87357        -1.25781
LJ          -1.44589        -1.97219        0.827397
LJ          -1.54595         1.63973       -0.412247
LJ        -0.0635995        0.222366        -1.02997
LJ           1.80399         2.50755        -2.47757
LJ              -nan            -nan            -nan
LJ         -0.539578        -2.28679       -0.414653
LJ          -1.30174       0.0391228         2.52626
LJ           2.42758          1.2152          1.7277
LJ          -1.24753        -0.46896        -2.26128
LJ           -1.4275       -0.580228        0.740424
LJ              -nan            -nan            -nan
LJ              -nan            -nan            -nan
LJ            2.2805       -0.749503         1.08148
LJ              -nan            -nan            -nan
LJ          -1.31047        -2.03494         1.45303
LJ         -0.936202         1.11518        -1.28399
LJ         -0.394787        -1.06832         0.32117
LJ          -1.92555        -1.42986         1.04171
LJ         -0.584453       -0.585519        -2.07693
LJ          -2.27747       -0.971728        -1.38348
LJ           1.14441        0.597762         2.26219
LJ          -1.68175        -1.26334         1.53588
LJ          -1.66412        0.325375       0.0726146
LJ          -1.63186        -1.60649        -2.31251
LJ           1.02164        -2.40079        -1.82188
LJ           1.82051       -0.544742        -1.25555
LJ              -nan            -nan            -nan
LJ         -0.955927        -1.21734         2.37977
LJ              -nan            -nan            -nan
LJ           2.37542        -2.35372         2.52336
LJ          -2.00421        -1.88366       -0.194787
LJ           -2.4932        -1.97015        0.949763
LJ           2.47044         -2.4856        -1.53491
LJ          -1.07014         1.19798        -1.90652
LJ          0.512176         1.87142        -2.50875
LJ             2.129         -1.8114         1.63854
LJ           1.06373         2.45878         0.76196
LJ          -2.53158        -2.25884         2.43074
LJ         -0.912105        0.869176        -1.02769
LJ          0.142942         1.63939        0.871692
LJ         -0.250241         1.66261        0.166003
LJ          -2.47871         -2.4839        0.680835
LJ           1.34832         2.18955        0.404758
LJ           1.27416        -1.49002       -0.721841
LJ           1.25112        0.518775         0.52134
LJ           0.46017        0.490071       -0.256056
LJ              -nan            -nan            -nan
LJ           1.84549        -1.42525         -1.1659
LJ         -0.073615         1.18928        -0.57535
LJ         -0.025486       -0.484922        -1.39277
LJ           1.24424        -1.83081        0.206215
LJ          -0.14063        -1.66515       -0.353662
LJ          -2.16047         2.13394        -1.78612
LJ          0.213454       0.0763948       -0.718263
LJ           0.88849         -2.2271        0.882632
LJ          -1.27879         1.79688         1.51539
LJ          -2.25676         2.53791         -1.4411
LJ          -1.30786         2.18143      -0.0682897
LJ          -1.71269        -1.43804       -0.166479
LJ         0.0584728         -1.4318        -1.25472
LJ          -1.10039         2.08496        0.229531
LJ              -nan            -nan            -nan
LJ             1.792        -1.59651        0.523127
LJ          0.144718       -0.849116         1.00729
LJ           1.23517        0.574866        0.410324
LJ          -0.16624        -2.38113        0.918148
LJ          -1.88923        0.542296         1.27426
LJ         -0.724226        -2.36244         1.91635
LJ           1.33918        0.250136          2.4396
LJ           1.97975         1.80826        0.134343
LJ          0.644533        -2.19691         -1.4529
LJ         0.0141965       -0.356287        0.572066
LJ          0.972936         2.37968       -0.192903
LJ          -1.21266         1.44111        0.944753
LJ         -0.495495       -0.290861       0.0983277
LJ           1.48683       -0.348095        -2.46436
LJ          0.558216        0.717725        -2.47975
LJ          -0.64729        -2.28842          -1.198
LJ           1.97294         -1.2299        -2.31277
LJ         0.0579986       -0.285051        -2.07212
LJ          0.884295        -2.39399         1.84178
LJ          -2.54833        0.207524         1.39273
LJ           2.54012        0.319339        -1.27313
LJ            1.5753        -1.59627         2.41667
LJ              -nan            -nan            -nan
LJ          0.335185         2.38821         1.72311
LJ          0.798409        -2.09831        -1.90273
LJ          0.779307        0.290454         1.32968
LJ          0.332896       0.0345247        -2.14373
LJ         -0.137069       -0.181868       -0.925952
LJ           1.85424        0.463687         2.31259
LJ           2.38486       -0.695321         1.63393
LJ           1.01603        0.780664        0.282596
LJ          -2.30523        -1.68877        -2.53994
LJ           2.03495        -2.41597          2.2791
LJ          0.306663       -0.975405        0.677789
LJ         -0.983907       0.0391483         1.42488
LJ          -1.87684         -1.2274        0.114986
LJ            1.9948         2.25402        0.705375
LJ           1.36785       -0.478009          1.1422
LJ          -1.34651       -0.216254        -0.39049
LJ              -nan            -nan            -nan
