108
#Comment!
LJ         -0.188809       -0.537788        -1.16417
LJ         -0.162259        -1.99171         -2.3573
LJ          -1.41712       -0.645504         1.47786
LJ          -1.70525        -1.22209         0.89244
LJ           2.45023      -0.0732653        0.619343
LJ         -0.760532         -1.2802        -1.62915
LJ          0.541778         1.01347         2.19813
LJ          0.111143        -1.45468        -2.47642
LJ           1.42917          1.8836        0.817348
LJ          0.477225        -1.90446         1.20981
LJ              -nan            -nan            -nan
LJ          0.930474        -1.72315         -1.9982
LJ         -0.712583        -1.96998       0.0629129
LJ          -1.29911        -2.05112         1.42586
LJ          -2.34494       -0.805107         1.11414
LJ          -1.43127        -2.10846        0.949704
LJ          -1.02748         1.14229         1.22492
LJ          -2.09328         1.55509          1.4464
LJ          0.206395        -2.41928       -0.708338
LJ          0.982247         1.83926        -1.08623
LJ          -1.87484        -1.53801         1.18657
LJ          -2.47422         2.55123       -0.983206
LJ           1.27266         1.60058         -1.7788
LJ           2.32163        -2.55997        -2.19802
LJ          -1.91056        0.836492       -0.918443
LJ         -0.434884         2.04079         1.11464
LJ          -1.09968        0.817735        0.409999
LJ           1.24153        -2.03211        0.583828
LJ         -0.661222        0.554135       -0.218647
LJ          -1.72584        -0.95148      -0.0891585
LJ          -2.55756         2.56035         1.86679
LJ           -0.2709        -1.52453       -0.866152
LJ              -nan            -nan            -nan
LJ          -0.68073       -0.299632        0.854823
LJ          0.780286         1.81869       -0.998248
LJ           2.19864       -0.656119         2.33339
LJ         -0.305539         2.39098        -1.00362
LJ          0.834541         1.58632        -1.70503
LJ           1.61603        0.820075        0.673371
LJ           1.47174        -1.28281         2.23051
LJ             1.148       -0.981255         -1.5446
LJ          0.672286         2.27103        0.852902
LJ           2.44584         2.02241        -2.23094
LJ         -0.402035         1.52251         1.02109
LJ           1.36228       -0.279536     -0.00473312
LJ           -1.7777        -2.18192       -0.684906
LJ          0.744196       -0.138038        0.376402
LJ          -1.42685        0.204514        -2.35899
LJ           2.51365       -0.942078       -0.199215
LJ           2.26648        -2.37738         1.63461
LJ         -0.489203        0.251355         1.53815
LJ         -0.817252        -2.53184         1.21306
LJ          -1.81357       -0.406328        -1.69582
LJ          0.812796        0.797277       -0.020775
LJ          0.299174        0.350385        -1.72453
LJ          -2.28107       -0.944311        -2.29001
LJ          0.716426      -0.0315597        0.330949
LJ          -1.93727        -1.76353         -2.1252
LJ         -0.980378        -1.70038       -0.682352
LJ          -2.28407         2.35535         2.11559
LJ          -1.67892        -0.18015        -2.09394
LJ            1.3916         1.25406         1.91449
LJ          0.204315         2.00636        -1.94646
LJ         -0.701258       -0.811201       -0.760591
LJ           1.42303        -2.04325         1.66934
LJ         -0.335733          1.6587         1.42267
LJ          -1.14256         0.05006       -0.533383
LJ         -0.947271        0.449679        -2.32683
LJ          0.947007          1.7237        -2.51149
LJ          -1.45016       0.0649112        0.085436
LJ          0.884175          0.6693        0.715097
LJ            2.2672        -2.03793         2.55076
LJ          0.265504         1.20518         1.34223
LJ          -1.68303         1.18961         2.44539
LJ          -1.78041         2.38128         2.07234
LJ         -0.821207         2.29188        -1.58082
LJ          0.462615         1.47275        -1.44297
LJ         -0.723521        -0.66379        -1.01059
LJ          -1.30802         2.09985       -0.920465
LJ          -1.79953        0.909848      -0.0632184
LJ           2.20394         1.80138        -0.20856
LJ         -0.170696        -2.51491        -1.22135
LJ          0.797001        -1.21578         -2.3995
LJ         -0.597935        -2.08329        0.117878
LJ          -1.07616        -1.85634         1.43071
LJ          0.845374          1.1044         1.58282
LJ           1.06122         1.58027        -1.93789
LJ        -0.0841183       -0.887931         1.30978
LJ           2.41031        -1.04241         2.50206
LJ            1.1263        -1.34487        -0.17247
LJ          -1.86854        0.799277        -1.72074
LJ         -0.353521         2.28701       -0.850594
LJ           1.77533        0.493374        0.587591
LJ          -1.38369       -0.752904       -0.896329
LJ          0.703604         1.10233       -0.794667
LJ           -2.5367       -0.228086        -1.49306
LJ          -1.14286        0.475036         1.83576
LJ           2.50306       -0.354853        0.452908
LJ           1.25496         2.37999        -1.19353
LJ           2.24443         1.25959         1.40411
LJ          0.954337       -0.151192        0.582498
LJ          -1.59362        0.420945        -1.99203
LJ          0.527404         1.08136         2.39232
LJ          -1.76344         1.98436        0.476941
LJ           1.68856        -1.09951         -1.3671
LJ         -0.592589         1.31362        -1.95015
LJ           1.79926          2.1449         -0.5563
LJ           2.53557        -1.65327       -0.461203
