108
#Comment!
LJ         -0.209108       -0.729465        0.469488
LJ         -0.188946        -1.12361        -2.49299
LJ          0.181017         -1.3516         2.42037
LJ           2.48793          1.8015        -1.44761
LJ          0.615334        -1.43688       -0.806149
LJ          -1.18183          1.2205        -1.96836
LJ           1.95965        -1.04302        -2.33222
LJ           2.43996       -0.857394         1.13894
LJ          -1.91181          -2.418        0.900861
LJ         0.0874741        0.472676        -2.15591
LJ              -nan            -nan            -nan
LJ          0.346653        0.876588        0.122487
LJ          0.145964        -2.42714       -0.728014
LJ              -nan            -nan            -nan
LJ         0.0950966        0.165667        -1.86038
LJ              -nan            -nan            -nan
LJ              -nan            -nan            -nan
LJ              -nan            -nan            -nan
LJ          -1.87518        -1.43731        -1.41959
LJ              -nan            -nan            -nan
LJ          -0.17967         1.45936         1.72659
LJ           1.18311        -2.27497       -0.837482
LJ           1.74984         2.03021         1.55758
LJ              -nan            -nan            -nan
LJ           1.68441       -0.204391        0.797688
LJ          -2.33181        -1.89384         1.15842
LJ           1.24799         2.41085        -1.91948
LJ         -0.935796        0.129073       -0.923092
LJ         -0.484063         2.35442         0.88604
LJ         -0.461941        0.631641        -2.16903
LJ              -nan            -nan            -nan
LJ            1.7219        -1.95777        0.329761
LJ              -nan            -nan            -nan
LJ         -0.360885        0.521644         1.40974
LJ              -nan            -nan            -nan
LJ           1.85067         1.18251        -2.37111
LJ          -1.74898         2.37331         1.78293
LJ            1.9161         1.37076         1.60228
LJ           1.03964        -1.17327         1.00634
LJ           2.06229       -0.869699        -2.43746
LJ           1.50537         1.34062        -2.20396
LJ         -0.884432        -0.53626        0.629567
LJ          -2.02837         1.23619        0.231436
LJ           2.48634        -1.47121        0.362704
LJ           1.12845        0.625281        0.042195
LJ           2.29923       -0.609649        -1.87215
LJ          0.215649        -2.24501        -1.36636
LJ          -2.09088         1.24062        0.977096
LJ          -2.10338         1.96581       -0.970298
LJ           -1.1004        -2.45525         1.76976
LJ          -2.25701        0.189022       -0.708568
LJ           -1.0404        0.994812        -2.48663
LJ              -nan            -nan            -nan
LJ           2.29452        0.604193      -0.0972323
LJ          0.962243          2.4399        -2.24276
LJ           1.99237          2.3325          1.7598
LJ          -2.01961        0.953893         1.72953
LJ          -2.48167       -0.760142        0.407454
LJ         -0.367395       -0.142299         0.63262
LJ          -1.22244        -2.29205        -1.72622
LJ        -0.0781956         2.05789      -0.0527815
LJ           1.68393         2.05955         1.26253
LJ          0.976486        0.109646        0.249648
LJ              -nan            -nan            -nan
LJ              -nan            -nan            -nan
LJ          -1.20571      -0.0358187         2.04245
LJ           2.37679         1.54746        -1.96744
LJ              -nan            -nan            -nan
LJ          -1.20198        0.532619        -0.88152
LJ           1.55122        -1.15797        -1.51083
LJ          -2.08535         -1.0979        0.505115
LJ          -2.55708       -0.826276       0.0474583
LJ          -1.13604        -2.08513        0.250031
LJ          -1.04207          1.1609         1.51527
LJ            -2.072       -0.484888        -2.03996
LJ          -2.08124        -1.68537         2.15254
LJ            1.2977        0.233525         1.02504
LJ           1.66118        0.243122        0.661543
LJ          -1.87932       -0.453334       -0.789206
LJ           -2.2655        -1.52597         2.30662
LJ          0.924637        0.578941        0.626009
LJ         0.0233756        -2.54631        -1.75507
LJ          -2.33922         1.55835        0.452028
LJ          -1.40245       -0.731571        -1.35721
LJ         -0.427892        -1.22176         1.11556
LJ           1.26586         1.59906        -1.69579
LJ           1.96755        -1.21294        0.467675
LJ        -0.0532775       -0.523796       -0.016495
LJ         0.0457205         1.34585        -2.41432
LJ         -0.111569         1.74687        0.891091
LJ              -nan            -nan            -nan
LJ          0.516553         1.20862        0.885558
LJ          -2.16586         1.92923       -0.357498
LJ          -1.67662         1.58632         1.34866
LJ           1.68806        -1.66774         1.39838
LJ          0.930306       -0.459844        -1.23379
LJ           1.57785         2.49721       -0.399308
LJ           1.37904        0.271009       0.0144428
LJ              -nan            -nan            -nan
LJ          0.587055       -0.994757         1.83415
LJ          -1.79114        -2.43517         1.62381
LJ         -0.160295        -1.22367         1.04271
LJ           1.82467       0.0569282         1.68529
LJ          -1.90287       -0.483727        -1.63956
LJ              -nan            -nan            -nan
LJ         -0.753719         1.35507        -2.19078
LJ          0.478098      -0.0190008          1.5218
LJ              -nan            -nan            -nan
