108
#Comment!
LJ             2.165       -0.386409        0.869922
LJ           2.31229       -0.992712         2.37345
LJ         -0.183432        -1.08495          1.6207
LJ          -1.65989         2.53179         1.86636
LJ          -1.64913        -1.49256         2.37396
LJ          -1.09153         1.47808        -1.21338
LJ         -0.428937          2.3997          2.4086
LJ          -1.67964       -0.427551         2.33608
LJ           1.51185         1.59954        -2.25863
LJ          0.629558        -1.51332        -1.28162
LJ              -nan            -nan            -nan
LJ            2.3424        0.603515        -1.91566
LJ          -1.86103        0.135492         1.30085
LJ          -1.03773       -0.658026         1.76997
LJ           2.13169        0.949772         2.39671
LJ          0.446353        0.269821         1.69384
LJ              -nan            -nan            -nan
LJ              -nan            -nan            -nan
LJ         -0.387251       -0.171309         -2.5189
LJ              -nan            -nan            -nan
LJ          -1.70691         2.24914         -1.5685
LJ           1.05646        -1.12662        -1.64725
LJ          -2.53221       -0.586612         2.20935
LJ           1.32673       -0.366988       -0.729341
LJ         -0.585919       -0.755637        -0.81418
LJ          -1.31669        -2.09311         1.27216
LJ          0.225153        0.520884         2.53958
LJ          -1.66746        0.839596        -2.29155
LJ           1.87156        0.459334       -0.421467
LJ          -1.28862        -1.35322         -2.4788
LJ          0.854088        0.658169       -0.028009
LJ           1.03437      -0.0582972        -1.01811
LJ              -nan            -nan            -nan
LJ          0.308848        0.478752        0.817518
LJ              -nan            -nan            -nan
LJ           -1.5687         2.20433        -1.30477
LJ          -2.21144         1.96476        -1.81127
LJ           0.29077       -0.993975       -0.195861
LJ          -0.22386       -0.934221         1.08398
LJ         -0.312153        -2.41615        0.288009
LJ            2.3715        0.891664        0.184343
LJ          -1.07776         2.00256         1.84061
LJ           1.24286       -0.338909        0.234566
LJ         -0.942874        -1.90923         1.45959
LJ          -1.66707        0.811534         2.14465
LJ           -2.0839         2.38384       0.0566037
LJ          -1.58079       -0.292742       -0.236034
LJ          -1.56185         2.47186        -2.27023
LJ         -0.900588         2.34443         1.09771
LJ         -0.707128         2.01386       -0.176698
LJ           2.35359         1.45871        0.627978
LJ           2.28546        -1.42219          0.6007
LJ              -nan            -nan            -nan
LJ          -1.75649        -2.40549        -1.88656
LJ         0.0139274        0.481628         2.02815
LJ           1.93325        -1.27693         1.75728
LJ           1.42126         1.97146        -2.54943
LJ           1.73547       -0.147564        -2.20034
LJ          -1.71104        -1.58385       -0.602119
LJ          -1.98624       -0.844105         1.17691
LJ          0.421292         1.58357         2.55215
LJ          -2.43384        -2.20408        -2.56038
LJ           1.78198        -1.13952        -1.54934
LJ           1.32186         1.54745       -0.216772
LJ         -0.243181          2.5047        -1.30887
LJ           1.17715        0.204318        -1.47107
LJ          -1.09546         1.61141        -1.43987
LJ              -nan            -nan            -nan
LJ          0.837592      -0.0563134        -2.20516
LJ           1.88435        -1.39412         -1.6487
LJ         -0.446331        -2.06876        -1.36738
LJ            2.5619       -0.957924       0.0140758
LJ           1.42886         1.31286        0.126409
LJ           1.31476        -1.12429        0.335043
LJ            2.4129        0.558544         1.95813
LJ          -2.05257        0.520723      -0.0891893
LJ           1.73818       -0.091841        -2.41304
LJ          -1.39258        0.582141         1.80413
LJ         -0.468766        0.136342        0.509618
LJ          0.800616        0.342118          1.8476
LJ          0.800564        -1.48857        0.469576
LJ          0.449792       -0.650392         1.58692
LJ         -0.975475         1.74961       -0.887657
LJ           1.07905       -0.534039        0.430308
LJ           0.14508         1.57194       -0.204089
LJ          -2.40683         1.46613      -0.0696342
LJ          -1.89429        -1.31429       0.0939233
LJ        -0.0223796        -1.07071        0.771668
LJ           1.82478         1.88834      -0.0847106
LJ            2.4008       -0.278184        -1.18322
LJ              -nan            -nan            -nan
LJ          -0.15878        -1.04092         2.17923
LJ          -1.96074         1.29882        -1.92031
LJ         -0.833985         2.49694        0.654936
LJ           1.10293        0.252971        -2.16829
LJ           1.27781        -0.83084       -0.605775
LJ         -0.794887        0.412976         2.16122
LJ           1.80349          2.3919         -0.7528
LJ           1.46118        0.889794        0.769638
LJ          -1.00021        -1.91332         1.64061
LJ        -0.0196029         2.22628        -2.14384
LJ           1.73248       -0.609232        -2.15928
LJ          -1.09689        -1.79433        -2.04421
LJ           -2.1861       -0.727586       -0.759339
LJ          0.448226       -0.166822         1.13077
LJ          -1.63425         1.52045        0.729372
LJ         -0.801394        -2.00078        -1.82027
LJ              -nan            -nan            -nan
