108
#Comment!
LJ          0.833732        -2.42755        -1.97709
LJ          -1.37442        -1.36201         0.91073
LJ           2.07694         1.19153       -0.557533
LJ          0.497022         2.26897       -0.244494
LJ         -0.790046        0.250954       -0.576657
LJ            1.2175         1.04477       0.0248959
LJ          -1.30221         1.59693         2.29297
LJ            2.1581        0.615547         0.74075
LJ          0.200709         1.16999        0.161891
LJ         0.0359696       -0.791321         1.03006
LJ              -nan            -nan            -nan
LJ          0.981711        0.081015         2.04137
LJ         -0.258738        -2.27713       -0.428163
LJ           1.99114        -1.47701         1.03046
LJ          -2.48223      -0.0134182        0.601434
LJ          -1.31731       -0.609896        -1.02725
LJ         -0.108298        0.360949        0.113381
LJ          0.484876       -0.170595        -1.36356
LJ           1.41308         1.96756        -1.63575
LJ          -2.08621         2.37012        -1.36937
LJ          0.561397         2.19592        -1.85752
LJ              2.42         1.45623       -0.718254
LJ           1.44196        -1.24642        -2.16754
LJ          -1.17946        -0.98939       -0.161638
LJ           2.25167        -1.07555         1.73591
LJ           0.30327       -0.722245         1.94179
LJ           1.82117        0.850481        0.226497
LJ          -1.31353       -0.717366        -1.34626
LJ         0.0202661        0.136131         1.37059
LJ          -1.03898         1.68185         1.90673
LJ         -0.830091          0.4988         2.40315
LJ          -1.02224        -1.98968       -0.977782
LJ              -nan            -nan            -nan
LJ           2.42172         2.03783        -2.18252
LJ            1.8419        0.786456         1.24805
LJ           2.03222        0.226205       -0.692209
LJ           2.53115       -0.776601       -0.374292
LJ          -2.48855         2.51301         1.11713
LJ          -2.10758        0.404572       -0.931842
LJ         -0.388943         1.00651        0.276228
LJ          -1.53272         1.03076         2.28661
LJ         -0.730305        -1.92027        -2.53422
LJ           2.29203         1.99767        0.887897
LJ          -2.45576         1.64375        -2.44382
LJ         -0.356266         2.46196        0.757325
LJ          0.410287         1.86348       -0.405379
LJ         -0.965008        -1.19242        -1.20178
LJ          -2.12199        -1.27914         1.84012
LJ           2.50324         1.88045         1.46118
LJ          -1.44767         2.30155         -1.7294
LJ         -0.976059         -0.6332         2.32104
LJ          -1.08561        -1.02722        -1.31537
LJ         -0.444771       -0.609404         1.67468
LJ         -0.825974        0.519086         1.15171
LJ          -1.39336         1.79728         1.85536
LJ          -2.36304       -0.253901         1.98063
LJ          -2.43708         -1.0827        -1.87683
LJ           1.93543         -1.3622         2.18519
LJ            2.3589        0.913066       -0.546901
LJ          0.632407        -1.23055         1.50845
LJ          0.659972       -0.436227         1.81945
LJ          0.289895        0.791401       -0.499792
LJ          -2.35702         1.04928         1.26234
LJ        -0.0785265        -1.13233         2.00318
LJ          -1.72306         2.20351         1.55484
LJ           1.55982         2.19601         2.05457
LJ          -0.33811        0.517158        -1.91978
LJ          -2.31505       0.0717338         1.66464
LJ          -1.94885         2.35083          2.1687
LJ           2.52352        -1.33912         1.35659
LJ           1.83488          1.7616       -0.702855
LJ          -1.99138        -1.31438       -0.322582
LJ            1.0955         2.01792        0.241804
LJ           1.53717        0.771601         1.09163
LJ          -2.48055         1.31249       -0.498754
LJ          -2.27259        0.167522        -2.29146
LJ          -1.39609        -1.74088        0.363319
LJ           1.47114       -0.619543         1.64224
LJ          -0.50778       -0.341558       -0.577136
LJ          -1.75572        0.878671         1.13569
LJ           -2.2214         1.48345         1.47435
LJ          -1.44867         1.17806       -0.338034
LJ          0.422795         1.81432        -1.49318
LJ           0.54133        0.907239         0.60176
LJ          -0.29225        -1.92841         2.05753
LJ         -0.303838         1.88292        -2.17466
LJ          -2.00675        -2.22989        0.258196
LJ         -0.929137        -2.29671        -1.67828
LJ           1.66496        -1.06792         1.20549
LJ          0.798514         -1.6529        0.692487
LJ          -1.72412         2.42185        -2.02768
LJ           1.18661         1.58846         0.84403
LJ          0.996447          1.8293         2.28624
LJ           1.29596        -0.27242        -2.26643
LJ          0.968371        0.880575         1.17051
LJ          -2.10971       -0.737319       -0.549983
LJ            1.9063          -1.677        -1.72713
LJ          0.388224         1.19253        0.935966
LJ         -0.357759         1.05535         1.49943
LJ           1.59829        0.116493         1.02503
LJ          -1.21079        0.687625        -0.33949
LJ           2.19864       -0.891393         1.29494
LJ          0.837358        -2.14862         2.43781
LJ          -1.28668        -1.74845        -1.26147
LJ           0.85542        -1.29319       -0.625704
LJ         -0.377264        -1.22281        0.617337
LJ           1.23447        -1.96743        -1.87848
LJ          -2.40887     -0.00874108        -1.15513
