108
#Comment!
LJ         -0.645302        -2.06836        -1.38351
LJ          -1.46749        -1.95118       0.0875014
LJ          -2.41404         2.07855        0.231923
LJ          -1.76018        -1.51788         -2.0993
LJ         -0.676463          1.8755         1.67776
LJ          -1.87103        -1.85014         1.39126
LJ          -1.10677       -0.832246         1.77138
LJ         -0.126262        0.268666        0.640399
LJ          -2.26935        0.720739         1.79017
LJ          -1.32428       -0.276149       -0.373679
LJ              -nan            -nan            -nan
LJ          -2.33946       0.0544622       -0.988678
LJ           -0.3844       0.0798549         1.60253
LJ              -nan            -nan            -nan
LJ           1.26214          2.3126        0.403801
LJ              -nan            -nan            -nan
LJ              -nan            -nan            -nan
LJ              -nan            -nan            -nan
LJ         -0.076864       -0.951618       -0.571556
LJ              -nan            -nan            -nan
LJ          0.655161       -0.438347       0.0856563
LJ          -1.40854        0.808979        -1.51631
LJ           1.37232       -0.447863        0.232183
LJ          -2.35081        -2.46164        0.177205
LJ         -0.839371        0.711318        0.881442
LJ           1.08767        -2.53528        -1.96399
LJ          -1.36238        0.327835         1.54735
LJ           1.41282       -0.466212        -1.39872
LJ         -0.329675        0.444626      -0.0132295
LJ         -0.248721         1.59594        -2.12553
LJ              -nan            -nan            -nan
LJ           0.74155        0.388849        0.363067
LJ              -nan            -nan            -nan
LJ           2.04114         2.53997         1.68292
LJ              -nan            -nan            -nan
LJ           1.35154         2.20185      -0.0158801
LJ          0.473024        0.488088         1.99197
LJ           0.15517         1.92525       -0.476971
LJ           1.12195        0.743112         -1.9005
LJ           2.29119         1.71582       -0.854827
LJ           1.65237       -0.193979       -0.783682
LJ           2.49377        -2.43745        -1.46906
LJ          0.880802         1.88111         -1.7383
LJ          -2.36997       -0.347543        0.247983
LJ          -1.00667         2.19388         2.53474
LJ          -1.14297       -0.645279         1.18858
LJ          -1.07672          2.1901         2.37876
LJ          -1.65253        0.778289         1.75874
LJ          -1.86179       -0.765983        -1.33128
LJ        -0.0266698       0.0282972         1.11119
LJ          -2.04113        0.240945        -1.53324
LJ          0.915818        0.471563        0.232462
LJ              -nan            -nan            -nan
LJ          0.642223        0.112779         0.96116
LJ         -0.733819         1.36965        -1.93035
LJ           1.51782        -1.93854        -1.49807
LJ           1.69523       -0.267315        -1.67923
LJ          -2.36777         1.83814         2.37018
LJ           2.01707         -1.7536       -0.926268
LJ         -0.071985         2.21793        -1.67207
LJ           1.95622        0.945481         1.63531
LJ         -0.117617       -0.686512         -1.7597
LJ           2.40991         1.92613         2.54979
LJ           1.90654         1.69775       -0.645865
LJ              -nan            -nan            -nan
LJ           2.13084        0.631349         1.44751
LJ          -1.16606         1.56215         1.56319
LJ              -nan            -nan            -nan
LJ         -0.860672         2.30036        -1.57466
LJ           1.22589       -0.744921        -2.17311
LJ         0.0481168         1.53917         2.06149
LJ           1.84831         1.92262        -1.23505
LJ          -1.45222         -2.3703       -0.537699
LJ         -0.372546        -1.28774        0.795101
LJ           2.09324        -0.45914       -0.708963
LJ           2.36611        0.305605       -0.300233
LJ            1.7247       -0.865314        0.536723
LJ          0.952981         1.94339        0.848744
LJ         -0.332286         1.80545        -1.96433
LJ        -0.0887881        -1.69965       -0.123971
LJ          0.719573        0.427199        0.996602
LJ           1.83756         1.45525        0.471953
LJ          -1.81734        0.970181        -2.55585
LJ          -1.48334        -2.53742        -2.22552
LJ           1.86377         2.46152       -0.413185
LJ           -2.2082       -0.452468         -1.1703
LJ          0.590092        -2.24265        0.337517
LJ            1.0152        -1.31693        -2.12319
LJ           1.18564        0.792186        -2.21578
LJ           1.90272        -1.27247        0.564161
LJ              -nan            -nan            -nan
LJ          -2.37315       -0.422693         0.33373
LJ          -1.78919          2.4639         1.21513
LJ         0.0114214         1.47029         1.53095
LJ          -1.49523        -1.02252        -1.40854
LJ         -0.516914        -2.40279          1.7045
LJ          -1.63947         2.45489        -1.46146
LJ            1.1257         2.30034        -1.64038
LJ              -nan            -nan            -nan
LJ          0.750711       -0.768238        0.305814
LJ          0.965655        -1.68304        -1.14611
LJ        -0.0196729         0.43774        -1.64768
LJ          0.709308        -2.09065        -1.92637
LJ          -2.40653        -1.29764         2.43548
LJ              -nan            -nan            -nan
LJ           2.44845         2.32183         2.56066
LJ           2.12568        -1.65375         1.34291
LJ              -nan            -nan            -nan
