108
#Comment!
LJ          -0.64542        0.248879         1.55703
LJ           2.01416        0.532544          1.8171
LJ          -2.25927        -1.85155       -0.433491
LJ          0.178172        -1.50248        -0.89337
LJ         -0.565332         1.99879        0.029915
LJ           1.56446       -0.113201         2.23325
LJ           2.51356        -1.95162       -0.853446
LJ         -0.170841       -0.413118         2.26721
LJ           1.86796        -1.85289       -0.514322
LJ          -1.98314         -1.1585        0.165494
LJ              -nan            -nan            -nan
LJ           2.10464       -0.812764         1.96811
LJ          -2.48262       0.0830159       -0.534963
LJ           2.04248       -0.776325         1.69303
LJ          0.909423         2.14261         1.30612
LJ         -0.865079        0.163157        -1.15813
LJ              -nan            -nan            -nan
LJ              -nan            -nan            -nan
LJ          -1.58645        -1.19831        0.710608
LJ              -nan            -nan            -nan
LJ        -0.0776116        -1.89674        -1.15231
LJ          -1.54066        -2.45141         1.82375
LJ          -0.95026        -1.78862       -0.833513
LJ           -1.2213       -0.594787        -1.69401
LJ         -0.535043        -1.13413        -1.67939
LJ         -0.265758        -1.25862         1.78304
LJ           1.15253        -2.21216        -2.40572
LJ          -1.61777         2.19466       -0.240795
LJ           1.87785         1.42206        0.556245
LJ           1.71155        -2.28623        -1.55166
LJ          0.213791         1.71707        -1.89955
LJ           1.84748         1.89401        -1.33676
LJ              -nan            -nan            -nan
LJ          -2.49548         1.87026        -1.75055
LJ              -nan            -nan            -nan
LJ          -1.16226        -1.33471        -1.57081
LJ          0.896946        -2.10312         1.35278
LJ         -0.975822         -2.3565        -1.01688
LJ           -1.9449        -1.53117       -0.873495
LJ          -1.18145       -0.896811        0.535802
LJ         -0.589507         1.34196        -1.67761
LJ          -1.28595         1.34475         1.09882
LJ          0.431093        0.624733       -0.387588
LJ          -2.38101        0.472889         1.96706
LJ          -1.82627       -0.607803        0.409716
LJ          -1.65079        0.248796        -1.83816
LJ          -2.08148       -0.841077         1.48098
LJ          -2.37772         1.42793        -2.45471
LJ           1.49783       0.0861408       -0.202194
LJ           1.43638        -0.70524         -1.6317
LJ         -0.314757         1.37449        -0.92307
LJ          -2.50259         1.74986        -1.52823
LJ              -nan            -nan            -nan
LJ          -1.80596         1.55351         1.86989
LJ          -2.49575         1.84609      -0.0122492
LJ          0.775281        -1.12834        -1.29465
LJ           -2.0217      -0.0145219         1.16739
LJ          -2.32231        -1.41077       0.0291528
LJ         -0.636142          1.6575       -0.960009
LJ          0.921769       -0.602991         0.45734
LJ           1.71242        -2.29233        0.981252
LJ         -0.568673         1.26666         2.32948
LJ            2.0148         2.49899         1.70247
LJ          -1.14168         1.09498        -1.39758
LJ           1.68533         1.70323          2.1391
LJ            1.3623        -1.30492        0.149142
LJ          -0.30291         1.89566       -0.561058
LJ              -nan            -nan            -nan
LJ         -0.482796        0.741037         1.06603
LJ          -1.42916         2.22397       -0.944486
LJ         -0.609993         -0.7111        0.221345
LJ           2.47985       -0.114237         1.28026
LJ         -0.706238        0.576843       -0.776324
LJ         -0.985864        0.240078        -2.33818
LJ          -2.18921        -1.09429        -1.30883
LJ          -1.27047        -1.66636         -2.5035
LJ          0.894138        -2.47461        -2.32787
LJ         0.0461639        0.679769         1.77313
LJ         -0.400128        -1.35099       -0.282883
LJ          -0.79581        -1.39235         2.27323
LJ          -1.18816        0.702912        0.580742
LJ           2.28274          1.9078       -0.382586
LJ          -1.54162      0.00244898          2.4068
LJ         0.0546991        -1.31976        -1.17304
LJ          0.692896       -0.109164         2.01939
LJ         0.0855101         1.08524        -1.02903
LJ           0.75556         1.33489        -1.27665
LJ          -1.49566       -0.266123       -0.531887
LJ            1.2635       0.0940285       -0.304974
LJ           1.13586         1.73254        0.171262
LJ              -nan            -nan            -nan
LJ          0.450173        -1.60898        -2.47035
LJ           1.08293         1.61915         1.39717
LJ           1.45273       -0.778552        0.449493
LJ          0.855292         1.89826         2.40662
LJ           1.47531       -0.397963         1.90274
LJ          -1.66299       -0.329413         2.23969
LJ         0.0805421       -0.140385         1.66521
LJ          0.309421         2.32503        -1.19033
LJ           0.38631        -2.03244        -1.93243
LJ         -0.119509        -2.50721         1.29016
LJ          -1.80812         2.11333       -0.274782
LJ           0.65521        0.803254         1.69317
LJ           1.53877        -1.94467         1.39772
LJ          -1.02431         2.12436         2.54117
LJ          -1.88278        -2.54979        0.465214
LJ            2.5262         2.07174       -0.779295
LJ              -nan            -nan            -nan
