108
#Comment!
LJ          -2.28293         1.05041        -2.47384
LJ          0.291752       -0.831243       0.0330948
LJ         -0.236743         -2.4706       0.0188856
LJ          0.939226       -0.962806         2.22638
LJ           2.18153         2.05866        0.798171
LJ           1.11763        0.945334         -2.0407
LJ           2.01307         2.04792         1.72956
LJ            -1.648         2.53751       -0.838623
LJ          -2.07866         2.13314         -1.9339
LJ           1.78691        -1.62454        0.597629
LJ              -nan            -nan            -nan
LJ           0.51481        0.449524       -0.509205
LJ          0.931961       -0.202241         1.07812
LJ          -1.39999         1.64728        -2.37582
LJ           1.14518         1.25634        0.119964
LJ         -0.705018         2.12741        -1.36476
LJ        -0.0606444       -0.991856        -2.15611
LJ          -2.38985        -1.26016         1.81705
LJ          -1.67396         2.45707         1.26105
LJ         -0.586922      -0.0540105        -1.45164
LJ         -0.537536          1.8942         1.25103
LJ          0.140236        0.846461        0.977651
LJ           2.06501       -0.536012         1.34103
LJ          -1.57057        -1.79934       -0.795709
LJ         0.0115538       0.0038305        0.676556
LJ           1.21309        0.269125         2.51271
LJ          -1.10878        0.358731        -2.35808
LJ           2.16755       -0.623772         1.54848
LJ          -1.26296        -0.38775         1.85196
LJ          -1.27546        -2.01503         1.04906
LJ         -0.614715         2.25278        0.384305
LJ          0.984982       -0.759022        0.951082
LJ              -nan            -nan            -nan
LJ           2.04825        0.442867       -0.975541
LJ          -2.15231        -1.25028        0.131382
LJ         -0.118628        -2.28455         2.17953
LJ         0.0312527        -0.87202        0.813938
LJ          -1.91894        -1.45069        0.413181
LJ          0.999798         1.88304        0.708121
LJ          0.997716        -1.25462       -0.751516
LJ          0.677146        0.260131         1.11572
LJ         -0.871886        0.643122        0.324587
LJ           1.93346        0.441652      -0.0223083
LJ           1.86845         -1.3012         1.14485
LJ          -1.72743        -1.86953        -2.06247
LJ           2.44029         2.42446       -0.116277
LJ         -0.713949       -0.847321        0.554117
LJ          0.480445         1.80119          1.3865
LJ         0.0738695       -0.447472        0.482262
LJ          -2.22225       -0.810074        0.802834
LJ           2.12618         2.47077        0.613302
LJ           1.23061        -1.82791         1.16445
LJ          -0.84346         2.14567        -1.44276
LJ          -1.58936         1.96498       -0.567954
LJ          0.969735         1.20335         1.46678
LJ         -0.494931        -1.83192       -0.955855
LJ           1.21477        -0.62047        -1.49841
LJ          -2.15362        -1.99283         1.61028
LJ        -0.0688531         0.32667       -0.157272
LJ          -1.88648        -0.14174          1.1936
LJ           1.16878         1.34773        -2.35119
LJ          -1.08799         2.25104         2.52015
LJ          0.674145        -2.25452         -1.1495
LJ           1.30153       -0.734531        -1.50183
LJ          0.445118        0.927081          2.0254
LJ            1.5282       -0.282014        -1.97425
LJ           1.96698        -1.16694        0.431395
LJ         -0.218085        -2.43548       0.0718399
LJ           1.06435         2.01349       -0.056067
LJ           2.50017       -0.976766         1.23408
LJ          -1.20803        -0.89577        -1.95524
LJ          0.191576        0.863836       0.0368445
LJ          -2.32972        0.644116         2.11888
LJ           1.89078      0.00396802        -1.05177
LJ         -0.756986        -1.00337         2.09115
LJ           2.00341        -2.06767        -1.96484
LJ           2.51119        0.363113         2.55423
LJ          -1.51677         1.52123         2.21159
LJ           1.89756         1.15136      -0.0893845
LJ            1.5069        -1.64706        -1.19097
LJ            1.3856        0.894947       -0.109304
LJ           2.14285         1.58487        -1.88655
LJ          -1.92674        -0.10054        0.768932
LJ           1.67254         2.34292          1.1324
LJ          -2.35217        0.456028        0.463401
LJ          -1.20873         1.32429      -0.0410399
LJ           2.12694        0.696723         -1.7539
LJ           1.75973         1.48628        -1.27648
LJ          -1.66278         1.36398      -0.0810232
LJ          -1.58694         0.75496        0.819234
LJ          0.655728        -1.57121         1.59065
LJ         -0.945592        -2.55776        -1.62558
LJ          -1.60357        -2.05831         1.68693
LJ           1.61691         1.40589       -0.995212
LJ         -0.106629        -1.54178        0.250346
LJ          -1.11848         1.21336         1.94434
LJ           2.01414         2.48242        -1.56786
LJ          0.567065        -1.38097        -1.61339
LJ           1.55963       -0.332277       -0.299277
LJ         -0.523259        -1.52029        -0.94096
LJ          -1.70686         -1.0723         2.08021
LJ          -1.18647        -2.13481       0.0372014
LJ          0.663687         2.11389        -1.87508
LJ          -1.44459         1.32489         2.14398
LJ          0.627471       0.0623744         2.05165
LJ         -0.312626        -1.05274         1.19395
LJ           1.61919         1.27827         1.73855
LJ          0.855702         -1.2308          1.9081
