108
#Comment!
LJ          -1.57863        -1.15141        -2.08405
LJ         -0.936374       -0.505244        -2.39855
LJ         -0.501068       -0.479587        -1.02992
LJ           2.52069        -2.14257         1.42649
LJ          0.729498       -0.426304       -0.676846
LJ           1.19659         0.82942        -2.03156
LJ           1.14166        -2.35268        -2.43975
LJ          -1.44337        -2.36616       -0.119084
LJ            1.8409       -0.809829         2.43638
LJ           2.53292          2.2541       0.0487249
LJ                 0               0               0
LJ          -1.25353        0.698553         1.31468
LJ         -0.502181       -0.471716        -0.51638
LJ          -0.50922        -2.17027         1.52026
LJ          0.212469       -0.843893       -0.912718
LJ          -1.93039        -2.55756        0.483902
LJ           1.18163        -1.79725        0.095086
LJ          -1.70023       -0.355329         1.90894
LJ           1.74321        -1.15207        0.950867
LJ           1.75122         1.06295        -1.41184
LJ          -1.83094       -0.684467        -1.81562
LJ           1.28503         2.06915        0.386101
LJ          -2.21318        -1.12597         1.18181
LJ          -1.03933        0.210634        -1.53844
LJ         -0.614878        -1.06974         -1.3035
LJ            1.8866         1.24497        0.287888
LJ           1.82674        0.299079        0.134661
LJ         -0.156779          -0.284       -0.474399
LJ           1.11453         1.35621       0.0845375
LJ         -0.288392         2.12347         1.89102
LJ          -2.20898        0.952001        -1.23993
LJ         0.0452914       -0.738937         1.91325
LJ                 0               0               0
LJ           1.04619        -2.34272        -2.49337
LJ          0.405198        0.590072         -1.1411
LJ         -0.646158       -0.544406       -0.173491
LJ         -0.513292        -1.75455          2.1852
LJ         -0.681053        0.699499        -2.07083
LJ          -1.70177          2.3168        -1.74707
LJ          -1.76267         2.28347       -0.783757
LJ          -1.81002        0.991303        -1.21469
LJ           2.52275        -0.21027        -2.06978
LJ          -1.80172         1.83128       -0.331588
LJ         -0.878903         0.46476        0.539574
LJ          0.862617        -1.10088        0.716028
LJ          -1.40266        0.163834         1.39973
LJ          0.987455        0.940575        -2.43819
LJ           2.23114        -2.33788       -0.436917
LJ         -0.944366         1.05154        -0.42971
LJ          -2.17047        -1.10553        -1.45298
LJ          -1.72873        0.636719        -1.06124
LJ          -1.60633         2.35055      -0.0782141
LJ          -1.27471        -1.78082         1.62976
LJ          -2.10317         2.02705       -0.361089
LJ            1.6411        0.345089        0.933687
LJ          -1.44163       -0.416219         1.99808
LJ           2.11119       -0.786869         2.27632
LJ          -1.38409        0.313418         1.22117
LJ          -1.22585         1.98347        -1.54977
LJ           2.11252         2.20526         1.45294
LJ         -0.105107       0.0777731        -2.03677
LJ           1.82939         0.73076         -1.1781
LJ           -1.7198        -1.57384        0.664941
LJ          0.293457         2.22055        -1.24779
LJ          -2.34914       -0.369372       -0.375062
LJ          -1.44543        -1.57184        0.934157
LJ          -1.34827         1.80106         -1.1594
LJ           1.58962        -1.92188          1.6351
LJ          -1.98633         2.22855        0.452913
LJ           2.42187      -0.0608091        0.443649
LJ           1.78103       -0.659462       -0.814753
LJ           0.45544        -2.41335        -1.64244
LJ        -0.0898617         2.48867         1.61752
LJ          -1.17288        -2.40621        0.471932
LJ           1.37452         -1.2442        -1.84558
LJ           1.36127        0.786139        0.608241
LJ            1.2631       -0.221862        -2.42306
LJ          0.186573        -1.28016        -2.15602
LJ          0.769131        -1.49896         1.14553
LJ         -0.265557         1.40301         1.65301
LJ           -2.2089         2.09342         1.31233
LJ          -2.26024         1.15616        -2.26578
LJ          -1.11882         0.16311        -2.03558
LJ           1.31551        -2.17699        0.575134
LJ          0.599783        -1.29561       -0.108775
LJ         -0.464497       -0.476108        -2.48064
LJ           1.59146        0.749964        -2.23937
LJ          -1.41168         1.06729      -0.0254574
LJ          -1.42726        -2.15118       -0.610608
LJ           2.23664        0.884004       -0.929851
LJ          0.701783        -2.18254         1.26261
LJ          -0.37348        0.934043         1.03472
LJ         0.0111717        0.282877        -1.10782
LJ         -0.393474       -0.258727        0.472476
LJ         -0.521544         1.88407        -1.65363
LJ          -2.54145        -1.80668         -1.3627
LJ          0.997592         -0.4384      -0.0170486
LJ           0.93722        -2.04323        -1.76833
LJ           1.78107         1.96756         1.29074
LJ          -1.98736         2.15032        0.491073
LJ          -1.48222        -1.71244          1.2242
LJ           2.43662       -0.325251          2.2211
LJ           1.14649         1.30142        0.466245
LJ         -0.106255       0.0458296         2.25704
LJ         -0.238708       0.0317616        -1.23101
LJ           1.41793        0.824795      -0.0524741
LJ          0.876612        -2.33009       -0.565624
LJ          -1.46477        -2.53671        -1.50112
