108
#Comment!
LJ         -0.362708        -1.38658       -0.860083
LJ          -2.20122        0.610894         1.43023
LJ           2.45454        0.819097        -1.18438
LJ          -0.26055       0.0802056         2.41853
LJ           0.78574        -2.33242        0.511799
LJ          0.751218        -1.75426        0.292474
LJ          0.545879         1.14749        0.298903
LJ         -0.658971        -1.16321       -0.479934
LJ          0.481961       0.0698648          -2.096
LJ           2.26684       -0.716667        -1.85677
LJ              -nan            -nan            -nan
LJ         0.0681603         2.32873        -0.83555
LJ            0.9377        0.518195        0.277906
LJ           2.22728        -1.10351       -0.651423
LJ          -2.54509       0.0774642        -2.08088
LJ         -0.722463        0.308225        0.625792
LJ           2.52656         2.01627        0.158923
LJ           2.08833        -1.04878       -0.201308
LJ           1.62794        -1.92255        0.750489
LJ           2.28759         0.67666        -1.91124
LJ         -0.221319        0.506018         1.57586
LJ          -1.85255       -0.710826         1.39733
LJ          -1.50384        -2.26568          1.5852
LJ           1.73315        -1.77297        0.730135
LJ         0.0436738       -0.440116       -0.274292
LJ         -0.340949        -2.35183         -1.3122
LJ           1.76813       -0.207515         1.78009
LJ          -1.13377        -1.08518          -1.319
LJ          -1.44911        -1.61769        -1.43123
LJ         -0.860609        0.889059        -1.96595
LJ           2.29473        0.490941        -1.76549
LJ          0.206393         2.38468        -1.64059
LJ              -nan            -nan            -nan
LJ           1.25928        -1.98819       -0.308507
LJ          0.822478       -0.572653         -1.0082
LJ         -0.742296        -1.69877        -2.45736
LJ          0.820248       -0.338431         0.86593
LJ          0.238269       -0.613017        -2.16055
LJ          0.311858        -1.98579        0.823248
LJ          -2.27067        -2.38405        0.590082
LJ          -1.66767         2.16454         2.52124
LJ          0.241526        0.766379         2.49097
LJ           1.61566       -0.912362         1.28524
LJ          -2.56134        -1.06516        -1.00475
LJ          -1.78718        -1.60914        0.134624
LJ          -1.78134       -0.740862       -0.412889
LJ         -0.702683         2.37847         1.19723
LJ          0.554996         1.35562       -0.463381
LJ          -2.08524         1.66217        -1.28342
LJ           2.40651       -0.467968       0.0610523
LJ          0.442338        -1.82184       -0.353887
LJ         -0.118999        0.500208        -1.66047
LJ          0.544479         1.04193         2.42389
LJ         -0.407019       -0.941032        -1.31293
LJ           2.33349          0.4009         1.50912
LJ           0.92231       -0.270207        -1.89514
LJ         -0.709809        -0.95064       -0.370389
LJ           1.77028        -1.79132         1.81397
LJ           1.52603       -0.189999         1.89584
LJ           1.01106         1.80506         2.26472
LJ          -2.09809         1.31729       -0.891386
LJ           2.51366        -2.32721        -0.20231
LJ          -2.55099        0.203773         1.06164
LJ          -1.30852       -0.514559         -1.5537
LJ           1.85337         1.61071        -2.55089
LJ          -1.77797      -0.0820768          2.2354
LJ         -0.932256        -1.58402         1.30426
LJ          0.637663        -0.11823         1.59811
LJ           0.71904        -2.22676        -2.00395
LJ          -1.00919        -2.40983         2.55673
LJ          0.813981        0.513813        -0.92745
LJ          -2.19932         1.74613        -1.95517
LJ          0.736443        0.331351          2.2051
LJ           -1.5943         1.12069       -0.567596
LJ         -0.469939         1.01868        -2.34219
LJ         -0.345831       -0.395273        0.913927
LJ          -1.09595          -1.674        0.995281
LJ         -0.632722        -2.15003        -1.32114
LJ          0.622919        -1.74337         1.55522
LJ           2.41497        0.814479        -2.29913
LJ         0.0663373         2.53375       -0.863782
LJ           1.86492         1.80128        0.183582
LJ         -0.456637       -0.256678         2.14108
LJ           1.65087        -2.54037        0.372562
LJ           2.13809        -2.39901        0.354977
LJ          -2.54878         2.15216         1.43141
LJ           1.97271        -2.48918         1.78012
LJ          0.811645         1.31498         2.21823
LJ          -1.48757        -2.01421        -2.23707
LJ         -0.295076          0.5952         1.19393
LJ           2.28648        0.561337        0.438748
LJ            1.3938       -0.457275         1.17101
LJ          -2.05628        -1.71749          1.2314
LJ          0.967052         2.15961        0.353135
LJ         -0.513918        -1.77133        0.863061
LJ          -1.94233         1.71682       -0.709016
LJ         -0.891228         -2.4077        0.713384
LJ           1.61169        -1.33939         1.44311
LJ          0.736828        0.537184         -1.3243
LJ          -1.73458         1.54949        -1.29346
LJ          -1.73879         1.33053       -0.266613
LJ        -0.0604761         1.90019       -0.955103
LJ         -0.762505        -1.06252         1.01161
LJ           1.67427        0.787906       -0.704689
LJ           1.77678        -1.30874        0.668305
LJ         -0.612998       -0.483479        -1.15789
LJ           -1.1989        0.698716        -1.85814
LJ          -1.46703         2.42283          -2.426
