108
#Comment!
LJ           1.74601         2.08103        -1.74729
LJ          -2.15533        0.486017        -0.96711
LJ         -0.887241         1.19709         2.04356
LJ         -0.191947       0.0734417          2.0326
LJ           1.11885      -0.0356703         1.41036
LJ            -1.646        0.364076        0.950999
LJ            -1.694         1.91382        -1.29123
LJ         -0.299722         1.43448        0.388724
LJ           2.15069        -1.56778        -2.41772
LJ           1.12732         2.37917       -0.687048
LJ              -nan            -nan            -nan
LJ           1.06021        0.897255        0.378385
LJ          0.922537       -0.821053        -2.31523
LJ              -nan            -nan            -nan
LJ           2.29028        -1.06091        0.790815
LJ              -nan            -nan            -nan
LJ              -nan            -nan            -nan
LJ              -nan            -nan            -nan
LJ          -1.04218        -2.52971        -1.70636
LJ              -nan            -nan            -nan
LJ          -2.50888         2.44644       -0.121673
LJ           1.49177        0.659669         1.87606
LJ          -1.61478       -0.437934      -0.0632042
LJ              -nan            -nan            -nan
LJ          -1.32666        -1.81015       -0.448592
LJ           1.82557         2.53711         2.40836
LJ          -1.77195         2.47237         1.97778
LJ           -1.2756        -1.09362        -2.55992
LJ           2.11047         1.30498        -1.86469
LJ         -0.552257        -1.03179        -0.43937
LJ              -nan            -nan            -nan
LJ           1.83881       -0.324202        0.901272
LJ              -nan            -nan            -nan
LJ          0.893347         2.36124        -1.63409
LJ              -nan            -nan            -nan
LJ         -0.949135        -2.17217        0.848598
LJ           1.22038         1.82654        -2.11712
LJ            -1.915       -0.927332        0.886951
LJ         -0.371709        0.780642        -2.05449
LJ           2.32729       -0.847863       0.0552151
LJ           1.18487         1.23454         2.26058
LJ           2.16144          1.0237       -0.951772
LJ           1.43634         1.75503         1.95165
LJ          0.766735         2.33941         2.08428
LJ          0.319991         -2.2009        0.455239
LJ         -0.355773        -1.90088         2.22167
LJ          0.802541         2.13162       -0.332109
LJ          -1.44038        -1.38082         -1.9285
LJ         -0.662417          1.6493        -0.97794
LJ         -0.934401        -1.94281       0.0204357
LJ          0.627051       -0.337169       -0.881201
LJ          -1.94968         1.08161        -1.97652
LJ              -nan            -nan            -nan
LJ          0.567502         -1.0432         2.22907
LJ         -0.641484        -1.23832         2.03941
LJ          -1.02354          -1.439        -1.19883
LJ          0.613666         1.49927         2.31409
LJ        -0.0253371       -0.338576         1.85021
LJ           1.01786       -0.091363      -0.0711668
LJ          0.345731        -2.36042       0.0157661
LJ          -1.87125        -2.22929       -0.978826
LJ           -1.9128        -1.94203       -0.162228
LJ           1.18749        0.903578         2.47245
LJ              -nan            -nan            -nan
LJ              -nan            -nan            -nan
LJ         -0.283464        -2.51183         1.04124
LJ          0.393912        0.132536        -1.82084
LJ              -nan            -nan            -nan
LJ           1.35164        -1.71798         1.11203
LJ           1.55868        -2.47962         1.34456
LJ           2.02164          1.2188         2.48438
LJ           1.17097        0.942148         1.27654
LJ          -1.84684       -0.571282        -2.11334
LJ          -2.48342        -1.67475         1.61388
LJ           0.72164        -2.27921        0.768245
LJ          -1.15773         1.73957        -2.21766
LJ           1.94375         2.06702         2.20411
LJ          -1.28015         2.26966        -2.04886
LJ           1.65671        0.591712         1.38531
LJ         -0.967984        -2.18593         1.86481
LJ          -2.44483        -2.14428         1.47553
LJ          -1.62399         1.28059      -0.0122275
LJ           2.04855       -0.471202         2.03189
LJ          0.948691        -1.98389         1.81887
LJ           1.39223         1.57058         0.07322
LJ         -0.810564        0.616694       -0.766301
LJ           1.61688         2.48104       -0.511287
LJ         -0.661202        -2.00177          2.2438
LJ           1.10187         1.64576         1.79247
LJ         -0.969595        -2.52968        -1.60773
LJ              -nan            -nan            -nan
LJ           1.91934        -1.70786         1.70506
LJ            1.0824        -2.08742        0.535273
LJ        -0.0416299        -1.06675       -0.597857
LJ           1.89255       -0.595344         1.29778
LJ           -2.3907        0.357548        0.953266
LJ         -0.710746         2.51569        -1.69592
LJ          -2.20468       -0.614509         1.21428
LJ              -nan            -nan            -nan
LJ          -2.34582        -1.27389         2.42404
LJ         -0.858016        -1.78417          1.1233
LJ          -1.15008        0.790969        -1.36904
LJ            0.7995        -2.52937        -2.24776
LJ          -2.03642      -0.0562117         2.25073
LJ              -nan            -nan            -nan
LJ          0.275863         1.66046        0.545214
LJ          -2.23509       -0.803447          2.1689
LJ              -nan            -nan            -nan
