108
#Comment!
LJ         -0.969961        0.758933        -2.10711
LJ           1.04672        -1.95593        0.939745
LJ           1.42449         1.85873        -2.04093
LJ          -2.41309         2.34336         2.44861
LJ           1.29211        -1.58199        0.327239
LJ         -0.270168        -0.43567         1.79919
LJ         -0.811665       0.0128868        -1.13437
LJ          0.397086        -2.41651        -0.89212
LJ         -0.380732         -0.6219       -0.778304
LJ          0.876405        -1.12756        0.986852
LJ              -nan            -nan            -nan
LJ           1.51749         1.20554        -2.12793
LJ          0.331325       -0.102963        -2.12054
LJ              -nan            -nan            -nan
LJ           1.97558         1.19397         1.24243
LJ              -nan            -nan            -nan
LJ              -nan            -nan            -nan
LJ              -nan            -nan            -nan
LJ          -2.55767         2.54698        -2.36103
LJ              -nan            -nan            -nan
LJ         -0.123557         1.96555         2.09582
LJ          0.929397        -1.78232         2.21958
LJ         -0.323704          0.3876        0.962643
LJ           1.92317        -1.70059        -2.09167
LJ          0.667654        0.291668        -0.61175
LJ         0.0277592            1.21      -0.0247436
LJ         -0.900248       -0.173613         1.08379
LJ          -1.69774       -0.334265       -0.847835
LJ          -1.03094          1.8699         2.44996
LJ           2.28524        -1.45261        0.707034
LJ              -nan            -nan            -nan
LJ         -0.737371         0.21234         1.45367
LJ              -nan            -nan            -nan
LJ           2.49014       -0.363701        -0.99396
LJ              -nan            -nan            -nan
LJ          0.516266      -0.0604834        -1.42137
LJ         -0.883191        0.206401        0.800621
LJ          0.408793        -1.69093        -2.55629
LJ          -2.06144         2.07482        -1.39163
LJ         0.0680687        -0.49242         1.45652
LJ          0.175665         1.81423        0.533486
LJ          -2.10825         1.71498         2.50456
LJ          0.434944        -1.69224       -0.566625
LJ           1.77706        -1.88337      -0.0831361
LJ          -1.13666         1.24072       -0.826646
LJ           1.42676        -1.19261       -0.888239
LJ           0.69989        -2.00698         2.00119
LJ         -0.453224        0.921411        -1.23383
LJ          -1.43832        0.819194        -2.00913
LJ        -0.0788189       -0.757892         2.42386
LJ          -1.92425       -0.645323        -1.93572
LJ           2.49362        -1.08408        -1.41899
LJ              -nan            -nan            -nan
LJ          0.356683        -2.47997        -1.69329
LJ          0.308174         1.15686        -2.50795
LJ         -0.257283          -1.782         -2.3613
LJ          -2.14695        -1.92327        -0.97998
LJ           -2.3358        -0.59282        0.142041
LJ          -1.18869       -0.800526       -0.624955
LJ         -0.351634          2.4112         1.54596
LJ          -2.00895         0.45366        -2.28171
LJ           2.52068        -1.58721       -0.352488
LJ        0.00257745        -2.23292       -0.659953
LJ          -1.46049         1.71201        -1.01928
LJ              -nan            -nan            -nan
LJ          -2.09339         1.58599        -2.49037
LJ          -1.14269         1.62749        0.839539
LJ              -nan            -nan            -nan
LJ         -0.394021        0.249491        0.363681
LJ          0.482575         2.22734       -0.689077
LJ          -1.19085         1.56105         -1.9069
LJ          0.424672        -1.02415         0.54077
LJ           2.53409         2.18637       -0.494862
LJ         -0.242221        0.418911         1.14864
LJ           1.22016         1.59989         0.68976
LJ           0.43342         1.55437        0.866336
LJ           2.43477          1.5851        -1.33879
LJ            2.0811         2.29115          2.2156
LJ          -1.62057         1.89123        0.526401
LJ           1.27873         2.32338        -1.31522
LJ         -0.846597        0.632644        -1.04864
LJ         -0.388538        -2.14745        -1.02522
LJ          -0.42653        0.263895        -1.87842
LJ          -1.61971         1.91653        -1.73774
LJ          -0.60934         0.59342         2.35258
LJ         0.0930022       -0.933408         1.05589
LJ           1.31173        -1.64002         1.97495
LJ          -2.31129       -0.990777         1.30472
LJ           2.43257        -2.04307        -1.19944
LJ          -1.23047        0.974849         2.23449
LJ              -nan            -nan            -nan
LJ         -0.486002         2.01387        0.748203
LJ           2.08239         1.98686       -0.351353
LJ           2.10565        -1.54349       -0.959857
LJ         -0.328363        -2.35436         2.11289
LJ           1.97993        0.594487         1.33239
LJ          0.937287         -1.9564         1.03575
LJ           1.33444        -1.88937         1.14446
LJ              -nan            -nan            -nan
LJ          0.922751         2.41164          1.7708
LJ         -0.444107        0.430533         1.20659
LJ          0.060602        -1.17277         1.85904
LJ         0.0956348       -0.854569       -0.187517
LJ           1.24606        -1.91848         -1.5383
LJ              -nan            -nan            -nan
LJ          0.309914        -2.26537        0.591941
LJ          -2.51244        -1.55286        0.575699
LJ              -nan            -nan            -nan
