108
#Comment!
LJ          -2.37548         -2.1945        0.183624
LJ          -1.09575       -0.472561        -1.92991
LJ           1.49942        -2.52494        -1.99871
LJ          -2.47374        -2.12429       -0.446311
LJ          -1.63963      -0.0931937         1.13634
LJ           1.37979        0.952865        0.487622
LJ          -1.72125        0.930346         2.20627
LJ          0.743322         2.04144         -2.3986
LJ          -0.10337       0.0469255        0.845459
LJ           1.38633         2.50731        0.326544
LJ              -nan            -nan            -nan
LJ          0.642729    -0.000304644       -0.899564
LJ           1.25917        -2.54292        -2.37844
LJ          -1.85386        0.833849        0.647975
LJ           2.11654         2.37994        -1.87287
LJ          -1.73535        -1.45267        -1.36787
LJ              -nan            -nan            -nan
LJ              -nan            -nan            -nan
LJ          -1.59346         2.45633         2.49959
LJ              -nan            -nan            -nan
LJ          -1.12421        -2.08647        0.840071
LJ          -1.74581        -1.93734        0.670205
LJ         -0.742375       -0.458342         2.16941
LJ         -0.102164       -0.398967        0.371441
LJ          0.966384       -0.656559        0.532375
LJ          -0.10046         2.01573          1.2017
LJ          -1.79192       -0.302312        -1.47163
LJ          0.228675      -0.0469634       -0.718956
LJ           2.35126         0.51549       -0.100215
LJ          -1.23122         1.65942        -0.32561
LJ         -0.233342         1.77719        -1.42043
LJ           2.23738        0.639686         2.27313
LJ              -nan            -nan            -nan
LJ          0.102962       -0.184122         1.18033
LJ              -nan            -nan            -nan
LJ           2.08971        0.962009      -0.0586079
LJ          -2.43189          1.5072        -1.51822
LJ         -0.674427         1.82361       -0.910727
LJ           2.09461         -1.3273         2.48018
LJ           1.29767       -0.135737        -1.81292
LJ          -2.33258       -0.466731         0.85218
LJ          -2.13131        0.900174       0.0638562
LJ          0.952518        -2.08078       -0.616469
LJ           1.97942         1.62118        -1.46737
LJ         0.0984003       -0.947265        -2.11657
LJ           2.48421         1.09419       -0.472563
LJ           2.08524         1.14635       -0.894363
LJ           2.38871        0.866553          -1.812
LJ           1.97956        -1.22105         2.16394
LJ          0.821763        0.316187        -2.24947
LJ          0.330983         2.04546        -1.71699
LJ           1.31741         1.11074         1.95468
LJ              -nan            -nan            -nan
LJ           -2.4502         1.06012         2.47302
LJ          0.328059        -2.27043        0.977322
LJ           1.30365         1.57166        -0.16694
LJ          0.113423        -1.70129        -1.91741
LJ           1.20101        -2.09277       -0.840843
LJ         0.0120586         -0.9795       -0.271223
LJ          -2.25744       -0.032981        0.460872
LJ          -1.89756         1.89306        -2.17397
LJ          0.202366        0.567147        -1.87412
LJ           1.10537        0.539358         2.17645
LJ           1.50442        -2.17836       -0.728681
LJ           1.19801       -0.529736         1.44768
LJ          -1.10901        0.954555       -0.315285
LJ          0.235147         2.29532        -2.44525
LJ              -nan            -nan            -nan
LJ          0.331603        0.340593       -0.102218
LJ           2.06541        0.871236        -2.17313
LJ           2.46099        -2.43584         -1.6856
LJ          -1.22099       -0.135791       -0.368237
LJ          0.917951        -1.70128        -2.38768
LJ           -1.8317        0.183291        -1.46231
LJ         -0.329278        -1.24196        0.886519
LJ           0.18068         1.03173        -1.55761
LJ          -1.27439        -2.47661        -1.02664
LJ        -0.0529007        -2.12956       -0.809617
LJ         0.0610075        0.270776         2.23918
LJ          0.760961       -0.237401       -0.125599
LJ          -2.02747         2.10582        -1.22779
LJ         -0.336938        -1.88577         2.18967
LJ          0.704748         2.14734       -0.854494
LJ          0.691509         1.07764       -0.379541
LJ         -0.777356        -2.26628         0.78274
LJ          0.239221       -0.341704        0.106245
LJ          -1.28692         1.28237         1.43321
LJ           1.71985        -1.29428        -1.96132
LJ           2.43013        -1.57899        0.224543
LJ          -1.55081         2.40563         -1.1364
LJ              -nan            -nan            -nan
LJ           -1.4265        0.641587         1.02594
LJ          -1.85189        0.521086       -0.139049
LJ         -0.131479         1.01493        -1.14526
LJ           1.70565          0.3194         1.35916
LJ             1.593        -1.91793        0.388216
LJ           1.02309        -1.94413        -2.46239
LJ         -0.406582       0.0753104        -1.04029
LJ         -0.481759       -0.221021         1.10996
LJ           2.29349         -1.5839         1.11013
LJ         -0.489475          1.2908         1.15285
LJ          -2.25733        -1.21656         1.16109
LJ           1.22312        0.315806       -0.699785
LJ          0.354993        -0.94938         1.63222
LJ         -0.275596         1.90553      -0.0452017
LJ         -0.506488        -1.36515        -1.78962
LJ         -0.308505        -1.61186         1.71942
LJ              -nan            -nan            -nan
