108
#Comment!
LJ          0.751435        0.817689         2.40425
LJ         -0.152173         1.83994         1.05893
LJ           2.39732        -1.75513        0.877484
LJ         0.0749665        -2.21906         2.47578
LJ           1.69154       -0.574823        0.404543
LJ           1.81285         2.42781         1.96263
LJ           1.02291        -1.77789        0.430758
LJ           0.66753       0.0836039        -1.78417
LJ          -1.47609         1.43735        -1.42653
LJ           1.54794        -2.26221         1.42539
LJ              -nan            -nan            -nan
LJ          -1.40309          1.4599        -1.16085
LJ          -0.61071        -1.32146         1.06718
LJ          -2.35724         0.20355         2.27132
LJ         -0.521416        -2.25416       -0.969203
LJ          0.263183       -0.572454         2.01597
LJ           1.18693       -0.494709     -0.00226679
LJ         -0.802803        -1.33568       -0.296277
LJ           -1.7447         2.54721      0.00124904
LJ          -1.83741        -2.05177       -0.827216
LJ           1.64361        -1.78097        -1.63898
LJ           1.12379         2.55822          1.8296
LJ           1.03572       -0.892605        -1.62575
LJ            1.2866         1.42732         2.06009
LJ         -0.284056        -2.52332        0.425387
LJ         -0.682857         2.50769       -0.261035
LJ          0.324277       -0.954488         2.03247
LJ           1.42466        -1.55737       -0.934859
LJ         0.0403175       -0.923472        -0.12053
LJ        -0.0834322        0.307423         1.30821
LJ           1.18688         2.06142         1.70689
LJ           2.27655         1.57999         1.72628
LJ              -nan            -nan            -nan
LJ         -0.231379         1.87037         1.55463
LJ           1.88533        -1.49441         2.34844
LJ          -2.08422         1.90866       -0.375106
LJ         -0.764504        -1.53967          1.9944
LJ          -1.45204          -1.159       -0.664732
LJ           1.55234         2.27613         2.05898
LJ           0.53262        -1.48546         1.50012
LJ           1.35426        0.355074        0.527254
LJ           2.02246         1.07051       0.0817146
LJ           -1.2892       -0.993571         2.09164
LJ           1.01952       -0.701598         1.55443
LJ          -1.24442       -0.403516       -0.825931
LJ           1.27877          2.4985         2.48336
LJ           1.61273        -1.45737        0.326759
LJ          -1.98704       -0.723089         -2.1715
LJ          -2.51733        0.524192        -2.43513
LJ          0.119856        -1.13512         -1.2205
LJ          -2.37423         1.98165         1.94115
LJ          -2.11656        0.144535       -0.473272
LJ           0.99762        0.747611        -1.89967
LJ          0.419209         2.00213        -1.90114
LJ            1.6802         2.04872        -1.05057
LJ         -0.870991        -1.43186        -1.48167
LJ           1.09586        0.296251       -0.584129
LJ          0.482399         1.87626           1.076
LJ          -1.81564        -1.69619        -1.76603
LJ          -1.57696         2.37078        -1.55467
LJ          -2.41351         -1.2852        -1.76988
LJ           2.55716         -2.2453        -2.10097
LJ           1.59099        0.950618         1.15367
LJ           1.97344        -1.87439        -1.83238
LJ          -1.80062       -0.951603         1.36744
LJ           1.47712        0.794238        0.479375
LJ           2.23101         -1.7872         1.48687
LJ           2.07205        -1.36814       0.0562977
LJ        -0.0785126      -0.0759603       0.0566654
LJ         -0.429652       -0.821502        -1.01891
LJ          -1.27972        0.366803        -1.20725
LJ          -1.84772        -1.97123          2.4079
LJ           2.11954       -0.605105         1.07161
LJ         -0.134458        0.635344         1.03785
LJ          -2.40317        -1.61793        0.884839
LJ           1.81554        -0.77895        0.529195
LJ          0.554861       -0.410048         2.38169
LJ           2.31538         0.12633       -0.957481
LJ           2.33135         -2.0613        -2.00106
LJ          0.567853       0.0793867        -2.38868
LJ         -0.558983        0.938175         2.08029
LJ          -1.70264       -0.137192         1.19847
LJ           1.29267         1.85667       -0.499324
LJ           1.98719        0.154215         2.11052
LJ          0.750042         1.52973       -0.300472
LJ          0.657371         -1.2738        -1.45045
LJ          -1.15595        -2.52643       -0.880038
LJ            1.0159         2.37475          1.3996
LJ          -1.72426         1.21302         1.32661
LJ            1.7786          1.9249        -1.53506
LJ          -1.96327        -2.41724         2.38551
LJ           1.52346        -1.61205         2.39609
LJ          -2.36729         1.65106        -1.08741
LJ          -1.35512         2.47755         2.29096
LJ           1.05941         -1.3429          2.3177
LJ          0.819057         1.95492         2.30737
LJ          0.891416         -1.7349         1.98276
LJ           2.28432         2.25979        0.533663
LJ           1.99256       -0.417025         1.07142
LJ           1.03057         2.15791        0.979693
LJ          0.847377        -2.40407        -1.46121
LJ          0.969967        -2.46779         2.30034
LJ          -1.64537        -1.00835        0.329129
LJ           0.69371        0.339996       -0.865783
LJ           1.80905        -1.57796        0.735509
LJ          -1.51807         2.14415          2.0699
LJ           1.28122       -0.315604       -0.717535
LJ           -1.6468        0.211978       -0.447961
