108
#Comment!
LJ          -2.03981        -1.35315        0.519445
LJ           2.28729      -0.0810735       -0.175256
LJ           2.44359        0.613156       -0.369528
LJ          -1.61002        -1.81795        0.837076
LJ         -0.450726        0.640019        -1.24552
LJ         0.0145788          1.2245         1.30669
LJ          -1.85826         2.41359        0.322688
LJ          -1.51231        -2.09888        0.988247
LJ           2.31207       -0.620925         1.01042
LJ          -2.10927         1.16057        -2.20531
LJ              -nan            -nan            -nan
LJ          -2.25516        -2.11828       -0.939583
LJ          -1.33597         1.01532        0.108949
LJ          -1.59778         1.55072         1.47041
LJ           1.70926         2.27644          2.5623
LJ           1.00074       -0.793174       -0.840839
LJ              -nan            -nan            -nan
LJ              -nan            -nan            -nan
LJ         -0.910968         1.56837         1.80343
LJ              -nan            -nan            -nan
LJ          0.633944       0.0722928      -0.0934351
LJ        -0.0572498         2.38695        0.801657
LJ          -1.42809       -0.953415       -0.580127
LJ          0.183267       -0.918828        -1.43399
LJ           2.20219        0.032237       -0.124601
LJ           2.24977         1.97401        -1.58592
LJ           -0.1114       -0.331094         1.47344
LJ         -0.498226        -2.43978        -1.95724
LJ        -0.0499735        -2.25574        0.943284
LJ           2.37994       -0.191537        0.916488
LJ           2.14659         1.51606         1.59523
LJ           1.94785        -0.95119        -1.19958
LJ              -nan            -nan            -nan
LJ          -2.12196        0.198726       -0.984394
LJ              -nan            -nan            -nan
LJ          -1.34685         0.84314      -0.0666716
LJ           1.47354        -2.25985         1.82293
LJ          -1.90384        0.136747        0.109022
LJ          -2.14672        -2.46208      -0.0963876
LJ           2.43941        -1.31373       -0.660184
LJ            1.8082        -2.32215         1.89399
LJ         -0.417461        -1.82346       -0.569274
LJ         -0.868756         1.70831         2.49011
LJ           1.79675        -1.84608        -1.96622
LJ         -0.755813        -2.10692        0.518962
LJ          0.323932         1.45055        0.844847
LJ         -0.888091         1.43865       -0.831333
LJ         -0.262651        -2.49731        0.893139
LJ          -1.95411         0.11536        -2.06019
LJ          0.141661        0.785919         1.54619
LJ         -0.471428         1.60877         1.08962
LJ         -0.880713        -0.22286        0.394585
LJ              -nan            -nan            -nan
LJ          0.530238         2.44416         1.63599
LJ           -2.0737        0.748633       0.0613551
LJ          -2.02023         -1.0706         2.55775
LJ          -1.41624          2.3744         2.38587
LJ          -1.76986         2.01388        -1.62745
LJ          0.468082        -2.34754        -1.38386
LJ         -0.546236        -1.90913        -2.45525
LJ          -2.01522         1.83598        0.120978
LJ          -2.42624         1.12422       -0.388202
LJ           2.37597        -1.57694         1.97998
LJ          -1.89543        -1.67595         1.98013
LJ           1.51137         2.11564         0.50122
LJ        -0.0390718        0.974161        -1.27123
LJ           1.95726        -1.68079         2.30511
LJ              -nan            -nan            -nan
LJ          0.314066         1.17224         2.43292
LJ          -2.22022        -2.15925       -0.315487
LJ          0.356314        -1.51623         0.55848
LJ         -0.130718        0.453448       0.0866186
LJ          -1.14514        0.172417       -0.231418
LJ          -2.17303     -0.00699713        -2.42312
LJ          -1.88524        0.113612        0.120983
LJ           -1.0803       -0.881406         2.29019
LJ          0.193729      -0.0743882         2.45722
LJ          0.336604        -1.92004       -0.633023
LJ           1.73315          -1.813         2.51458
LJ           1.45511         0.78871         2.08888
LJ          0.137863        0.626602        0.708863
LJ          0.167708      -0.0040894       -0.955179
LJ          -1.61489         1.96435        0.271943
LJ         -0.990806         1.78417        -1.56199
LJ         -0.609486         1.81028         1.52081
LJ          0.758337        -2.19026        -2.17406
LJ           1.94833       -0.253553        -2.14171
LJ         -0.920022         2.44505         2.24606
LJ         -0.710097        0.213312         1.87684
LJ          -2.03076        -2.34384        -1.57536
LJ              -nan            -nan            -nan
LJ          -1.79534        0.554881         2.27662
LJ          0.805294        -2.00101        -2.18303
LJ          0.194195        -0.15392       -0.202127
LJ           2.32318         1.99888        -1.71604
LJ          0.580252        0.466877           0.769
LJ          -1.41839        -1.58024         1.12779
LJ          -1.23379         1.42259         1.24619
LJ            1.4985        -2.54991       0.0324017
LJ            0.5893         1.90422         1.22767
LJ         -0.729523         1.93114         2.03883
LJ          0.342438       -0.149525         2.08329
LJ         0.0581759        -1.13313         -1.5124
LJ         -0.052336         1.13104         1.02999
LJ          -1.28392       -0.959589        -2.33615
LJ          0.920045         1.94253         1.34014
LJ          -2.29077         1.37342        -1.20062
LJ              -nan            -nan            -nan
