108
#Comment!
LJ          0.884439         2.40096        0.638913
LJ          -1.43962         1.54187        0.657265
LJ           2.46926         1.92656        0.140427
LJ           2.51675         1.40258        0.720564
LJ         -0.334736      -0.0969855        -1.01957
LJ         -0.382388        0.180038        0.776796
LJ           1.34146        -1.18088        -1.37398
LJ           2.18493         1.08367       -0.168921
LJ         -0.232836        0.281947         2.22204
LJ           1.38551        0.160458        -1.64664
LJ              -nan            -nan            -nan
LJ         -0.660831        -1.19832        0.699332
LJ          0.383754        0.567091        0.945665
LJ              -nan            -nan            -nan
LJ          -1.00693         2.13609        -1.78559
LJ              -nan            -nan            -nan
LJ              -nan            -nan            -nan
LJ              -nan            -nan            -nan
LJ           1.00144        0.296199       -0.091685
LJ              -nan            -nan            -nan
LJ           -1.6689       -0.515307       -0.252171
LJ          0.386662         1.10494       -0.706271
LJ         -0.596266        0.155099        -1.37185
LJ              -nan            -nan            -nan
LJ          0.611899        -2.17848         2.03413
LJ          -1.38023         0.40967        -1.96386
LJ         -0.594049        0.915726         2.26513
LJ          -1.49136        -1.15831         1.75958
LJ           1.51385        0.260222         -2.5181
LJ         -0.985372         1.37619       0.0549814
LJ              -nan            -nan            -nan
LJ         -0.390108         1.63189       -0.831235
LJ              -nan            -nan            -nan
LJ          0.808915       0.0778266       -0.267439
LJ              -nan            -nan            -nan
LJ         -0.276894         2.11757        -1.87806
LJ           2.13248       -0.479065        -1.09203
LJ           1.57064        -2.38007       -0.391202
LJ         -0.313693       -0.196642         1.53909
LJ           -1.6062         1.75629        -0.47965
LJ         -0.169683        -2.13507         1.63087
LJ          0.740117       -0.775571        -1.41552
LJ          -2.47987         0.79595        0.950209
LJ           2.39378        -2.56154          2.2288
LJ           -1.4484       -0.699902         0.25301
LJ           1.66035         1.26322        -2.50914
LJ          -2.04881         1.48837        0.592148
LJ           2.51038       0.0359647        0.973615
LJ          -1.41502         2.13982        -1.11488
LJ           -2.0911         -1.6621         -2.1315
LJ           1.98441       0.0063959        0.382401
LJ          -1.87667         -1.1404       -0.622244
LJ              -nan            -nan            -nan
LJ           1.46247         1.78265        -1.48861
LJ            1.7974       -0.855139        -2.12794
LJ          0.948031         1.90668         2.32046
LJ         -0.416687        0.767949         1.70547
LJ          0.166745        -1.78982        -1.08919
LJ          -2.56383         1.29596        0.557061
LJ         0.0496685        0.292506        0.240431
LJ           1.58973       -0.164739         1.23329
LJ         -0.783647         2.55944        0.634605
LJ          0.931759        -1.68666       -0.058039
LJ              -nan            -nan            -nan
LJ              -nan            -nan            -nan
LJ           1.04256        0.146891         1.97601
LJ         -0.958937        -2.18451        -1.93422
LJ              -nan            -nan            -nan
LJ           2.49926         1.42793       -0.550895
LJ           2.16994        0.116789        0.723701
LJ         -0.529529        -1.74889        -1.63442
LJ          -1.57871        -0.83324        0.320555
LJ         -0.153515        -1.82012         2.22348
LJ           1.94627        0.152092       0.0408496
LJ          -0.54414        -1.44034        -1.34751
LJ           0.40371        -0.26025        -2.28918
LJ           1.80056        0.499001        0.904933
LJ         -0.543169         0.25958         1.52018
LJ           2.30815        0.661482       0.0556896
LJ           -1.3959         1.16555        -2.18081
LJ           2.31646       -0.606801         1.81345
LJ          0.767089      -0.0568763        -1.51624
LJ          0.731512        -1.69047         1.42065
LJ         -0.367676        -2.36531         2.22922
LJ         -0.830098        -1.83209         1.79477
LJ          -1.16606        -1.99311       -0.306115
LJ        -0.0849306         1.59167        0.235014
LJ           2.20739        -2.35268        -1.81805
LJ           1.02242       -0.482926        -1.70031
LJ          -1.22261         2.29608         1.28253
LJ              -nan            -nan            -nan
LJ           1.18918        -2.15367       -0.221504
LJ          -0.53253        -1.73489         -1.7364
LJ          0.794881        0.523184         1.04291
LJ          -1.23725        -1.11768       -0.995365
LJ         -0.519372         1.18766         1.32653
LJ          0.125786        -2.29305         1.94551
LJ          0.470795         2.50104         2.07981
LJ              -nan            -nan            -nan
LJ           2.12962        -2.22722        -2.21386
LJ          -1.78749         2.40648         2.53194
LJ          0.151626        0.912414         1.75223
LJ          -1.10025         1.11097         0.36561
LJ         -0.823426        0.473047         1.50406
LJ              -nan            -nan            -nan
LJ           2.16448        -1.91304        -1.42686
LJ         -0.121996        -1.23821        -0.95356
LJ              -nan            -nan            -nan
