108
#Comment!
LJ           1.09918        0.456968         -2.0375
LJ         -0.554104        0.442035        0.263938
LJ          0.592088         0.91199       -0.529967
LJ           0.67684          2.3856         2.42189
LJ           2.09801         2.40626         1.69231
LJ          -2.26444         1.57588        -1.06261
LJ          -1.30791      -0.0615099         2.33572
LJ          -1.01024         1.70316      -0.0752516
LJ          -2.05958        -2.00552       -0.992095
LJ          -2.41021        -1.95106        -1.94657
LJ              -nan            -nan            -nan
LJ           2.14611        -1.21723        -2.40472
LJ          -2.20618       -0.616054       -0.605413
LJ              -nan            -nan            -nan
LJ          -2.11263          2.1093        0.737988
LJ              -nan            -nan            -nan
LJ              -nan            -nan            -nan
LJ              -nan            -nan            -nan
LJ         -0.876112        -1.29466        -2.41061
LJ              -nan            -nan            -nan
LJ         -0.791469       -0.762923        -1.48364
LJ           1.32005        -1.29651       -0.224194
LJ           1.30739         2.06591          2.1992
LJ           2.43977         1.30456        -1.44383
LJ           2.18264         1.96169        0.577387
LJ          0.400101         2.23068        -2.19032
LJ          -1.38726       -0.344322        -2.49828
LJ          -2.41732          1.5401        -1.92885
LJ          -1.87305         1.11586         2.17271
LJ          -1.62636        -1.38343         1.17491
LJ              -nan            -nan            -nan
LJ          0.572329         -2.0491         1.02364
LJ              -nan            -nan            -nan
LJ           2.06865         1.62873          2.0311
LJ              -nan            -nan            -nan
LJ          -1.16591         1.86253       -0.803557
LJ           1.23869       -0.102425         -2.0214
LJ          -1.94355         2.30852       -0.571273
LJ           -1.0438        0.963538        0.422737
LJ          -1.03186       -0.820877       -0.727518
LJ           1.70861        -2.39403       -0.831683
LJ         -0.637631        0.308946       -0.420486
LJ           2.39015         2.04161         1.05541
LJ           2.52035        -1.02316        -1.00384
LJ           -1.2583        -2.30956         1.31485
LJ           1.58765        -1.12927         1.41195
LJ          -1.72068          2.0095         2.55467
LJ          -1.27072         -1.7705         1.33369
LJ          -1.39988        -1.16121         1.22495
LJ           1.95308        0.802692          1.4055
LJ          0.229581       -0.576845         1.13104
LJ         -0.956905        0.260516          2.0266
LJ              -nan            -nan            -nan
LJ        -0.0396705       -0.967781       -0.135511
LJ          -2.12267       -0.304493        -1.27175
LJ         -0.158008       -0.544982         1.90151
LJ         -0.307292        0.587739         -1.1884
LJ          0.730483         1.65195        -1.91464
LJ           1.34253       -0.499606        0.115348
LJ           -2.1933        0.903807       -0.671777
LJ          -0.86175       -0.655573        -1.94619
LJ           -1.2348         1.21108        -1.67702
LJ          -1.31026        -1.37224       -0.802456
LJ           1.29182        0.579532         2.41996
LJ              -nan            -nan            -nan
LJ          0.742458         1.10008        0.436974
LJ         -0.785047        -1.94442         2.51561
LJ              -nan            -nan            -nan
LJ          -1.71936        -1.75492         1.55231
LJ         -0.359159        0.438935        -1.36675
LJ           2.01574       0.0101974        0.631645
LJ           1.80332       -0.053167        0.319704
LJ          -1.65968         2.53557         1.65163
LJ          -1.73885          1.8641         2.29113
LJ         -0.391668         1.57921        -1.43916
LJ            -1.442         1.78931        0.387226
LJ          -2.35234       -0.832845       -0.769795
LJ          -1.37292         1.75727         2.40544
LJ          -1.63206         1.71207         1.59945
LJ        0.00688322        0.106631       -0.330642
LJ          0.201778        0.173125       -0.299638
LJ           1.43365         1.38111         1.09185
LJ           0.73529       -0.415703       -0.165733
LJ           1.77615         1.05026       -0.929603
LJ           2.10037        0.576226        -1.60515
LJ            1.0439        0.538619         -1.8031
LJ           1.51255        -2.35649        0.928608
LJ           1.92153         1.70141         -2.0131
LJ           1.96889         1.05203         1.75236
LJ         -0.831675        -2.53105         2.15897
LJ              -nan            -nan            -nan
LJ         -0.391859        -1.20696        -2.45941
LJ          -2.09327        0.844819       -0.833322
LJ          0.931256         1.39757        -1.15058
LJ          -2.25047       -0.066242        0.199195
LJ          -1.94083        -1.33453       -0.520228
LJ          -1.85885         1.87409        -1.30039
LJ          0.162709        0.778419        -1.21075
LJ              -nan            -nan            -nan
LJ          0.855163        -1.29496        -1.84945
LJ          0.172494       -0.493041         2.35053
LJ            1.5053        -1.43354       0.0642901
LJ           2.48707        0.445727       0.0321335
LJ          -0.20595         2.23982          1.7123
LJ              -nan            -nan            -nan
LJ          -1.45432       -0.160492         1.37847
LJ           1.62065        -1.20528       -0.961232
LJ              -nan            -nan            -nan
