108
#Comment!
LJ          -1.12773       -0.680697         2.38365
LJ           2.40786         1.55518         1.18069
LJ         0.0746685        0.351068       0.0677377
LJ          -1.23079         -1.8045       -0.872368
LJ         0.0680035         2.30919        -1.68257
LJ         -0.756926        0.678266         1.79958
LJ           2.54637         2.09703        0.574684
LJ          -1.44649        0.296768        -1.91361
LJ          -1.72713        -1.11673         2.42668
LJ           2.30501         1.29694        -1.00215
LJ              -nan            -nan            -nan
LJ         -0.300033         1.30497        -1.38044
LJ          -1.28889       -0.781605         1.57385
LJ         -0.968911        -1.81419        -1.51925
LJ         -0.065432        -0.85611        0.402027
LJ           2.00249        -1.97857          1.0693
LJ              -nan            -nan            -nan
LJ              -nan            -nan            -nan
LJ           1.39579          1.1006          1.5649
LJ              -nan            -nan            -nan
LJ          0.144229        -2.38248        0.035386
LJ           1.48335        0.610187        -1.56806
LJ          -1.64135       0.0986961       -0.814149
LJ          -0.98951        0.335666       -0.865955
LJ         -0.695885         1.74088        -2.30564
LJ         -0.905472       -0.934097        -2.03908
LJ          -1.57656         -2.3493        -1.98873
LJ           1.90915        0.586244      -0.0215248
LJ          -1.96348         0.66924         1.49605
LJ           1.06438        -1.53703       0.0518518
LJ           1.72279        0.829179         2.27867
LJ           0.91809       -0.947285         2.18082
LJ              -nan            -nan            -nan
LJ          0.362039         2.50292       -0.475361
LJ              -nan            -nan            -nan
LJ            2.0252         1.70686         1.85365
LJ        -0.0916056        -1.71808        -1.13961
LJ          -2.32741        0.521564        -0.73759
LJ           1.23972       -0.295331        0.648993
LJ         -0.106172       -0.955969        -1.34323
LJ          -1.88934        0.777088         1.87635
LJ          -1.98064         2.34032         2.11685
LJ           0.84767          -2.187        -1.64807
LJ           2.19589        -2.02639        -2.34072
LJ            2.3459         1.34528       -0.618252
LJ         -0.179593        -1.81975       -0.922276
LJ          -1.22897       -0.479736         1.06565
LJ          -1.90046        0.800556         2.14708
LJ          0.591271           1.883         1.10616
LJ         -0.611558        -1.18569         2.15067
LJ           1.54945        -1.95727       -0.751467
LJ          -1.50888         1.86616       -0.496047
LJ              -nan            -nan            -nan
LJ          0.629774       -0.292154       -0.131712
LJ          -1.40003         0.46673        0.547944
LJ         -0.514572        0.306032       -0.460804
LJ         0.0366047         2.46089       -0.115341
LJ          -2.29033         1.17898         2.48197
LJ          -2.35711         1.21736         1.37818
LJ          -0.15888         2.24404       -0.219205
LJ           1.88697         -1.8709       -0.278833
LJ           1.02956        -2.41016         1.43902
LJ          0.385013         1.75379         1.51925
LJ          -1.09483         1.35261         1.55463
LJ          -1.71505        -0.82411        -2.42826
LJ            2.4593       -0.503879          1.5749
LJ          -1.33955        -1.97881         2.39155
LJ              -nan            -nan            -nan
LJ         -0.495543        -1.42682        0.618854
LJ          -1.39761        0.584062         1.37111
LJ           2.41486       -0.859761        0.214263
LJ          -1.08073        -2.28582        -1.73434
LJ          0.837071        -1.28639        0.996888
LJ          0.652176       -0.554541        0.603764
LJ          -2.00725          1.1869        0.256614
LJ          -1.52673         0.78136       -0.829233
LJ         -0.256075       -0.797799        0.199519
LJ          0.167594        -1.50787        -2.04092
LJ          0.314421        0.817058       -0.522233
LJ           1.54667        0.518018        0.574647
LJ          -1.97713        -1.47243       -0.876581
LJ          -1.97711        -1.18586        0.522046
LJ         -0.934636        -2.48075        -2.01449
LJ          -1.70912       -0.819936         1.82334
LJ           1.13445        -1.53441        -0.24611
LJ           1.68282       -0.985602        -1.53824
LJ           1.58935          1.0545        -1.26886
LJ          -2.17726         2.36904        -1.72818
LJ          -1.46854         -1.6845      -0.0680805
LJ          0.936666        -1.60214        -2.49578
LJ              -nan            -nan            -nan
LJ          -2.40207        -1.43666         -1.0352
LJ           1.18879        -2.38203       -0.407478
LJ         -0.471942         1.24205       -0.562497
LJ         -0.887028        0.199865         1.49903
LJ           1.71547       -0.796518       -0.775377
LJ         -0.134755         2.02286        -1.07717
LJ           2.33208        0.563394         1.41863
LJ          -2.11703       -0.677895       -0.561821
LJ            0.3604      -0.0691782          2.3487
LJ          0.580763         2.03761         -2.0835
LJ           2.53958         1.17045       -0.120225
LJ           0.58452        0.311719       -0.128456
LJ           2.05355         1.06646        -2.47528
LJ           2.50271        0.271343       -0.160387
LJ          -1.95333         1.14626        -1.68388
LJ          -2.32351         1.83592        -1.69723
LJ              -nan            -nan            -nan
