108
#Comment!
LJ         0.0404947        0.983354        -2.07676
LJ           2.46337         1.87295        0.847827
LJ           2.27211         2.44952        -2.19771
LJ            1.5278        -1.43371          2.5419
LJ          -1.67797        0.728514         1.08882
LJ           1.99849        -1.66926        -1.65876
LJ           1.94058         1.14453       -0.737264
LJ          -2.05616        0.749816       -0.797014
LJ          -1.69351        -1.93823        -1.61088
LJ           -0.7853        -0.75153        -2.42534
LJ           -1.8555        -2.14225       -0.645614
LJ          -1.45815        0.187558         2.55501
LJ          0.317127        -2.09247         1.54635
LJ           1.16794         1.38066        -1.73841
LJ          -1.58402       -0.328292         -1.4251
LJ           0.13183        -1.52435         1.86185
LJ          -2.10192         2.46906        -0.47024
LJ         -0.308291        0.107775        -1.94368
LJ          -1.25684        0.610998         -1.1056
LJ         0.0998657        -1.95018         2.55411
LJ          -1.98216         1.74002         1.65449
LJ          0.944925        -0.70123        -1.52342
LJ           1.48801        -2.03756         1.85975
LJ          0.650456         1.74378        -1.67723
LJ          -2.48543        -2.19602         1.75006
LJ           1.83071       -0.793244           2.259
LJ          0.951943         1.60413        -2.48675
LJ           1.16326         2.38091        -1.17739
LJ          0.181788        -1.15619        0.794792
LJ          -1.00854        0.259852        -1.20009
LJ           2.10433        -1.76869        -1.80917
LJ          -0.52875       -0.863235         1.45065
LJ         -0.597647        0.875674         2.25441
LJ          -1.19309        -1.58791       -0.301956
LJ         -0.470514        -1.83549         1.52018
LJ           -2.2465         2.43512       -0.659536
LJ         -0.236999         2.34251        -1.67201
LJ          -1.27493       -0.518686         2.15778
LJ          -1.72272        -1.24778          2.4327
LJ          -2.35122         -1.1574       -0.154663
LJ         -0.311646         2.42435       -0.687102
LJ          0.179967       -0.988527        -1.49621
LJ          -2.20593        -2.31037        -1.22827
LJ           0.28585        0.986235         -1.1318
LJ         -0.638084         1.44134       -0.456136
LJ         -0.485966        -1.09671         2.12987
LJ        -0.0747037         1.48271        0.227166
LJ          -2.18605         1.25071         -0.4101
LJ          -2.04497       -0.439538         1.21388
LJ          -1.20563        0.659034         -2.2112
LJ          -2.37673         -1.0448         1.98939
LJ         -0.950742        0.946744        0.303935
LJ          -2.05422          1.0865        -1.15103
LJ          -2.20131         1.42367         2.49446
LJ          -1.32669        0.784822        -1.30748
LJ             1.578        0.224597         1.53487
LJ         -0.937502         1.34332         2.48407
LJ          -1.17781        -1.06521         1.91637
LJ           2.50298         1.21568        -2.13177
LJ          -2.55627         1.18821         2.52804
LJ          0.188631        -2.21517        -1.12649
LJ          0.157613         1.04356       -0.626779
LJ          0.945675        0.647248        -1.82976
LJ           2.10267         -1.8338        -1.43821
LJ           1.41292        -1.01619       -0.961509
LJ          -0.84673        -2.04967        -2.09593
LJ          0.221815          1.1528       -0.913704
LJ         -0.630644         2.23218         1.62833
LJ         -0.772476        -2.14942           1.282
LJ           2.56426        -2.00004         1.46258
LJ          -1.26517          0.3666         2.23793
LJ          -1.44355        -1.89369          2.5389
LJ           0.45603         -1.4119        0.099157
LJ           0.96645        0.314805       -0.529566
LJ           1.66656        0.131543         1.88743
LJ          0.499608        -1.44488        0.233816
LJ          -1.66929       -0.977602         1.30569
LJ         -0.288175         2.20466         1.49922
LJ          -2.09327         2.22475        0.348654
LJ         -0.923368        -0.55047         2.16045
LJ         -0.814844        -0.72404        -1.60595
LJ          -2.06026       -0.542483       -0.929327
LJ         -0.297916         2.11052        -0.98513
LJ          -1.12149        0.876071       -0.352755
LJ         -0.963935        -2.38775        -2.54002
LJ          -2.21802        -2.15105        -1.16286
LJ         -0.473051        0.737088         2.25902
LJ         -0.927565        -1.53677        0.193922
LJ          0.599936        -1.67234       -0.725142
LJ          -2.11429        -2.10734          1.5214
LJ          0.325833        -1.21431        0.148806
LJ         -0.881144        -1.07506       -0.393303
LJ         -0.414454         2.11465       -0.585662
LJ           1.15368          0.9263        -1.25209
LJ          -2.27326        0.415491         2.43284
LJ          0.677371         1.21696       -0.235562
LJ         -0.529403       -0.355955        0.431071
LJ         -0.281463        0.356795        0.695927
LJ          -1.74317         2.14901         2.41205
LJ         -0.777121       0.0763586        0.498636
LJ           1.70118         2.28778         -1.4197
LJ          -1.60339        -1.92806         1.94529
LJ          -1.46288        -2.16184         1.07047
LJ          -2.50819        0.568983        0.829182
LJ           2.44719        -1.82191        0.552501
LJ           1.63442          1.1678        0.912814
LJ        -0.0501931         2.02622         2.20045
LJ         -0.925249        -1.00873        -2.48075
