108
#Comment!
LJ           -1.3125         1.62637        0.881798
LJ         -0.164674       -0.363182         0.64863
LJ          0.155458      -0.0921748        -1.54915
LJ          -1.97115        0.810799         2.36347
LJ          -1.44194        0.579122        0.127924
LJ         -0.817569         1.30087       -0.894706
LJ          0.639942        -0.87355       -0.452389
LJ          0.972963        -1.02741        -1.15332
LJ        -0.0100436        0.370074        -1.18687
LJ         -0.617342        -1.56274        -2.07946
LJ              -nan            -nan            -nan
LJ          -1.15691         0.27524        0.525219
LJ          -1.49944        0.147637        0.565953
LJ              -nan            -nan            -nan
LJ          0.131762       0.0669256        -2.07014
LJ              -nan            -nan            -nan
LJ              -nan            -nan            -nan
LJ              -nan            -nan            -nan
LJ           1.76052        -1.28319        -1.65983
LJ              -nan            -nan            -nan
LJ         -0.673163       -0.171356        0.114542
LJ         -0.780346        -1.93548        0.254978
LJ           1.67015         1.49216         1.63065
LJ              -nan            -nan            -nan
LJ          -1.11587       -0.664891        0.128333
LJ          -1.56755       -0.126475         1.57712
LJ          -2.15431       0.0988529        -2.50657
LJ         -0.154552        -2.44137        0.546134
LJ           2.37758        -2.12004         2.24108
LJ           2.04295         1.49778       -0.370638
LJ              -nan            -nan            -nan
LJ          0.782614         0.30714        -2.35222
LJ              -nan            -nan            -nan
LJ           0.69539      0.00240162        0.605398
LJ              -nan            -nan            -nan
LJ           1.83314       -0.281475        -2.09841
LJ          0.752719         2.45693        -1.94747
LJ         -0.311173         1.48683          1.5023
LJ           1.82482        0.966496         1.59873
LJ           1.32534         1.92194       0.0879795
LJ          0.950647         2.52145         2.55299
LJ         -0.668144       -0.765788      -0.0781824
LJ          -2.31093       -0.335992         1.10264
LJ          -1.74426         2.18986        0.485873
LJ          0.802327       -0.752263       -0.877627
LJ          -1.01081         1.89035       -0.854535
LJ          -1.92473          2.2107        0.730278
LJ           0.36712         2.47292       -0.443205
LJ        0.00112749        -2.38876         1.20124
LJ           1.30124        -1.64347         1.38435
LJ           1.59884         2.36884         1.59592
LJ          -1.65276        0.940529        -1.76861
LJ              -nan            -nan            -nan
LJ         -0.343909        -1.00482         1.05837
LJ         -0.948419           1.731        -2.54782
LJ           2.27503        -1.97471        -1.24807
LJ          -1.12334        0.107739        -2.12531
LJ         -0.641435         2.20199         1.50259
LJ           2.18434        -1.04996       -0.342656
LJ          -1.39729       -0.840247       -0.123013
LJ          -0.02419        -2.04142         2.04851
LJ           1.58476        -1.80138        -1.95456
LJ           2.40637        -1.49809         1.13494
LJ              -nan            -nan            -nan
LJ              -nan            -nan            -nan
LJ          -1.96119        -2.39375       -0.762069
LJ           1.18011        -1.65898        -0.95188
LJ              -nan            -nan            -nan
LJ           0.66163        -1.22419        0.209635
LJ          -2.27565       -0.634277        -2.43295
LJ         -0.638521       -0.981456        0.513076
LJ           1.01653       -0.702468        -1.81758
LJ          -1.17497        0.186058        -2.50182
LJ          0.156299         -2.5391       -0.475653
LJ            2.0411         1.55308         -2.4225
LJ          0.906723       0.0139279         1.98962
LJ          0.943694        -1.34145         1.55484
LJ           1.38806        -1.83128        0.575511
LJ           1.67956       -0.741324         1.31101
LJ          -2.27672        0.141676         2.38187
LJ          0.483179        -1.86986         1.71193
LJ          -1.15477         2.26351         -1.6519
LJ         -0.453129         1.64395        0.645313
LJ           1.69109         1.74719         2.41034
LJ          0.781606         2.29395        0.992156
LJ         -0.843208      -0.0273082         2.55083
LJ          0.354918       -0.690405          1.9861
LJ          0.621644        -0.40705        0.942349
LJ          -1.08207       -0.626329         1.65469
LJ          0.250531       -0.712382         2.25467
LJ              -nan            -nan            -nan
LJ         -0.482547         2.13338        -2.40771
LJ         -0.200831         2.52662        0.218743
LJ         -0.573176        -1.16366         1.74081
LJ          -0.34643        0.337745         1.21871
LJ           0.52003       -0.833359        -1.46514
LJ            1.2826          1.9635        -2.53394
LJ          -1.30026        -1.42393        -2.20719
LJ              -nan            -nan            -nan
LJ          -2.01397        -1.23136        0.954523
LJ          0.532888         2.38019          -2.004
LJ           1.93201         2.16877        -2.01686
LJ          -0.10339        -2.14268         -1.5173
LJ           2.02277        0.112412       0.0770983
LJ              -nan            -nan            -nan
LJ           1.64366        0.817845         2.12608
LJ         -0.221988         1.96264       -0.920792
LJ              -nan            -nan            -nan
