108
#Comment!
LJ          0.975327        -1.59407       -0.115456
LJ          0.443359        -2.28157         1.75803
LJ          -1.61504       -0.251751        -1.34815
LJ          -2.43684        -2.08118        -2.25875
LJ         -0.826022        0.770209        -1.41759
LJ           1.84651         0.28982         -1.0616
LJ           2.25175        0.453625          2.1649
LJ             2.016       -0.518592        0.327628
LJ          -1.73803      -0.0859054         1.53407
LJ          -2.27588        -2.50814         1.03469
LJ              -nan            -nan            -nan
LJ           -2.1148         1.35419         1.67079
LJ           2.13391          1.8986        -1.12433
LJ              -nan            -nan            -nan
LJ           1.79745       0.0248107         2.18491
LJ              -nan            -nan            -nan
LJ              -nan            -nan            -nan
LJ              -nan            -nan            -nan
LJ            -2.087        -2.32289       -0.350232
LJ              -nan            -nan            -nan
LJ           1.78637        0.154408         1.80358
LJ          -2.33277        -1.96754        -2.44678
LJ          -1.42593        -1.90707        -1.86474
LJ          0.166083         1.25813        -1.57765
LJ           2.33187         1.11588         0.97086
LJ           2.47818        -2.41658      0.00622083
LJ          0.276636      -0.0409452       -0.658643
LJ           1.53594         1.68141       -0.569039
LJ             -1.58        -1.12707        0.345914
LJ          -1.01541         1.17781         1.60716
LJ              -nan            -nan            -nan
LJ          -1.59223        -2.55657       -0.701485
LJ              -nan            -nan            -nan
LJ         -0.476048         0.30642        -2.08131
LJ              -nan            -nan            -nan
LJ            2.1916         1.21269        0.714301
LJ         -0.966982         2.32133       -0.844503
LJ           1.71496        -2.35345       -0.721968
LJ           1.06137        0.117764         1.28006
LJ           1.46716        -2.18728        -1.48381
LJ          -2.15324        0.542785        -2.00193
LJ          -2.45523       -0.433601        -1.96986
LJ          0.730817        0.610872        -2.18556
LJ          -2.41836         2.14628         1.32826
LJ          0.969501        0.468595          1.2796
LJ          -1.42871         2.43801         -2.0106
LJ          0.236022        0.450381        0.166935
LJ         -0.890625        0.402264         1.33865
LJ         -0.732549       -0.572959          1.2382
LJ          0.426649        -2.43381         1.08756
LJ         -0.141085        -1.39242         -0.2302
LJ           0.57775         1.39138        -1.22331
LJ              -nan            -nan            -nan
LJ           1.30388         1.71406        -1.27407
LJ            2.0347         1.94551        -1.88517
LJ           1.91269         -1.3349         2.01318
LJ          -2.51712       -0.178652       -0.997022
LJ          -2.36566        0.898125         1.59186
LJ          -2.35603        -1.19435         1.50333
LJ           1.24772       -0.655127        0.612382
LJ           1.69159        0.612694         1.52469
LJ           2.23606        0.110949        -1.83821
LJ           1.25212        -1.12611         0.93525
LJ           2.06473         2.41576         1.30771
LJ              -nan            -nan            -nan
LJ          -1.08264        0.548097        0.464578
LJ         -0.767482        -1.21649          1.5098
LJ              -nan            -nan            -nan
LJ           1.76669         1.68149       -0.690335
LJ         -0.820464        -1.28608        0.889593
LJ         -0.364513         2.54441       -0.883101
LJ          0.759361        -2.32514         2.50744
LJ          0.161826       -0.736573       -0.812475
LJ          0.561766         1.40341         1.93003
LJ          -1.75774         1.15292        -1.89568
LJ           -2.4043        0.989887        -1.67426
LJ        -0.0905816       -0.510996       -0.256296
LJ          0.370273       0.0159577         1.75195
LJ          -1.13586        -1.19755        0.335926
LJ          0.737009       -0.717263        0.808658
LJ          0.780711        -1.57314        -2.50482
LJ          -1.63455        -2.25119         1.38697
LJ          -1.57111         2.42983       -0.264553
LJ          0.642409        -1.35603        0.580588
LJ          0.202037         -2.0908        0.413432
LJ          0.967781        -2.45902        0.234831
LJ         -0.225316         1.06541       -0.340601
LJ           2.42106         -2.4514         2.22089
LJ        -0.0417762         1.02642        -2.34399
LJ          -2.46918         2.23336        0.226319
LJ              -nan            -nan            -nan
LJ          -0.67826         1.52934        0.564306
LJ          0.950001         1.42289       -0.685189
LJ           1.58427        0.724119        -2.00614
LJ           1.57466        -2.19071       -0.811888
LJ          -2.54957        -1.05547       -0.539534
LJ          0.503819        -1.85211       -0.119609
LJ           2.24679         2.49213         1.87866
LJ              -nan            -nan            -nan
LJ           2.29776        -1.14582         -2.5643
LJ          -1.33704        -1.65138        -1.52979
LJ            2.1455         1.87281        0.271102
LJ          0.856361        0.476281         1.26143
LJ          -1.79019       -0.189717        0.862843
LJ              -nan            -nan            -nan
LJ           2.04721        -2.51313        -1.70654
LJ          -2.43271        0.341464        -1.33611
LJ              -nan            -nan            -nan
