108
#Comment!
LJ           0.47852        0.499141        0.961925
LJ           1.52031        0.409724        0.637123
LJ           1.38414         2.33008       -0.704844
LJ           2.21338        -2.16049       0.0880236
LJ          -2.12769         1.54393       -0.991232
LJ          -1.07639         1.11407        0.105913
LJ           2.16872        -2.01056         0.53444
LJ         -0.422378       -0.280827        -1.79233
LJ         -0.753391       -0.838249     -0.00211488
LJ           -2.4254         2.42448        -2.25824
LJ              -nan            -nan            -nan
LJ           1.33636        0.633579         -2.0092
LJ         -0.398862        0.319449        0.155247
LJ           1.84773        -1.92491       -0.803695
LJ         -0.730607         1.25175        0.958819
LJ           1.04852         -1.1934        -1.84556
LJ          -0.75833        0.821806        -1.49789
LJ          -1.58293       -0.129768        0.779374
LJ          -2.17065         2.04676         1.93597
LJ          -1.45647          1.7109        0.519487
LJ         -0.190726         1.86336        -1.85901
LJ            1.9232        0.550138        -1.17938
LJ         -0.145763         1.99328       -0.395922
LJ           1.40012        -1.90452         2.31172
LJ          -1.27826         2.02025         1.67805
LJ          -2.05362        -1.01148        -1.85659
LJ            1.8267         1.58288         2.21239
LJ           1.48314         2.43104        0.415925
LJ          0.426385          -2.353       0.0626064
LJ         -0.655839       -0.890196        -1.52013
LJ           1.69725        -1.94689        -1.21739
LJ          -2.07641         1.06242         2.33885
LJ              -nan            -nan            -nan
LJ           1.45769        -1.72276         0.93074
LJ          0.509659       -0.788656        -1.34036
LJ          0.582316         2.25014        -2.06108
LJ          -2.28931        -2.56059        0.263776
LJ         -0.178297        0.569841        -1.15969
LJ           1.90759        -1.89014        0.543815
LJ          0.684364        -1.00684         -1.9798
LJ           2.02498        -0.98154       -0.276323
LJ          -1.87452       -0.273792         2.16926
LJ           2.52498         2.19657        -0.13812
LJ          -1.43965        -1.12408       -0.464376
LJ           1.32196         1.56787        -1.42073
LJ         -0.982819       -0.652938        0.189281
LJ           1.47431        0.907587          2.4353
LJ          -2.31689       -0.143507         0.27579
LJ           0.87255        -1.24986      -0.0399929
LJ          -1.62558        0.389807        -2.34516
LJ          -1.96156         2.42353         1.99577
LJ       -0.00117621         1.06921       0.0383389
LJ          0.122048          2.3139         2.20237
LJ          0.854002         2.53965       0.0606728
LJ          -2.04995        0.250975         2.47271
LJ           2.00985       -0.781436        0.534174
LJ         -0.102401       -0.764138         0.44697
LJ          -2.28431        -1.35077         1.33755
LJ         -0.287838        -0.55239         -1.9302
LJ          -2.14565        -1.78232        0.458375
LJ          -2.41435       -0.568006         1.81765
LJ           1.41831      -0.0426247      -0.0749821
LJ           1.84699        -1.56474         1.44929
LJ          -2.42449         2.29847         0.91661
LJ        -0.0217897         2.09776       -0.421727
LJ          0.270779         2.54838        0.832382
LJ           1.22307       0.0262518        -1.95928
LJ         -0.945127        0.231699         2.28655
LJ          -2.10919         2.07144       -0.478382
LJ          -0.26155         1.75116         1.37811
LJ          -1.76684         1.42045       -0.555407
LJ           1.57194        -2.29833        -2.16061
LJ          -1.09663        -2.56049       -0.574632
LJ        -0.0317894        0.808682         1.05466
LJ         -0.491558         2.08474        0.543793
LJ          -1.25847         1.06485        -1.05063
LJ           1.15115        -2.36746        0.388207
LJ          -1.94575         0.16731        -1.84592
LJ          0.857024        -2.00121         2.00159
LJ          0.420588        -2.08719        -0.84676
LJ          -2.10399        -2.27891         1.00113
LJ           2.21869        0.722681         -2.5342
LJ           1.06361        -1.72846        0.787316
LJ          0.786789       -0.378645        -1.09254
LJ          -2.01993        -2.11294        -2.29694
LJ           0.85908        -1.82696         2.11534
LJ           1.37651         1.11979         1.02763
LJ          -2.33875       -0.639583       -0.373228
LJ          -1.18094         2.44004        0.242325
LJ         -0.887197         -2.4911         1.58044
LJ          0.145311         2.02447        -1.29933
LJ           1.89453        0.804388        -1.77915
LJ           1.38607        -1.49628         2.38713
LJ            2.1072        0.795468         1.04424
LJ          -1.20197         1.08904        0.134598
LJ          -2.33911        -0.99163        -0.33913
LJ          -2.10482        -2.13278        0.983681
LJ          0.449109         -1.4454        -1.02765
LJ          -1.42275        -2.23856        -2.53636
LJ          0.210111        -2.52351        0.811434
LJ          -1.98583         1.35881        -2.16821
LJ          -1.61256        -1.62246          1.2819
LJ          0.430618        -1.94434        0.959032
LJ          -1.93315         2.30259         1.76472
LJ          -2.34634        0.205722       0.0970278
LJ       -0.00887775        -1.65891         0.65056
LJ           1.70743         1.33191         1.12661
LJ           2.39447        -1.47194        0.528732
