108
#Comment!
LJ           2.18728        -1.03813       -0.839195
LJ           1.95406         2.21979        -2.39834
LJ          0.732665       -0.539187       -0.106151
LJ          0.638286         1.95112         2.04867
LJ         -0.161842       -0.762903         1.22996
LJ           0.27459        -1.76743        -2.51069
LJ          0.541985        0.291278         2.40181
LJ          -1.30426        -1.98477       -0.730553
LJ         -0.403322       -0.688161        0.695412
LJ          -0.35295          1.9942        -1.33228
LJ              -nan            -nan            -nan
LJ           1.20706        0.872364     -0.00340994
LJ         -0.609566        -1.34373        -1.86706
LJ         -0.735518        -1.14509        0.394276
LJ          -1.38947       -0.706511         2.07749
LJ              -nan            -nan            -nan
LJ              -nan            -nan            -nan
LJ              -nan            -nan            -nan
LJ           1.30642        -2.32927        0.779903
LJ              -nan            -nan            -nan
LJ           2.53981        0.937689         2.25576
LJ           2.44521         1.57574       -0.953295
LJ           1.54488       -0.817813         2.21333
LJ          -2.29068         2.45319         1.59977
LJ           1.14171         2.09047         2.05122
LJ           1.03146        0.872293        0.869723
LJ          -2.14453        -0.55981       -0.310247
LJ          0.794043       -0.869017        -2.29114
LJ           1.46868         -2.0017         -1.7972
LJ          -2.13194       -0.764835         1.11205
LJ          0.248227         2.10037        0.386507
LJ           1.07219         1.50393        -1.52645
LJ              -nan            -nan            -nan
LJ          -2.43535       -0.292206        -2.06576
LJ              -nan            -nan            -nan
LJ          -2.25622        0.738776       -0.520156
LJ        -0.0285742         1.95361       -0.146409
LJ          -1.52746        -1.28436         1.55359
LJ          0.652288        -1.41227         2.20271
LJ          -2.26098         1.88907        0.539201
LJ           1.26311        -1.34254        -1.89374
LJ           2.27137      0.00973525         -1.5476
LJ        -0.0828575        -1.98657        0.803427
LJ          0.906209        0.103973      -0.0403506
LJ          -1.54332         1.62999        -1.65212
LJ           1.88788       -0.691747         1.20687
LJ           1.32316       -0.897807         1.32887
LJ         -0.597088       -0.099349       -0.504817
LJ        -0.0624224        0.845698         1.08245
LJ         -0.530903         -2.1538         1.79872
LJ          -1.88372         2.46332        -2.17317
LJ           1.43554       -0.879267      -0.0444921
LJ              -nan            -nan            -nan
LJ          -1.28158         1.76539       -0.998003
LJ            1.5004       -0.977417       -0.888306
LJ          -1.34369         1.44016        0.244642
LJ            2.2348        -1.17163        -1.72779
LJ          -0.96084       -0.257822       -0.417607
LJ          -2.20786        0.457172        0.918005
LJ          -1.22676        -2.21501       -0.645986
LJ           0.16844         2.38685         2.22789
LJ          -2.33558       0.0106181         1.72379
LJ           2.08328        -1.04477        -2.34466
LJ         -0.701347        0.259044        0.661741
LJ           1.88607        0.553347         2.15703
LJ           1.64878        -1.97372         1.20229
LJ         -0.564466       0.0876456         -1.5368
LJ              -nan            -nan            -nan
LJ          -1.60944         1.23137       -0.211917
LJ           1.14446        -1.29845          2.0182
LJ          0.145138         1.65822        -2.55802
LJ          0.717212         1.54471       -0.411408
LJ         -0.382814          1.5555        -2.13794
LJ           1.13354        -1.97727        -1.93319
LJ           1.44102        -1.36609        -1.87752
LJ          0.504523       -0.507594         1.96874
LJ          0.604768        0.297824         2.19752
LJ           1.95793       -0.973717         2.34948
LJ         -0.696491          2.4811        -1.25264
LJ          0.391631         1.17015        0.899301
LJ          -1.89629         1.26687         1.02052
LJ           2.07664       -0.883354       -0.890493
LJ           1.38585        -1.10541         1.27477
LJ          0.829512         -1.5502         1.10222
LJ          0.214167       -0.726896        0.427973
LJ            2.0897        -2.16687        -1.18599
LJ           1.95546       -0.259899        -2.40227
LJ           2.51281       -0.934247          1.0131
LJ          0.826863         -1.4033        -1.20708
LJ           1.99786        -1.64288        0.229502
LJ              -nan            -nan            -nan
LJ         0.0370482        -2.53234     -0.00140124
LJ          -2.49642        -1.51154        -2.34674
LJ          -2.11578        -1.23503         1.50066
LJ          -1.24013         2.30388       -0.391526
LJ           1.28239       -0.128325        -2.56258
LJ           -0.1073        -1.12646        -1.46424
LJ          0.120901       -0.647383         1.59302
LJ              -nan            -nan            -nan
LJ         -0.213632         2.43906        -2.00424
LJ         -0.867033       -0.328708       -0.343092
LJ          -2.24593      -0.0457431       -0.790527
LJ          0.535506        -1.24379        0.951625
LJ           2.06768      -0.0505365         0.31938
LJ         0.0656611         1.21653       0.0216754
LJ           1.18137       -0.551361        -1.23501
LJ         -0.922877        -1.73636        -2.37001
LJ              -nan            -nan            -nan
