108
#Comment!
LJ           2.18753        -2.31593         1.23012
LJ          0.962842         1.13514         2.08669
LJ           1.32767        -1.13286        -2.34264
LJ          -2.31699       -0.745639         -1.5592
LJ          0.483323         2.10245         0.10063
LJ           1.94103        -1.00914         1.61275
LJ          -1.25719       -0.682455         1.35697
LJ          -1.05728       -0.853145         1.70371
LJ           1.98742        0.334593        -2.07895
LJ          -2.48303      -0.0494187        0.426795
LJ              -nan            -nan            -nan
LJ           1.21456        -1.58541         1.45958
LJ          -2.38587         1.32736          -2.353
LJ          -1.48588         -2.2603       -0.641629
LJ           1.22782       -0.535067         1.34717
LJ           2.21711        0.339398        0.253988
LJ           1.51259        -1.65789       -0.449822
LJ          -2.44534         -1.5257        -2.50025
LJ           2.19026         -1.7957      -0.0701065
LJ         -0.415712        -0.59135        -2.45983
LJ           2.08176        -1.61979          1.9598
LJ          -1.92546        0.473406         1.44357
LJ           2.03515       -0.283751        -1.79237
LJ         -0.965876         2.22915         1.34644
LJ         -0.922095        -2.13376      -0.0583548
LJ           1.09509        -1.96834         2.48566
LJ          0.960746       0.0894434        0.410651
LJ          0.612375         0.82062          2.1134
LJ         -0.130623         2.54122        0.371707
LJ           2.25369       -0.124397         0.18588
LJ         -0.348301        -1.08869         2.05743
LJ         -0.840342         1.71043        -2.20956
LJ              -nan            -nan            -nan
LJ         -0.853519        0.752742        -1.95706
LJ          0.196765       -0.883114        0.407026
LJ           1.27039        0.499201         0.35669
LJ           1.99223        -2.18082         2.22746
LJ            1.6748        -1.52392         1.12985
LJ           1.63705       -0.554521       -0.323328
LJ          -1.06887         2.18792        0.291392
LJ           1.78756        0.124653        0.141476
LJ           2.23245        -2.44627        0.360363
LJ           1.47891       -0.933883         2.13238
LJ           1.94586         1.34395         2.32775
LJ         -0.646811         1.21672        -1.60278
LJ          -1.40601        -2.26127        -1.19473
LJ          0.403019      -0.0179977        -1.70689
LJ          -2.22635        -1.50991        -1.69244
LJ        -0.0214842        -2.15776         -2.1555
LJ          -1.15787         1.59611        0.201855
LJ           -1.6838       -0.380443       -0.945011
LJ           -2.5591         2.01854        -2.00532
LJ          0.510032       -0.568052       -0.355009
LJ        -0.0171017        -1.85624       -0.928832
LJ          -1.58972      -0.0801362       -0.254425
LJ            1.1652         2.30488        -1.69346
LJ         -0.715738       -0.734174        0.603532
LJ           1.68519        0.812538         1.29594
LJ          -1.84879        0.868912        0.306546
LJ          0.773305          1.9568         1.21767
LJ           1.04837        -1.47457        -2.30259
LJ          -2.10564        -1.36988       -0.307746
LJ         -0.262589        0.837413        0.335024
LJ          0.694144       -0.719969       -0.386908
LJ          0.963024         2.44599        -1.75722
LJ          0.374098         1.20205        0.897432
LJ          -1.11091        -1.77873         1.09042
LJ         -0.825002        -2.14852        0.747472
LJ          -1.89395        0.609124        -2.09606
LJ          -2.25834       -0.334118        0.758959
LJ          0.804762        0.697231        0.330179
LJ          -1.94079        0.290871        0.145592
LJ           1.44092         1.61023        -1.34144
LJ         -0.988975         1.03479         1.71725
LJ          0.253529       -0.584549        0.860044
LJ          -1.94267         1.87135         2.04843
LJ          -2.20465        0.880888        -1.79564
LJ          -1.22481         0.40174        -2.20596
LJ          -1.38717        0.148246       -0.422799
LJ           2.56394        0.284834        -2.00859
LJ          0.535845        -1.76148        -1.22561
LJ          0.288541       -0.290952         1.90896
LJ         -0.867084        -1.51007         0.65322
LJ          -1.73669        0.981483        -1.87383
LJ           1.45355        0.105339        0.657089
LJ          0.537381        0.415838         2.27305
LJ          0.895641         1.23447         1.14848
LJ           2.50228         1.56316         1.09777
LJ          0.817967        -2.24128       0.0321486
LJ         -0.261192        0.931972         2.48195
LJ            -1.826       -0.622202        -2.04615
LJ          -1.77828       -0.207053          1.3189
LJ            1.8353          1.2742         1.44994
LJ           2.21624         0.54393         1.83202
LJ          0.265287        -1.71149         1.43861
LJ           1.87516         2.29848       -0.322297
LJ          0.107635         1.18195        -2.16617
LJ          -1.10422       -0.602457        -1.77288
LJ          -1.44151         1.40092         1.38276
LJ           1.39176         2.39706        -1.81643
LJ            1.4307         2.49593       -0.680712
LJ           1.60364       -0.939644        -2.35446
LJ           1.91928        -1.12699        -1.05254
LJ           1.90518         1.68556         0.21301
LJ          -2.53791       -0.912763        0.609177
LJ          0.213073        -2.49226        0.866579
LJ          0.823541         1.91875        -1.74208
LJ          -1.74513         2.39959        -1.27018
