108
#Comment!
LJ          0.221276         1.88503          2.4403
LJ          -1.82806         1.84046          1.5706
LJ          -1.09944       -0.245131        -1.82137
LJ           1.72017         2.30741        0.309492
LJ         -0.364108        -2.36927         2.42086
LJ           1.19701        0.144539         1.23123
LJ          0.617465        -1.45078        0.611219
LJ           2.49246         2.41664        -1.42244
LJ          -2.31455        0.978787         1.20779
LJ          0.956975        -0.32939        0.720551
LJ              -nan            -nan            -nan
LJ          0.531559        0.559703        -1.48279
LJ          -1.27415         2.01417         1.50586
LJ          0.452027       -0.986481        0.482532
LJ           1.96173         0.92118       -0.845493
LJ              -nan            -nan            -nan
LJ              -nan            -nan            -nan
LJ              -nan            -nan            -nan
LJ           1.50608        -1.43657        -1.01336
LJ              -nan            -nan            -nan
LJ         -0.740178         2.19404          1.0762
LJ          0.771864        0.272854         1.36419
LJ          -0.36334        -2.33881        0.442036
LJ          -1.10792         1.12924        -0.17627
LJ          -1.21786       -0.515431       -0.679257
LJ           -2.1131        0.637609       -0.517372
LJ           1.01972        -1.69516         1.17642
LJ         -0.298769       0.0477409        0.587008
LJ         -0.364857       0.0116805        -0.17439
LJ           1.23061          1.3855          1.0863
LJ         -0.209704        -2.27359         1.56183
LJ           1.68233        -1.50899         2.12217
LJ              -nan            -nan            -nan
LJ          -2.51292        -1.56044        0.850925
LJ              -nan            -nan            -nan
LJ           2.08615        -1.38227        0.311871
LJ           1.44638         1.63137         1.97293
LJ         0.0171654        -1.87406         1.66458
LJ           -1.3583         2.15426        -2.39162
LJ          -0.76531        0.341473       0.0965333
LJ          0.801165        -1.06236        0.191463
LJ          0.275336        0.410603          1.5464
LJ           -1.0038       0.0665672       -0.320403
LJ          -0.87296         2.17368       -0.206427
LJ         -0.870333        -1.14513          -1.632
LJ         -0.339768        0.679389        -1.31161
LJ          -2.28486        -1.67216       -0.430385
LJ          -2.02227       -0.177854        -1.01928
LJ         -0.653772        -1.84708         -2.4393
LJ         -0.557421        -1.76914         2.18467
LJ           -1.9889        0.658511      -0.0281281
LJ           2.02724       -0.562985       -0.402703
LJ              -nan            -nan            -nan
LJ         0.0159435        -1.94872         1.53718
LJ          -1.38888         1.66679         1.45773
LJ           2.56448        -1.12273         2.26582
LJ          -2.54254         2.56329        -2.19094
LJ           1.83096        -1.17296        -1.54302
LJ           1.42107       -0.556041        0.706828
LJ          0.582517         -2.1651         1.43102
LJ         -0.328124         2.03116        0.448475
LJ          -2.03209        -2.40879        0.851668
LJ         -0.410624        -1.06339         2.10621
LJ          0.997747        -1.19883      -0.0337881
LJ           0.81804        0.288392        0.126612
LJ           1.35529        -1.59308        -1.82308
LJ           2.19539        -2.28088        -1.25853
LJ              -nan            -nan            -nan
LJ         -0.119828        -1.57326        -1.67539
LJ         -0.571881         0.50827      -0.0378872
LJ          -1.74614        -1.84549         1.25845
LJ         -0.723656        -2.15565        0.221868
LJ          -1.36092         1.04308        -1.71572
LJ           0.66613         1.65072        0.983192
LJ          0.439473        -1.46693        -2.16061
LJ           -1.2277        -1.46694        -1.35969
LJ         -0.230463         1.22399        -1.35708
LJ          0.206784         1.45347        0.424007
LJ          -1.88823         -1.2402        -1.24341
LJ          -1.20263         1.04899      -0.0352832
LJ          -1.40354          2.1186        -2.48724
LJ           1.31871         1.98395        -1.68329
LJ          -1.60577         -1.9571         2.43567
LJ          -1.82613        -1.23646         -1.3022
LJ          0.207372       -0.259121       -0.108697
LJ         -0.976476       -0.651774       -0.983331
LJ          -1.53784      -0.0676586       -0.135695
LJ          -2.05065        -1.62141        -2.20774
LJ          -2.39231      -0.0132405        0.756915
LJ           1.96385        -1.95022         2.22908
LJ              -nan            -nan            -nan
LJ          -1.15944        -1.73293        -1.14165
LJ          -1.33007       -0.580566       -0.132169
LJ         -0.538111        0.608896         1.06389
LJ         -0.338948         1.35455       -0.437494
LJ           1.22076         1.12345        0.170234
LJ           2.21092         1.29111         1.40855
LJ            1.2201         1.16249        -2.17489
LJ              -nan            -nan            -nan
LJ         -0.662638         1.05249         1.95898
LJ        0.00127356        0.368334         2.29342
LJ          -1.08844        -1.55754        -1.90681
LJ           2.08401         2.36734         1.96768
LJ         -0.964126         2.24343        -1.36995
LJ          0.998288       -0.639799       -0.979459
LJ          -2.32993       -0.531222        0.518212
LJ          -1.00057        0.687022        0.536339
LJ              -nan            -nan            -nan
