108
#Comment!
LJ         -0.606346        -2.39342        0.986201
LJ          -1.54433        -1.06682         1.23613
LJ         -0.843543         -2.4183         1.76329
LJ           1.98621        0.626108        -2.20254
LJ        -0.0973669        -2.02127        -0.13673
LJ          -1.26595        0.130592         1.87281
LJ         -0.512778        -0.78196       -0.855841
LJ         -0.957574        -1.41871        0.165888
LJ           1.94843         0.86092          1.9902
LJ          -2.04312         1.38311         1.63457
LJ              -nan            -nan            -nan
LJ           1.05745         2.40169        -1.58109
LJ          0.865663        -1.92022        -1.87184
LJ              -nan            -nan            -nan
LJ           1.54897         1.35902      -0.0506849
LJ              -nan            -nan            -nan
LJ              -nan            -nan            -nan
LJ              -nan            -nan            -nan
LJ           2.20864       0.0990902         -1.6601
LJ              -nan            -nan            -nan
LJ           1.87485        -1.34067         -1.4224
LJ         -0.319805       -0.650695         1.73143
LJ           1.32826       0.0850667        -2.03853
LJ          0.719775        -2.31066        0.194023
LJ          -2.22758        -1.45918      -0.0725619
LJ          -2.08839       -0.806165       -0.202224
LJ          -1.56054         1.48932        -0.84612
LJ          -1.33621        -2.15789        -2.09491
LJ           1.76003        -1.19244        -2.37982
LJ          0.113012        0.937358       0.0288633
LJ              -nan            -nan            -nan
LJ        -0.0536854        -1.37341         2.29967
LJ              -nan            -nan            -nan
LJ          -1.31609       -0.519418       -0.704814
LJ              -nan            -nan            -nan
LJ          0.638408       -0.599823       -0.839595
LJ          -1.71637        -2.47647        -1.20827
LJ          0.387895         -1.2565         2.09958
LJ         -0.908729      -0.0809072         -2.1366
LJ          -1.51275         1.59907         2.04907
LJ          -1.07267         1.63715       -0.859452
LJ           1.40417        -2.10804        0.492583
LJ           2.32883        0.916492        -0.12821
LJ           1.40967         2.10489         1.65889
LJ          -2.22613       -0.808418         0.83717
LJ          0.474359         2.37145         -1.2969
LJ           1.53815        -1.96696        -1.47433
LJ          -1.08918         1.19965        -1.69421
LJ         -0.177118        -1.55624        -1.58788
LJ          0.625997      -0.0846464         1.78061
LJ         -0.520158        -1.29092       -0.168255
LJ            0.2952       -0.975477         1.87807
LJ              -nan            -nan            -nan
LJ          -1.68508         2.40738        -2.05777
LJ         -0.057946       -0.670472          1.6645
LJ           1.85548        -1.39866         1.00828
LJ           2.35723        0.298612        -1.61983
LJ          -0.19617       0.0316207       -0.729989
LJ          -1.53557        0.361529        -1.77898
LJ           1.01453         1.86407        -2.28964
LJ          -1.74311       -0.806431       -0.754305
LJ           2.11525       -0.955895        0.370032
LJ         -0.498862         1.27327         1.50683
LJ        -0.0687525         1.80891         1.00444
LJ              -nan            -nan            -nan
LJ          -1.78396       -0.724967       -0.265216
LJ            2.0962        0.575247         2.40868
LJ              -nan            -nan            -nan
LJ           1.06984        -2.18445        -2.42972
LJ           1.07324         2.50631        -1.70871
LJ          -1.49423       -0.941541        0.238505
LJ           2.37721          1.7194        0.957809
LJ          -1.53817       0.0295179         2.03808
LJ         -0.833035        -1.85262        -2.35176
LJ            1.5461       -0.337297        -2.50171
LJ          0.832981        0.144515        -1.59863
LJ            1.1817         2.49615       -0.533667
LJ           1.20518        -2.09714        -2.18578
LJ         -0.324366        0.882377        -1.05718
LJ          -2.19255        0.721481         2.17709
LJ           1.46112         1.65022        0.831848
LJ           0.94547        0.586933           2.258
LJ          -2.48051       -0.787398        -2.47883
LJ           1.38124       -0.741968        -1.15548
LJ          0.694314       -0.303339        0.151154
LJ          0.837017         1.97278        0.746137
LJ           2.08395         1.15613      -0.0683285
LJ          -1.33642          2.4281         1.52986
LJ           -1.7303           1.809         1.79093
LJ          -1.48707        -1.22344       -0.530799
LJ              -nan            -nan            -nan
LJ           2.56403        0.376177         1.89523
LJ           1.96163         1.36182        0.546578
LJ           2.28206         1.37056         2.23698
LJ           1.55082         1.43862         1.05656
LJ          0.830533         1.98445        -1.71107
LJ         0.0477063        -1.01814         1.76561
LJ           -1.9888        -1.11475        0.566073
LJ              -nan            -nan            -nan
LJ          -1.63584        0.117677         -1.2572
LJ          0.121969        0.493072        -2.34615
LJ          -2.39235         1.48481         1.25149
LJ           1.21339       -0.987303        0.327853
LJ           1.26829         -1.8067        -2.04617
LJ              -nan            -nan            -nan
LJ          0.334429        0.860993        0.975951
LJ         -0.868992       0.0642797         1.12252
LJ              -nan            -nan            -nan
