108
#Comment!
LJ           2.21625         1.05537         1.68394
LJ           1.78425         1.32011       -0.970713
LJ           1.97849        -1.45983        -0.33927
LJ           0.66879        0.957337        -2.28357
LJ             2.376       -0.330273        -2.51576
LJ        -0.0124069        -2.11785        0.774051
LJ          -1.14952        -1.45976     -0.00270427
LJ          -2.27101         2.37992          1.1641
LJ          0.382083        0.485685        -1.78174
LJ          -2.29617        0.545605       -0.465498
LJ              -nan            -nan            -nan
LJ           1.65721         2.39282        0.335156
LJ         -0.849008         -2.1889        -1.58082
LJ              -nan            -nan            -nan
LJ          -2.03659        -1.55942        -1.56578
LJ              -nan            -nan            -nan
LJ              -nan            -nan            -nan
LJ              -nan            -nan            -nan
LJ           1.33414       -0.723911         1.24311
LJ              -nan            -nan            -nan
LJ           2.27835        -1.06785        -2.47789
LJ           1.33079       -0.217988        -2.16563
LJ           1.19496          1.3706         1.17369
LJ              -nan            -nan            -nan
LJ           2.17206        -1.11262       -0.647525
LJ          -2.39087        0.866784          2.2287
LJ            2.0262        0.247719        0.371525
LJ          -1.10798       -0.766016         2.23644
LJ           2.27837        -0.93761          2.1696
LJ          0.669414        -1.05241         2.35114
LJ              -nan            -nan            -nan
LJ         -0.168333      -0.0199796        -1.48526
LJ              -nan            -nan            -nan
LJ          -1.92542        -2.32519         1.22853
LJ              -nan            -nan            -nan
LJ          -1.09042        -1.22924        -2.08173
LJ          0.830119        -2.33303          1.4759
LJ          -2.31765        -2.39181         2.04321
LJ           2.01078        0.539478       -0.103944
LJ           1.35785        -0.24742        -2.44211
LJ         -0.460125         1.31842         1.21216
LJ           1.90278         1.03168         2.03088
LJ          -1.14574       -0.734395          1.4575
LJ           2.31914        -2.52766       -0.365555
LJ           1.77853         2.00551         2.00089
LJ          -2.27164         1.63764        -1.59332
LJ          -1.80483        -1.97872        -2.39233
LJ          -0.21048         1.26262         -2.3034
LJ          -1.43308       -0.700978        0.639011
LJ          -1.57598       -0.961766         0.44349
LJ           1.96051       -0.227733       -0.920021
LJ           -2.5411         1.13846      -0.0570706
LJ              -nan            -nan            -nan
LJ           2.44167         1.25288        -2.15351
LJ         -0.480888        -0.55111        -2.29997
LJ           2.12005         2.16321        -1.16349
LJ         -0.843856         1.01379       -0.905913
LJ           2.17657        -1.60898       -0.306201
LJ          -1.47425        0.581685         -1.5658
LJ          -1.46542       -0.410609       -0.215534
LJ          -1.69975       -0.823154       -0.702384
LJ          -1.90711          1.9654         2.06698
LJ           2.04808       0.0304706       -0.740264
LJ              -nan            -nan            -nan
LJ              -nan            -nan            -nan
LJ         -0.369968          2.2729         -1.2198
LJ           2.28203       -0.434974        -1.42255
LJ              -nan            -nan            -nan
LJ           2.22766       -0.582975         1.47595
LJ          -2.46926        0.472296        0.721091
LJ          -1.96943        0.407098        -2.11454
LJ           1.90578         1.10803        -1.27718
LJ          -1.73658        -1.43383        0.282187
LJ         -0.851455         1.87521        -1.84396
LJ            1.6515        0.423449         2.28635
LJ         -0.167035         2.29375         1.17728
LJ         -0.666774         2.41692       -0.181828
LJ          -2.28288         2.09614        -2.15226
LJ           1.37914       -0.654778         1.87101
LJ           1.67215       -0.308521         1.32006
LJ           1.76617        -2.02569          1.6871
LJ          0.134686         1.47467        -2.49002
LJ           1.49085        0.229641      -0.0398575
LJ          -1.79089        -1.24636        -2.43545
LJ           2.55106        -2.34036        -1.70227
LJ          0.203303         1.84352         1.47651
LJ          -1.98167         1.16795       -0.341186
LJ          -1.72017       -0.931762       -0.769783
LJ           1.32691         2.33533        -1.08893
LJ        -0.0292733         2.13322       -0.130736
LJ              -nan            -nan            -nan
LJ         0.0994262         1.58449         1.47948
LJ           1.11492         1.23262       0.0383285
LJ         -0.116669         1.55303        0.165358
LJ           1.92149        -1.48445         0.26289
LJ           -2.2042        -2.26147       -0.220771
LJ            2.4651         1.59444         1.42756
LJ         -0.312797         1.04966        -1.58094
LJ              -nan            -nan            -nan
LJ          -2.36407        -1.10926       -0.855574
LJ          0.821652        -2.29558         2.10243
LJ          0.562718        -1.25469       -0.269536
LJ          0.935289        -1.30342       -0.964952
LJ         -0.309857        -2.29683        0.623735
LJ              -nan            -nan            -nan
LJ         -0.285743         1.42695         1.80086
LJ           1.43533        -2.03325       -0.516052
LJ              -nan            -nan            -nan
