108
#Comment!
LJ         -0.541734          1.5017         1.94553
LJ          -1.55216        -1.77354       -0.785663
LJ            1.0972        -1.19379        -2.46745
LJ           2.01118         1.60344        0.368318
LJ           1.32381       0.0679046        -1.16327
LJ          -1.86655           1.086        -1.76718
LJ           -2.3017         1.37651         2.13669
LJ          -1.73534        -1.54164         1.68669
LJ           2.50377       0.0355178         0.91753
LJ          0.526025         1.80748         1.66125
LJ              -nan            -nan            -nan
LJ        -0.0712747       -0.828373        0.151986
LJ           2.19011        -2.01415         2.13331
LJ           2.27903        -2.33814        -1.21205
LJ          -1.97073       -0.447429        -1.48056
LJ          -1.04412       0.0909837        -1.75621
LJ              -nan            -nan            -nan
LJ              -nan            -nan            -nan
LJ          -1.05863        -2.15918        -2.19667
LJ              -nan            -nan            -nan
LJ           1.22636        0.763457         1.45917
LJ           2.39876         -1.8019        -1.07996
LJ           2.47115         1.93733        0.911366
LJ          0.605902       -0.859845        -0.86371
LJ         -0.255003         1.02197       -0.580944
LJ          0.100902        -2.19898       -0.378222
LJ           2.22199         1.08475         -2.4287
LJ         -0.733281        0.779905       -0.195164
LJ           -1.8025         1.09506         2.45428
LJ          -1.43747        -1.22869        -2.37543
LJ          -1.05605          1.5136         1.64167
LJ           1.34841        -1.76976        -2.25692
LJ              -nan            -nan            -nan
LJ          -2.40327        0.332798         1.94135
LJ              -nan            -nan            -nan
LJ           2.33742       -0.769464       -0.284346
LJ           0.24516        -1.39015        -0.65214
LJ         -0.599531        -1.24194       -0.371542
LJ           1.53543         1.64823         2.47225
LJ          -1.04628        -1.04656         1.99483
LJ          0.533868        0.395904         -1.2291
LJ          -2.36555        0.778167         1.13119
LJ           1.32176        -1.28214         2.29892
LJ          -1.13892         1.75296         1.37253
LJ          -1.13186         2.05209        -1.62624
LJ         0.0316232        0.689808         0.81071
LJ          -2.28318        -1.05425        -2.37778
LJ         -0.949994       -0.285469        -2.36873
LJ          -0.26866         2.47561          -1.073
LJ            2.1078        -1.80059         1.94119
LJ          -1.97171        -2.44075         1.84395
LJ         -0.219886        0.336875        -1.31222
LJ              -nan            -nan            -nan
LJ         -0.383214        -1.87772      -0.0879737
LJ          0.367448         2.25332        -1.55766
LJ          0.711327        -1.54538       -0.247937
LJ         -0.689662       -0.680179       -0.130299
LJ          -2.07271        -1.04395       -0.993856
LJ          -0.91722       -0.236988        -1.39657
LJ           2.51946         2.21272        -0.12758
LJ          -1.95708        0.232781        -1.81487
LJ         -0.327081        -2.49782       -0.191045
LJ            1.0721         1.30194        0.300556
LJ         -0.910434       0.0258282         2.15916
LJ          0.117268       -0.742848        -2.48818
LJ           -2.2603         1.47436        -1.97867
LJ          -1.18127       -0.379404        -2.02018
LJ              -nan            -nan            -nan
LJ           1.23031        0.904887       -0.903499
LJ         -0.495279         1.02931        -1.80627
LJ          -1.29969       -0.185314          1.3409
LJ           2.18223         1.06095        -0.80438
LJ           1.17775         1.50358        -1.84835
LJ         -0.798401         1.49811        -1.71671
LJ         -0.387022       -0.416152         -1.1512
LJ          -2.22021        0.679648          1.0027
LJ         0.0583004       -0.652688        -2.53646
LJ          -1.34134          2.0297        0.339841
LJ           1.25664         2.54515         -1.9461
LJ         -0.844287       -0.147935        -2.11626
LJ           2.12324         1.81084        -1.09918
LJ          -1.60808       -0.958043        -2.25658
LJ            2.0795         0.02371          1.7685
LJ           2.54225         1.65643        -1.76761
LJ         -0.506665         2.52456         1.48166
LJ          0.674101        -1.92401       0.0608567
LJ           1.86656         1.83853        -1.20568
LJ           -0.9826        -1.14589         1.80444
LJ           2.30082         1.92246        -1.23493
LJ            1.1568         1.53974        -2.49728
LJ              -nan            -nan            -nan
LJ          0.985849         2.25706         2.22109
LJ         0.0960683        0.725791         1.71673
LJ          -2.56049        -1.88511        0.603338
LJ           2.04885         2.26437         -1.4204
LJ         -0.480666       -0.189438         -1.2521
LJ           1.56298         -2.1386        0.805153
LJ          0.838996         1.01626       -0.086207
LJ           2.33094         1.43965        -1.25269
LJ          0.215156        -2.23561        -1.10149
LJ         -0.434648        -2.08996        -1.41989
LJ          -1.29749      -0.0827631        0.403319
LJ         -0.334518         2.30648       -0.889739
LJ         -0.842091         0.95938        -2.38628
LJ          0.475959       -0.828255        0.546412
LJ           1.93446        0.715184       -0.145709
LJ          0.883923        -1.81431         1.63101
LJ              -nan            -nan            -nan
