108
#Comment!
LJ          -1.69501         1.69047          1.7979
LJ          -1.11865        0.496711        -2.11541
LJ          -1.79688        -1.71219         1.37556
LJ         -0.232782        0.686209        -2.46326
LJ          0.537711        -1.80393         2.05412
LJ          -2.00739        -1.35819       -0.730974
LJ         -0.281655         0.67783       -0.123249
LJ           2.39557       0.0822942        0.357877
LJ           2.18468       -0.414599        -1.06354
LJ          -1.89655        0.906266         1.92945
LJ              -nan            -nan            -nan
LJ          -1.23456         2.12124        0.538163
LJ         -0.994567        -1.23222        -1.26252
LJ          0.529989       -0.302852       -0.271922
LJ          -1.58759      -0.0756204         2.00133
LJ          0.412509         1.69006         1.04931
LJ              -nan            -nan            -nan
LJ              -nan            -nan            -nan
LJ          -2.04874        -1.36503         1.64712
LJ              -nan            -nan            -nan
LJ           1.92535       -0.477291        -1.76134
LJ          -1.38752         1.08418       -0.729347
LJ            2.2351         2.17148         2.21093
LJ          -1.38754        -1.88266          1.7865
LJ           1.94463          1.6828        -0.26803
LJ           2.10941        -1.61218         1.89089
LJ          0.623395       -0.601973       -0.784682
LJ         -0.782411       -0.524408       -0.946391
LJ          0.385001        -2.41771         2.42732
LJ          -2.19145        0.862368         1.26128
LJ          0.188575         1.78928         -2.1915
LJ         -0.276662       -0.516232         2.41725
LJ              -nan            -nan            -nan
LJ         0.0602465          2.3814       -0.508192
LJ              -nan            -nan            -nan
LJ          -2.06734         1.85503         1.83393
LJ           2.23052        -1.69063         2.15097
LJ         -0.649068         2.35091       -0.133992
LJ           1.91797         1.68106        -1.24032
LJ          0.479703        -2.25486        0.169742
LJ          -2.21966        -1.79856         -2.5355
LJ           -2.3669        -1.81783        -2.34618
LJ           0.33576        -1.18916        0.273691
LJ           0.89688         1.64719        -1.16932
LJ            1.4355      -0.0724373        -2.15956
LJ         -0.599358         1.93411        -2.22849
LJ         0.0810533         2.33703         -1.0263
LJ          0.932651       0.0297032         1.95556
LJ          -2.47698         2.48581        0.438759
LJ           2.16732        -2.55412       -0.385624
LJ          -1.17961        -1.02249        -1.39036
LJ          -0.61995        -2.33462         1.15097
LJ              -nan            -nan            -nan
LJ         -0.760786         -2.0991         1.85468
LJ            1.1568        -1.72906        0.342655
LJ           1.83647         1.63321          1.3351
LJ          0.927411        0.571101          -2.536
LJ          -1.04061       0.0915756        -1.98144
LJ           1.11701       -0.950059         1.08912
LJ          -2.38978        0.950541        0.822182
LJ         -0.843359       -0.578528        -1.76149
LJ          -1.71284        0.272113         1.83513
LJ          -1.53778         1.70862       -0.149986
LJ           1.00372         2.42827         1.11662
LJ          -2.20276        0.966768         2.54735
LJ          -2.55534        0.186579         1.10855
LJ          -2.09522         1.13656        0.591762
LJ              -nan            -nan            -nan
LJ          -2.36375        0.247674        -2.28313
LJ           2.04115       -0.204874        -1.56397
LJ           2.42105        -1.27952        -2.44239
LJ           1.09745        -1.82346       -0.641765
LJ          0.357472       -0.610505         1.64388
LJ          -1.91864        -1.54508          0.3885
LJ          -2.43426        -2.48999         1.11734
LJ          -2.36641        -1.84237        0.648949
LJ          -1.10598         1.46792       -0.709552
LJ           2.34127        -2.51963        0.489809
LJ          0.249802       0.0406394        -1.30034
LJ          -2.33482          1.6063        0.547486
LJ           1.09595         2.18488         1.65525
LJ          -2.47576         1.42117        -1.90372
LJ          -2.16581        -1.39886         2.50084
LJ          -1.22801         1.87649       0.0792039
LJ           2.15994         1.79719        -0.52832
LJ            1.0741        -2.13707        -1.83945
LJ         -0.807597        -1.79865        -2.06825
LJ          -0.24525        -1.34335         -1.6682
LJ           -2.2609        -1.95177         2.49178
LJ          -2.13672        -2.46319        -1.05399
LJ              -nan            -nan            -nan
LJ          0.653106        0.106572       -0.976218
LJ         -0.634834        0.377661        0.548922
LJ            1.9259        -2.45576         1.52393
LJ          -2.56143         2.32062         -2.2401
LJ          0.390493       0.0314762        -0.70223
LJ          0.144911        -1.82196       -0.835739
LJ          -1.64515         2.00465         2.33805
LJ           2.54057         1.25347        -2.10738
LJ          -1.06591        -2.07138          1.9043
LJ           1.29399         2.31741       -0.515043
LJ          -2.54673        -2.48163         1.00293
LJ         -0.512265        -2.27602         1.03656
LJ          -1.34291        -1.13646       -0.286067
LJ          -2.38911         1.94554         1.89425
LJ           2.17103         2.28452       -0.168101
LJ           2.25463          1.3617        0.201311
LJ              -nan            -nan            -nan
