108
#Comment!
LJ         -0.155555        -1.29552        0.667678
LJ          0.676195        -0.61948        0.603167
LJ          -2.20594         1.95283       -0.966507
LJ          0.995252        -1.07033        0.204762
LJ          0.609951       -0.795252        -1.63219
LJ          0.540935        -2.23518         1.52136
LJ           1.54487       -0.273591         2.50077
LJ          0.114792        0.766842         1.44092
LJ           -1.7786         -1.0116         1.46185
LJ         -0.857029       -0.395265        0.216555
LJ              -nan            -nan            -nan
LJ           2.49407        -1.53531       0.0628414
LJ           2.49067       -0.550947       -0.888004
LJ           1.19121        -1.26028       -0.343417
LJ            1.5936        -0.31296         2.09945
LJ          -1.58146         1.82634        0.446242
LJ          0.478083        -1.91824        -2.11238
LJ          0.816122        0.454287        0.628968
LJ            1.6896       -0.611537        -1.80942
LJ           2.29117       -0.102845         1.20978
LJ          0.205152         1.27812        -2.29737
LJ        -0.0373846         1.22312       -0.455148
LJ          -2.43236         1.06019        -2.53424
LJ         -0.673327        -2.30928         2.14956
LJ         -0.844589         2.05322         -2.0725
LJ            1.4824        -1.67584       -0.906706
LJ          -1.85311        -1.24225        -1.38815
LJ           1.45765         1.43021      0.00720033
LJ          0.257333       -0.321695       -0.670176
LJ           1.01959         2.30207        -1.31193
LJ         -0.075302        0.738392         0.49224
LJ           2.13741        0.689833        -2.07422
LJ              -nan            -nan            -nan
LJ         -0.044297       -0.167121        -2.29157
LJ          -2.04418         2.50071        0.525431
LJ            1.6035        0.544279       -0.384796
LJ           2.42121         2.09876        -2.07573
LJ          0.615295       -0.492796     -0.00621073
LJ          0.925812         2.39383        -2.46418
LJ           1.23182       -0.766005         1.39377
LJ          -1.20249       -0.688095         1.58898
LJ         -0.326953       -0.301273         1.82174
LJ           2.22611         1.21327       -0.171738
LJ         -0.954577         2.29105       -0.713685
LJ           -2.4234       -0.685923         -1.6047
LJ           1.36138      -0.0819866         1.75231
LJ          -2.28229         1.10436       -0.264298
LJ         -0.859317        -1.86503         -1.7073
LJ          -2.26015       -0.706792        -1.06847
LJ          -1.73084        -0.79711         1.24998
LJ         -0.985864         1.10135         1.01264
LJ          -2.52509         -1.3351        -1.62735
LJ          -2.16531       -0.659826        0.844266
LJ        -0.0368169       -0.957409        -1.02651
LJ          -1.36471         1.81076        -1.43878
LJ          -2.34537        -1.63989         1.77862
LJ          -2.06677         -2.2121        0.067264
LJ            2.5286         1.46901       -0.733154
LJ           -2.4759         0.94977         2.43247
LJ           1.64489        0.434066        -1.56314
LJ          -1.18943       -0.397577        -1.26873
LJ          -1.27533         1.20303        -1.87391
LJ         -0.873574        0.631994        -2.17032
LJ          0.574296       -0.191233         2.15414
LJ          -0.21274       -0.569252        -2.20616
LJ           1.40532      -0.0341933         1.31884
LJ           2.20395         2.39461        -0.98417
LJ           1.50806       -0.796749       -0.506278
LJ           -1.7076          1.9559        -1.44575
LJ           1.79112         1.07704        0.840177
LJ          -1.56498         1.01881        -1.38629
LJ           1.20801        -1.97063         -0.9036
LJ          -1.13518        0.114997       -0.106987
LJ           1.08502         1.12486        -0.60798
LJ            2.1496        -1.06046        -2.39631
LJ         -0.486454        0.265275         -1.0928
LJ         -0.365531           2.207        0.882997
LJ           1.01563         1.55487        -1.18303
LJ          -1.05074        -2.25253       -0.813897
LJ          -2.16261        -2.08191         2.35445
LJ           1.27391         1.75404         2.02932
LJ           -1.6633        0.662864         1.63436
LJ         -0.764203         -1.1027         2.48982
LJ          -1.12023         2.02282       -0.249058
LJ           1.26013         1.77955        -1.45307
LJ          -2.30043         1.96535        0.267014
LJ           1.14399        -2.01828       -0.631475
LJ            2.1078        -1.58939        -2.00013
LJ         -0.162417       -0.495798        -1.34353
LJ           1.51785        0.835153         2.38241
LJ           1.39408        -2.12031         2.19337
LJ           1.43285        0.819814        0.613679
LJ          -2.15338       -0.509476        -1.72363
LJ           2.28978        0.113485        0.630661
LJ          -1.72982        -2.31206         1.02197
LJ           0.63241        -2.30392        -2.28459
LJ           -2.1487        -1.86968        0.354929
LJ           2.03364        -1.04922         -1.6965
LJ          0.897827        -2.21305         2.26642
LJ          -1.87261        -0.72877        -2.28214
LJ         -0.937216         1.99153         0.95757
LJ          -1.55608        -1.79079        -1.04102
LJ          -1.86077        -2.35913         1.81567
LJ          -2.09236        -1.89618         1.05297
LJ          0.980793         2.20025        0.182059
LJ           1.14031         1.79198         2.46229
LJ          -1.93771          -1.131         2.26435
LJ           2.34899         1.43134        -2.41724
