108
#Comment!
LJ           2.45166        -1.29406         -1.4354
LJ          -1.36131         -1.8243        0.702077
LJ           -0.9927         1.54039        -1.94801
LJ            0.2562        0.183244        -0.24535
LJ          -1.96417        -2.15661        -1.32471
LJ          -1.23342        -2.52632        -2.43676
LJ           1.54194         1.82699         1.37037
LJ         -0.412493         2.25906         0.49506
LJ           2.48312         2.36606          2.2439
LJ          -2.31693         1.00702       -0.532045
LJ              -nan            -nan            -nan
LJ         -0.880766      -0.0124238        -1.18028
LJ          -1.80513         1.85776       -0.975972
LJ          -2.21852         1.27552         2.05331
LJ          -1.06149         1.91471        -2.41903
LJ          -1.28687        -1.16939        -1.56662
LJ           2.23798         2.26509        0.750194
LJ         -0.450316         -1.7249        0.548493
LJ         0.0535052          1.7071        0.340551
LJ          0.915427        -1.84506        0.655436
LJ          -2.44477        0.847172        -1.11459
LJ           2.54177       -0.815503         1.36879
LJ           1.07105        -1.96262        -2.24212
LJ          0.264285       -0.404471         2.22798
LJ          -1.55705        0.666234          -0.513
LJ          0.192614       -0.698924         -1.1381
LJ         -0.771957        0.683044        0.301502
LJ           2.46418         2.29657        0.688748
LJ          0.732331        -1.35696        0.113682
LJ            1.7441         1.98184         1.01294
LJ           0.89076       -0.930356         0.54902
LJ            1.5968         1.23982        -1.29313
LJ              -nan            -nan            -nan
LJ          -1.67083         -2.4007       -0.263054
LJ         -0.879073         1.10351         1.43647
LJ         -0.143543      -0.0427166        -2.02799
LJ          0.654331         1.83653       0.0402678
LJ          -1.23815       -0.670734         2.16988
LJ          -1.83432         2.02259         2.36268
LJ         -0.485201        0.383544        -2.45275
LJ           1.63534        -1.38367         -0.2204
LJ           1.82936        -2.50369        0.865967
LJ           1.39104         0.19285        -1.28023
LJ           0.48524        -2.27752         1.64739
LJ          -1.27272        0.882661        -1.48899
LJ         -0.118402       -0.784539         1.92551
LJ           2.32978         2.54444        -1.62996
LJ          0.834773         1.23538        -1.37932
LJ           2.28938        -2.11071        -1.98204
LJ         -0.561255       -0.874715         1.77969
LJ           1.06053         2.16057       -0.433069
LJ         -0.324363         1.42477       -0.419837
LJ           -1.8657        0.661287         -1.2604
LJ           1.44182        0.785954         1.39851
LJ          0.966573        0.623532       -0.197472
LJ          0.256554        -2.20278         2.40372
LJ          0.485402        -1.61673       -0.245285
LJ          -1.23934         1.19316        0.569629
LJ            1.2304        -2.08029        0.165306
LJ            1.5659       -0.644552       0.0431854
LJ           2.11772        -2.17248        0.277915
LJ           1.74668         2.04013         1.28802
LJ          0.619839        -1.90579       -0.483727
LJ           1.03339         0.57115        0.857121
LJ            2.2212          2.2074       -0.176757
LJ        -0.0857392         0.73895       -0.833478
LJ           1.11338         2.18066         1.00955
LJ         -0.072243         1.70822        -1.75906
LJ         -0.730683         1.23968        0.230003
LJ           -2.4189       -0.472658         1.20993
LJ          -1.51888         -2.2853       -0.380721
LJ          -1.98696         0.22417        -1.26017
LJ          -1.89549        0.331182       -0.710092
LJ          -1.07121        -0.54272         1.28382
LJ           2.15526         2.53097         1.06379
LJ           2.21812       -0.772524        -2.29282
LJ           1.77325        -1.14717       -0.107732
LJ          -2.23569         2.52907        0.170779
LJ          -1.35498      -0.0503803       -0.299122
LJ          -2.14988         1.57311         2.14732
LJ           2.06195        -2.28026        -2.19601
LJ          0.410026        0.043848       -0.824421
LJ          -1.68623        -2.09628      -0.0677447
LJ          -2.53362         1.21287         -1.5149
LJ           1.86614        -2.10884         2.14408
LJ          -1.59086         1.64787        0.835965
LJ           1.35217         1.43571        -2.05553
LJ         -0.165823        0.816066       -0.622595
LJ         -0.150006         -1.2856       -0.829116
LJ         -0.962574        -2.50202        0.603794
LJ          -1.87909         1.80481         1.30114
LJ          0.425845         1.77869        -2.13145
LJ          0.613312        -1.50017        0.533039
LJ         -0.996917        0.782009         2.06453
LJ          -1.46579        -1.73682        -1.30555
LJ         -0.152462        -2.15015         1.38231
LJ           2.52651        0.996196        -2.04948
LJ          -1.46882       -0.285418        0.914819
LJ           1.59489         1.83201        -1.79699
LJ         -0.297415         1.85254        -1.38392
LJ          -2.35273        -2.52923          -1.859
LJ          -1.42604        0.549188        0.891134
LJ          -1.93519        -2.21256       0.0466942
LJ           1.06323        0.275595        -1.09951
LJ          -1.10581        0.831346        -1.74734
LJ          -1.92316         1.44378      -0.0382305
LJ         -0.892035         2.26479        0.327275
LJ           1.76053            1.46        -1.30492
