108
#Comment!
LJ         -0.388678         1.41302        -0.20782
LJ          -2.42705       -0.869963        -2.08803
LJ          0.891462        -0.46389         1.68385
LJ          -1.92947       -0.835918         2.28015
LJ          -1.63082        -1.92872         2.11786
LJ           -2.3409       -0.624025       -0.395056
LJ         -0.228799       0.0520999        -1.02777
LJ          0.581664         1.15366         2.14051
LJ           1.81049         1.05453        0.732173
LJ           1.31302        -2.12983         1.80253
LJ              -nan            -nan            -nan
LJ         -0.731161        0.279771        0.534324
LJ          -0.66793         1.25457        -1.50443
LJ              -nan            -nan            -nan
LJ           1.84775         1.15667        0.862062
LJ              -nan            -nan            -nan
LJ              -nan            -nan            -nan
LJ              -nan            -nan            -nan
LJ         0.0207703          1.3588       0.0449898
LJ              -nan            -nan            -nan
LJ          -1.47724        -1.93846       -0.424045
LJ        -0.0649447        -1.74859         1.90005
LJ          -1.57368         1.91348         1.17673
LJ         -0.753372         2.48606       -0.164667
LJ          -1.35223        -2.54179        -2.22029
LJ         -0.812064         1.43116        0.255669
LJ         -0.143315        0.771805        -2.29063
LJ        -0.0900928        -1.60209       -0.269986
LJ           2.23321         2.13673         1.21475
LJ           1.37231         1.98661       -0.136825
LJ              -nan            -nan            -nan
LJ           1.69324       -0.416102         1.06119
LJ              -nan            -nan            -nan
LJ           2.27664         0.19907        0.689903
LJ              -nan            -nan            -nan
LJ          -0.76331         1.92316       -0.892231
LJ          -2.35032         2.14479        -1.83146
LJ          -1.79417        -0.72839        -0.12095
LJ          0.356169       -0.390033        -1.63655
LJ           1.06201        -2.15958        0.080108
LJ          -1.54789        -1.61488        0.588211
LJ         -0.517092         1.19217        0.706758
LJ           -0.9262        -1.93454          2.5448
LJ          -2.40923        -2.51787        0.827079
LJ         -0.718363       -0.755117         1.83093
LJ          -2.28892       -0.620659        0.797739
LJ         -0.601913         1.74868       -0.730278
LJ            2.4538       -0.674941         1.91668
LJ          -1.69782       -0.641558         1.74863
LJ          -2.36039         1.17187         -2.3173
LJ           1.62609       -0.149037         2.19406
LJ          -1.63613        -1.23117        -0.13211
LJ              -nan            -nan            -nan
LJ          0.811431       -0.386851         1.85301
LJ          -2.36021         1.74296         2.40674
LJ          -1.32242         1.06904       -0.744323
LJ           0.83577       0.0655581       -0.791134
LJ           1.40113         -1.0248         1.10578
LJ          -1.96582        0.688563        0.253282
LJ          -0.65294         -1.0316         1.89091
LJ          -2.50283        -1.39732      -0.0867372
LJ          0.246767         1.82321        0.751335
LJ         0.0974704        -2.05119        0.567623
LJ           -1.4015         2.35601        -1.35607
LJ              -nan            -nan            -nan
LJ            2.4865         -2.4151        -1.56582
LJ           2.29983        -2.27106         -1.2183
LJ              -nan            -nan            -nan
LJ          -1.75367         -2.4725          2.1687
LJ          0.294712        -1.87034        0.177436
LJ         0.0405651        -1.04101         2.07149
LJ          -1.47429        -1.47789         2.53914
LJ         -0.351545        -1.74687        -1.85559
LJ          0.347354         1.01045       -0.770767
LJ          -1.42699       -0.277565        -1.00558
LJ         0.0295894        0.274259         1.62433
LJ          0.776688         2.20686       -0.910513
LJ         -0.985076        -1.53031         1.58903
LJ        -0.0107549       -0.266985        0.934266
LJ          -1.92415        -1.60675          2.4081
LJ           2.06997        -1.64865         1.06197
LJ           1.69659        0.855378        -1.04752
LJ          0.513732       -0.193133         2.26284
LJ          0.419716        0.167658        -2.04399
LJ           2.05707       -0.534291        -0.56131
LJ          -1.12423         1.64952        0.858378
LJ          0.425598       -0.903499        -1.83375
LJ           1.11501         1.64175        0.592106
LJ          -2.33391       -0.624133        0.204586
LJ           1.64402          1.3458        -2.51868
LJ              -nan            -nan            -nan
LJ            -1.468        -1.62891      -0.0645168
LJ           2.31199         2.16856         2.17444
LJ          -1.98398         2.50707        -0.53743
LJ         -0.872488         2.08973       -0.942521
LJ          -1.26526        0.902042       -0.991766
LJ         -0.604542         -2.5559        0.766004
LJ          -2.37755        0.617351         -1.5992
LJ              -nan            -nan            -nan
LJ         0.0305467        0.208682         1.24909
LJ         -0.739305        -1.94072         1.49464
LJ           1.34421        -2.43014        0.324187
LJ         -0.245334        -1.62929       -0.255948
LJ           1.41492        0.442332        -1.65148
LJ              -nan            -nan            -nan
LJ           -2.0492        -1.98269         2.05365
LJ          -2.15731        -1.17049        -1.71737
LJ              -nan            -nan            -nan
