108
#Comment!
LJ         0.0944663        -1.29921         2.21813
LJ           1.39264       -0.492949       0.0473489
LJ          -2.16749         2.01734        0.825252
LJ           2.11766        0.982616        -1.26445
LJ           1.25562         2.33082       -0.891528
LJ           1.59782        -1.68503        0.428983
LJ          -1.65048         -2.2085        -1.68397
LJ            2.5119         2.24668        -2.22054
LJ           2.20094         -1.8653        0.758825
LJ             1.223       -0.555472        0.899541
LJ              -nan            -nan            -nan
LJ           2.04535         1.07033        -1.24356
LJ         -0.347049       -0.965464        0.123675
LJ              -nan            -nan            -nan
LJ         -0.158556       -0.215137        0.460822
LJ              -nan            -nan            -nan
LJ              -nan            -nan            -nan
LJ              -nan            -nan            -nan
LJ          -2.27296        -1.10158        0.449339
LJ              -nan            -nan            -nan
LJ          -1.23498        0.920788       -0.898957
LJ          -1.76981        0.655374        0.293444
LJ            1.3727         1.26578        -1.58193
LJ              -nan            -nan            -nan
LJ          -2.34084         2.30291       -0.602528
LJ          -1.97682        -1.19129         1.82293
LJ          -1.25311         2.19057        -2.11827
LJ          0.103761      -0.0572792       -0.827482
LJ           2.13262         1.82656         1.49888
LJ          -1.03086       -0.893648         1.36871
LJ              -nan            -nan            -nan
LJ          -1.05572        -1.42338        0.834185
LJ              -nan            -nan            -nan
LJ           1.57373         1.83673         2.30859
LJ              -nan            -nan            -nan
LJ          -1.41225         1.38608        -2.23591
LJ        -0.0522706        -2.32892         1.95175
LJ           1.91542        -1.21702        -1.03639
LJ          -2.48627         -1.2422         1.94972
LJ         -0.792591       0.0751661        0.893526
LJ          -2.55164       -0.543749        0.505548
LJ          0.102364        0.508171        -2.21727
LJ         -0.874794       -0.555274       -0.757831
LJ           1.03828         1.68618        0.825543
LJ           1.88185        0.320205        -1.78576
LJ           2.52999        0.799695        0.215216
LJ          -1.91737          1.9329          2.0813
LJ           1.31813          0.1009         -1.5656
LJ         -0.930638       -0.880922        -1.37022
LJ           1.62101       0.0531012        0.500123
LJ          0.778771         -1.8863       0.0526772
LJ          -2.34908         1.58591        0.902866
LJ              -nan            -nan            -nan
LJ           2.53652         1.37773          1.2494
LJ          -1.46055        -1.47652        -2.23543
LJ           1.61293       0.0890518        -1.78686
LJ         -0.474572        -2.14415        -1.05553
LJ        -0.0885392         1.52796         2.00211
LJ         -0.971943       -0.094557         2.51414
LJ          -0.20834         2.39281        0.888324
LJ          -1.37746         2.45682      -0.0652318
LJ           1.48073         0.25108        -2.14672
LJ           1.33387        0.917549        -1.40564
LJ              -nan            -nan            -nan
LJ              -nan            -nan            -nan
LJ          0.200071        0.831002        0.707558
LJ         -0.819921        -1.15755        0.383706
LJ              -nan            -nan            -nan
LJ          -1.41416         2.25889        -2.54792
LJ           2.35029        0.748517         1.13201
LJ         -0.804717         1.65279         1.41695
LJ          0.731626        -2.27861         1.60251
LJ          -1.49421        0.780409         1.23308
LJ            1.4737        0.364189        -2.25011
LJ         0.0447228        -2.20544        0.757927
LJ           -2.5138        -1.59691         2.02976
LJ           2.28273       -0.170462         2.35776
LJ         -0.757852         1.35409       -0.946238
LJ          -2.51891       -0.279675         -2.2836
LJ          -2.21279        -2.41275         2.22384
LJ          -2.36228        0.587375        -1.87645
LJ         -0.389482        0.948593         0.29209
LJ          -1.83776       -0.310935         1.26937
LJ           1.15357         2.21481         1.20495
LJ           2.19853       -0.877766         1.44483
LJ           2.50868        -1.25731        0.757131
LJ          -2.05608        0.681666        0.145528
LJ         -0.449107        -2.33374       -0.849267
LJ          -1.95612        0.840456        -2.29533
LJ           1.99238       -0.577366        0.778957
LJ              -nan            -nan            -nan
LJ           0.46923       -0.306361       -0.249825
LJ           1.45532        -1.79956      -0.0920128
LJ          -2.07536          2.3048         2.36262
LJ          -2.48223      -0.0351177         1.65066
LJ          -2.21425       -0.150587        0.919873
LJ           1.92165         -2.2509        -2.49559
LJ          -2.31419         2.22363         1.33623
LJ              -nan            -nan            -nan
LJ          -1.92791       -0.565569          2.1179
LJ          0.176502       -0.837237         1.48462
LJ           1.55992        -2.53648         2.00481
LJ          -1.19824         1.43451         1.04297
LJ            1.4719        0.854911        -1.53071
LJ              -nan            -nan            -nan
LJ          0.328457        -1.68055         2.15978
LJ          -2.46725        -1.68448       -0.488095
LJ              -nan            -nan            -nan
