108
#Comment!
LJ         0.0942154        -2.25492        -1.97007
LJ          -1.93023       0.0345359         1.06889
LJ          -2.11913        -0.86576        -1.26714
LJ           2.51951         1.60352       -0.556081
LJ           2.22277        0.490684        0.201745
LJ         -0.561336       -0.606651          -1.653
LJ           2.09913         1.63495        -1.51288
LJ           1.80983        -1.32919       -0.232717
LJ          -1.63916      -0.0250192        -2.39246
LJ          -1.09403        0.543394       -0.840819
LJ              -nan            -nan            -nan
LJ           -1.4409        -1.35015       -0.167329
LJ           1.95108       -0.664031        -1.57397
LJ          -2.29836          1.9482       -0.132551
LJ           2.07697         1.66415        -2.31192
LJ         -0.401535          2.0458       -0.617885
LJ              -nan            -nan            -nan
LJ              -nan            -nan            -nan
LJ         -0.525698        0.272811        -1.32303
LJ              -nan            -nan            -nan
LJ         -0.259275         2.09242        -1.45321
LJ          -2.38327       -0.123966       -0.269145
LJ         -0.268399        -0.10356         1.66714
LJ          -1.68413        -1.29107        -2.45822
LJ         -0.630298         1.35227         1.62182
LJ          -1.01239         1.11947        0.832185
LJ           1.14288        0.317275        0.651896
LJ         -0.542336         2.11921       -0.621134
LJ         -0.210929         1.22578        -1.50627
LJ          -1.13842         -1.5598         0.26242
LJ          0.930954        -1.38096         -2.3074
LJ         -0.911697        -1.87609        -2.21826
LJ              -nan            -nan            -nan
LJ          -2.11248         1.27701       -0.204762
LJ              -nan            -nan            -nan
LJ           2.22373        -1.16007        -2.47746
LJ          0.388582        -2.19527         2.36652
LJ           1.45275        0.756914         2.11905
LJ           1.34768         2.31174       -0.871873
LJ          -1.64126         -2.4668        -1.17026
LJ         -0.962228        0.876225        0.193567
LJ          -2.47989        -2.11228        0.421043
LJ          0.669648        -0.98434        -1.71945
LJ         -0.882111       0.0051221        0.543216
LJ          -1.60075        -2.15561        -1.42614
LJ         -0.478805        0.581279       -0.648142
LJ           1.05136        0.296432        -2.55485
LJ          0.188035         1.54996       0.0355884
LJ           2.01101        -2.36616        -1.57497
LJ          -2.28535       -0.863653         1.20814
LJ           1.61573         1.48811        0.709114
LJ         -0.623968        -0.88255        -1.27574
LJ              -nan            -nan            -nan
LJ          -1.02326        -1.03439        -2.44479
LJ           1.96698        0.415173        0.563988
LJ         -0.856624        -2.31926       -0.439591
LJ           1.83503        0.444373         2.09967
LJ          -1.52069        -1.78178        -1.43615
LJ          -2.37747        -1.43478        -1.16956
LJ          -1.00162        0.221967         2.26328
LJ          0.852679        0.636712       -0.512129
LJ          -1.37407       -0.418425        -2.17231
LJ          0.664107        0.345061         2.44389
LJ          0.661742         1.91342        -1.32988
LJ           1.47714         2.03667        -1.08976
LJ          0.225493        -1.08852        0.535975
LJ         -0.142191        -1.46289         1.25527
LJ              -nan            -nan            -nan
LJ           2.34629        0.244915       -0.808383
LJ        -0.0397989         2.06294         1.94874
LJ           -1.1622         2.08408       -0.621701
LJ            2.0052         2.49836         2.27345
LJ          0.438407        0.777904        0.444684
LJ           1.05035       -0.502319        -1.64388
LJ           1.96937       -0.420638         2.01161
LJ             1.992         2.48759        0.807422
LJ           2.26308        0.929378        -1.51163
LJ          0.449181        -2.26143        -1.43106
LJ           2.55064        -1.52072        0.958021
LJ          -1.27481         1.04272        -2.30251
LJ         -0.638719       -0.855412         2.54165
LJ         -0.120389         0.90716         -1.7187
LJ           1.78569       -0.103048       -0.326273
LJ           1.72434         1.71404        0.116287
LJ          -0.54038        -1.85066         1.11796
LJ           1.78137         2.31583        -2.24782
LJ          -1.20105         1.12147        -2.27201
LJ           1.46348        -2.14931         2.53963
LJ           2.51791       -0.355584       -0.739344
LJ          0.450646         2.41973         -2.3619
LJ              -nan            -nan            -nan
LJ           2.39754       -0.322401        -1.39973
LJ          0.809336       -0.785692         1.38466
LJ          -2.06021       0.0205945         1.09943
LJ          0.804803       0.0107992        -1.02836
LJ          0.329105        0.205898         1.83808
LJ          -1.00772         1.83842         2.29633
LJ         -0.241131       -0.954899        0.791184
LJ         -0.406388        0.951141         1.50397
LJ          0.654809        -1.76406        0.346259
LJ         -0.988638         1.54386        -1.42753
LJ          0.767394       -0.752838        -2.53732
LJ           2.36269         2.35052        0.137253
LJ         -0.215866       -0.805905        -0.96828
LJ           2.01151        -2.55895       -0.408795
LJ         -0.830993       -0.681499      -0.0627103
LJ         -0.542725        -2.00764        0.678629
LJ              -nan            -nan            -nan
