108
#Comment!
LJ           1.29983        0.346756        0.394526
LJ          -1.13641         1.87823         2.03883
LJ         -0.289036        0.055488         2.34831
LJ         -0.139612       -0.485078        0.706035
LJ          0.649824        -1.86171         2.47833
LJ          0.511207       -0.843869        -1.90331
LJ           1.44157         1.99658       -0.785336
LJ          -1.08791         2.35696         2.09254
LJ           1.15642         2.52737        -2.32914
LJ          -1.28294        0.421323        -1.26541
LJ              -nan            -nan            -nan
LJ          0.167131         2.24081        -1.16814
LJ          -2.14988         2.09164        -1.54354
LJ              -nan            -nan            -nan
LJ           1.80669         2.25232        0.582775
LJ              -nan            -nan            -nan
LJ              -nan            -nan            -nan
LJ              -nan            -nan            -nan
LJ          -1.21236        0.292899        -1.58075
LJ              -nan            -nan            -nan
LJ          -2.48682        -2.12716         1.43531
LJ           2.13125         1.42272        0.894336
LJ         -0.324464        0.932177        -1.45894
LJ           1.87945       -0.704746        -1.91195
LJ         -0.562511       0.0116688        -1.21106
LJ         -0.392161        0.346369       -0.369764
LJ            1.7712       -0.879043        0.166476
LJ        0.00888019        -1.45161        -2.34277
LJ           2.37667         2.07005        0.160755
LJ           -1.0676        -1.98778       -0.349725
LJ              -nan            -nan            -nan
LJ          0.145512        -2.34602        0.318089
LJ              -nan            -nan            -nan
LJ          -1.27358        -1.58138        -1.17822
LJ              -nan            -nan            -nan
LJ         -0.522623       -0.906539       -0.129103
LJ          -2.33086       -0.903637       -0.375604
LJ            -0.184        -1.57669        0.100935
LJ          0.680795        -1.44862        -2.15752
LJ          0.246319       -0.561285        0.771099
LJ           1.11482        0.355497         1.07266
LJ          -2.43115       -0.472083        -0.21132
LJ          0.944066       -0.438973        -1.98928
LJ          -2.07427        -1.84587         2.14518
LJ           2.17167        -2.06981        0.368641
LJ         -0.575899         1.32705         -1.6959
LJ          -1.88653       -0.517714        -2.15725
LJ          -1.15222        -1.04806        -1.21659
LJ           2.21566        -1.21529       -0.772232
LJ          -2.13443       -0.254526         2.43409
LJ          -1.78423       -0.949379        0.148416
LJ           1.99875        -1.48004        -2.05522
LJ              -nan            -nan            -nan
LJ            1.5314         1.73257       -0.385368
LJ         -0.947553         1.71045         2.27238
LJ           -1.2082         2.47409        -1.64054
LJ         -0.450417      -0.0351779       -0.389067
LJ          -2.27366         2.03454       -0.845764
LJ          -2.00429       -0.389967        -2.06087
LJ           1.51174        -1.61523         2.47441
LJ          0.776815      0.00220686        -2.46088
LJ            2.2315         -1.1925       -0.571604
LJ         -0.474109      -0.0778335         1.31427
LJ          -2.01837        0.643493      -0.0866354
LJ              -nan            -nan            -nan
LJ           1.05239         1.30304       -0.337199
LJ         -0.922903       -0.739072       -0.129251
LJ              -nan            -nan            -nan
LJ           2.24364        0.187131         1.95489
LJ          -1.35846       -0.544648         1.35323
LJ          0.863609        0.356675         2.21183
LJ          -1.76739        0.961307       -0.627828
LJ          -1.95411         1.45522        -2.45133
LJ          0.917104        -1.37791         2.12819
LJ           1.31939        -1.75965      -0.0418639
LJ          -0.63136        -1.37206         -1.0716
LJ           1.59395         1.68604         0.84491
LJ          0.463485         1.07758         2.52162
LJ          0.202905         1.19528         1.21353
LJ           2.40497        -2.21206         1.77501
LJ          0.332786         -1.8534         1.48615
LJ           1.46387        0.681113         2.31016
LJ           1.14867        -2.44167       -0.655551
LJ          -1.06581         2.00332       -0.654138
LJ         -0.269778         2.15885         0.73954
LJ           2.32248         1.06762       -0.974643
LJ            1.5058         1.03201        0.767057
LJ           2.45143        0.930113         1.06573
LJ         -0.126071       -0.523242         2.08957
LJ           1.69172         1.98317        0.179568
LJ              -nan            -nan            -nan
LJ         -0.522085       -0.454492        0.825387
LJ          0.956819        0.614676        -2.13206
LJ           1.22513       -0.201017        -1.66588
LJ          0.701368        0.124505       -0.140043
LJ           1.63783        -1.22563         1.38709
LJ         -0.799934         1.32121       -0.464691
LJ          0.650946         1.14454        0.724615
LJ              -nan            -nan            -nan
LJ         -0.590208        0.878271         2.53895
LJ          -1.56616          2.4207         1.95415
LJ         -0.383008         -2.4247         2.29104
LJ           1.30844        -1.49162          2.4687
LJ         -0.296163       -0.235272        0.754906
LJ              -nan            -nan            -nan
LJ          0.306107        -2.03291          2.1064
LJ         -0.927429       -0.463468        -1.57878
LJ              -nan            -nan            -nan
