108
#Comment!
LJ          -0.20457       -0.826693       -0.578624
LJ          -1.74859       -0.102019       -0.791354
LJ          -2.28617        -1.45971        -2.27929
LJ          -1.41431        -2.14335        0.712108
LJ          0.814048        -1.77977        -1.67569
LJ          -1.93231        -2.34181       -0.608152
LJ          -0.80376       -0.975943        -0.45973
LJ           2.37434       -0.688513         2.17325
LJ          0.295489        0.649359       -0.436423
LJ          0.488577        -0.97865       -0.567702
LJ              -nan            -nan            -nan
LJ         -0.356629          1.4877       -0.651067
LJ          -1.09662         1.99346        0.963849
LJ              -nan            -nan            -nan
LJ         0.0727163        0.521186        -1.99117
LJ              -nan            -nan            -nan
LJ              -nan            -nan            -nan
LJ              -nan            -nan            -nan
LJ           1.00273         2.31429         1.04739
LJ              -nan            -nan            -nan
LJ          0.401474        0.701352        0.977621
LJ          -2.14135        -2.51596       -0.851223
LJ          -0.12126        -2.33781         1.75339
LJ              -nan            -nan            -nan
LJ         -0.226507        -1.87313         2.09659
LJ          -2.10232         1.06885         1.20945
LJ           1.38325        -1.80172        0.545598
LJ          -1.51683        -1.73788        -2.36196
LJ          -1.43613        0.246873        -1.84184
LJ           1.35239          0.4565        0.965848
LJ              -nan            -nan            -nan
LJ        -0.0974733        -0.42646        0.739254
LJ              -nan            -nan            -nan
LJ          -1.73502       -0.962642          1.2513
LJ              -nan            -nan            -nan
LJ            2.4971        -1.50079        -2.10358
LJ           1.01297        0.583185         2.32818
LJ          -1.66527        -2.47278        0.033164
LJ           2.51588         1.25084         1.91378
LJ            1.8871        -1.04189      0.00551312
LJ         -0.508014         1.85898        0.530084
LJ          -0.36726          2.1078          1.2454
LJ           1.83664        0.835019        -2.08372
LJ          0.948668       -0.496558       -0.955997
LJ           0.49554       -0.992751        -2.36553
LJ          -0.55402         2.53219        -1.98049
LJ         -0.197373        0.644738        -0.20844
LJ           1.70917      -0.0732127        0.747011
LJ           0.17202         0.77562       -0.697012
LJ          -1.72445        -1.47364        -1.86773
LJ          -2.39974         2.33117        0.915173
LJ          -2.24626        -2.56342        -2.44773
LJ              -nan            -nan            -nan
LJ           1.04469        -1.79909         1.85461
LJ          0.724131        -1.84297         1.04255
LJ          -1.73741       -0.544729         1.28195
LJ          -1.34194        0.810356        -1.50143
LJ         -0.561717        0.856753        -2.31716
LJ            2.2748        -1.22784         2.30036
LJ           2.52991        0.307585         1.69756
LJ          -2.03028        -2.49917         0.83506
LJ          0.145053         1.92739        -1.90206
LJ           1.45688        0.257831        0.998218
LJ              -nan            -nan            -nan
LJ              -nan            -nan            -nan
LJ           2.07931         1.64443         -1.8856
LJ           1.41072         1.00665        -1.56002
LJ              -nan            -nan            -nan
LJ          -2.54588       -0.989052         1.60826
LJ          -1.82981         1.05202        -2.01059
LJ           1.47778         2.47957        -1.41671
LJ          0.773574        0.940015        0.632879
LJ          0.200182        -2.27825       -0.893619
LJ           2.48576         2.23586       -0.646248
LJ          0.438456        0.735574         1.81223
LJ          -1.50085        -2.51358       -0.522238
LJ          -1.07344         1.39292         1.77521
LJ           1.10904      -0.0801738       -0.830935
LJ           2.14643        0.908272         1.98925
LJ          -2.49985        -2.18979         1.35537
LJ           0.35044        0.244392       -0.267138
LJ          0.391549       -0.797231        -2.09089
LJ          -1.89196      -0.0400786        -1.37929
LJ         -0.367422         2.51765         2.05244
LJ          0.750874        -2.36499        -1.77913
LJ         -0.601599         1.03152         1.40709
LJ         -0.301819       -0.426472          1.7456
LJ          -2.51555        -1.26254        -2.12973
LJ         -0.125714        -2.33861          1.3272
LJ          -1.60591         1.34248         1.22841
LJ              -nan            -nan            -nan
LJ          0.199352       -0.162038      -0.0368737
LJ           1.61925         1.45877        -1.33211
LJ         -0.816107         2.46472         -1.4068
LJ          0.817118        0.358122        0.169015
LJ          0.167862        -1.95695        -2.39819
LJ           1.18034        -1.41337        -2.07912
LJ          0.731008       -0.552688         1.60905
LJ              -nan            -nan            -nan
LJ           1.51162       -0.212264        -1.02741
LJ          -2.25856         2.10331         1.22938
LJ         -0.277841        -1.44119         2.38586
LJ           1.77729        -2.26691        -1.12333
LJ         -0.874591        -1.62819       0.0385159
LJ              -nan            -nan            -nan
LJ         -0.431608         2.27272         1.99448
LJ         -0.262978       -0.848399         1.90346
LJ              -nan            -nan            -nan
