108
#Comment!
LJ           2.14376        0.369763       -0.149088
LJ          -1.12431        -2.26265         2.49378
LJ           1.27333        -1.27236       -0.709498
LJ           2.51443        -1.16053        0.227191
LJ          0.523414       -0.799235       0.0388997
LJ           2.01114        0.917455        -1.92996
LJ          0.939201        -1.70802       -0.765592
LJ          -1.88571         2.49639        0.379306
LJ          -2.12014        -1.22897        0.945511
LJ           1.99698          2.0431        -2.23129
LJ              -nan            -nan            -nan
LJ         -0.950439         2.07008          1.4415
LJ          0.623603         1.78746        0.620943
LJ              -nan            -nan            -nan
LJ           1.69489        -2.13075        0.527715
LJ              -nan            -nan            -nan
LJ              -nan            -nan            -nan
LJ              -nan            -nan            -nan
LJ          -1.34629         0.11326      -0.0764267
LJ              -nan            -nan            -nan
LJ          -1.86035        0.667596       -0.583753
LJ         -0.689613        -1.20043        -2.55259
LJ           2.19241       0.0864183        -1.70215
LJ              -nan            -nan            -nan
LJ           1.96985         2.05543         2.14987
LJ          0.163149        0.435415        0.554066
LJ           2.30038         1.50189         0.19962
LJ        0.00507487         2.36962        -2.02336
LJ         -0.890909        0.747445        0.887472
LJ           0.81605         2.15701        -0.67136
LJ              -nan            -nan            -nan
LJ           2.32985          1.1367       -0.107723
LJ              -nan            -nan            -nan
LJ           2.55324       -0.404859       -0.726229
LJ              -nan            -nan            -nan
LJ         -0.409467       -0.198962          1.7928
LJ          0.357231        -1.92616       -0.985654
LJ           0.99936       -0.262077         2.21171
LJ            2.0918         2.19467        -1.06231
LJ         -0.431069         1.54164        -2.42501
LJ          -0.99826       -0.205332         2.41375
LJ          -2.39491       -0.857649        -1.90264
LJ          0.781154         0.32837       -0.257567
LJ         -0.738724         2.39083         1.71716
LJ            1.8627        -2.10078        -1.44684
LJ           2.13115        -2.03234       0.0109313
LJ          0.485203        0.624513        -2.38332
LJ          -1.76586        0.617968       -0.139983
LJ           -1.7731        0.397748       -0.683969
LJ           1.19775         2.13261        0.807587
LJ          -2.00132        -2.27238        0.601792
LJ           0.34961       -0.437342        -1.25763
LJ              -nan            -nan            -nan
LJ          -1.66003        -2.54264         2.15292
LJ           2.52257        -1.69729        0.170736
LJ          -1.41629        -2.15047        -1.14636
LJ          0.479745        -2.31959       -0.408795
LJ         -0.834061         2.48127        0.637062
LJ           2.51595        0.145181        0.174329
LJ          -2.54307          -2.528        0.575568
LJ         -0.394654        0.835305         1.69047
LJ           1.44848       -0.828724          1.7921
LJ          -2.20725         2.26328        0.727548
LJ              -nan            -nan            -nan
LJ              -nan            -nan            -nan
LJ         -0.307908       -0.243842        -1.54338
LJ           -2.5383         2.01281         2.21285
LJ              -nan            -nan            -nan
LJ          0.866814        -2.47056        -2.52377
LJ          -2.40598       -0.217065         1.19057
LJ           1.50061        -2.52897         1.45967
LJ           2.22481        0.632026         1.99493
LJ          -1.36266         2.00284         2.12285
LJ         -0.784869         1.47255         1.79964
LJ         -0.456181       -0.057816         -1.2288
LJ          0.897563       -0.344264        0.954875
LJ         -0.244477        0.833763         1.07402
LJ          0.326578         2.31754        -1.05984
LJ          0.606126         0.20118        -0.43172
LJ        -0.0331712       0.0922681       -0.208514
LJ          -0.66028       -0.183163       -0.733795
LJ          0.446995         2.26681       -0.294133
LJ         0.0227149        -1.94737         1.61527
LJ           1.30478        -1.99123         1.11816
LJ          -2.29245        -2.25244         1.51409
LJ          -0.50893         2.25057        -1.59419
LJ          -1.20498        -2.05061         -1.8242
LJ          0.811874        -1.60465    -9.99956e-06
LJ           2.54861        0.469324        -2.38796
LJ             2.105        -1.14523        0.583125
LJ              -nan            -nan            -nan
LJ          -1.41747         1.90339        -2.30032
LJ         -0.666716         0.67029        -1.81582
LJ           2.53662          1.9458        -2.17766
LJ           2.25462       -0.333368         -2.5095
LJ           2.45645        0.464753       -0.724207
LJ          0.809778         1.79234        -2.16488
LJ          -2.33565         2.43059        -2.28557
LJ              -nan            -nan            -nan
LJ          -2.00723        -1.48841         1.14183
LJ          -2.12262       -0.730298        -1.24367
LJ          -1.86677        0.704306        -2.44005
LJ          0.302645       -0.671937        -2.15036
LJ            1.7918        0.716434          1.3193
LJ              -nan            -nan            -nan
LJ        -0.0134548        0.990164       -0.385438
LJ          -1.57437       -0.116155        0.277919
LJ              -nan            -nan            -nan
