108
#Comment!
LJ           1.58267        -1.44992         2.29265
LJ          0.480736        -1.12121        -1.62542
LJ          -2.17927        -0.14507         1.81331
LJ         -0.536964         1.46596       -0.193628
LJ          -0.47514         2.53643         1.75056
LJ        -0.0560395        0.875094        0.542619
LJ          -1.02431        0.360224         2.45576
LJ         -0.486924        -2.52624         1.34258
LJ           -2.1232       -0.589908        0.232446
LJ         -0.455493        0.894786        -2.47032
LJ              -nan            -nan            -nan
LJ         -0.887866       -0.479801         1.01924
LJ          -2.26243        -1.86233        -0.25257
LJ        -0.0430006        -2.48203         1.30656
LJ          -1.84656        0.740821         1.90169
LJ              -nan            -nan            -nan
LJ              -nan            -nan            -nan
LJ              -nan            -nan            -nan
LJ         -0.411002        0.844871        -2.10213
LJ              -nan            -nan            -nan
LJ         -0.371528        -1.97618         -2.0801
LJ          -2.29812         1.37493         2.24421
LJ           1.43086         2.32983       -0.402033
LJ          0.468725        -1.32444        -2.18196
LJ         -0.219292       -0.868715         1.25205
LJ          -1.31423        -1.41781        -2.24962
LJ          -2.11988         1.56347        0.586443
LJ           1.38916        -2.00698        -1.53634
LJ           2.25433       -0.162006      -0.0469337
LJ         0.0649078        0.910661         2.55397
LJ          -1.18518        0.813561        0.299137
LJ           1.35592        0.678858         0.70127
LJ              -nan            -nan            -nan
LJ          -2.41527         2.09586         2.19562
LJ              -nan            -nan            -nan
LJ         -0.512381         1.65627        -1.13621
LJ           2.54538        0.556493       -0.323913
LJ          -2.13316       -0.540463        -2.20184
LJ         -0.388918       -0.941706        -2.44794
LJ          -0.38987        -1.48124        -2.27284
LJ          0.448636        0.466755         1.41184
LJ         -0.715792         2.28497         1.32903
LJ           2.31117         1.96147        0.136362
LJ           1.53166        0.755123        0.120094
LJ           2.14255         1.10576          2.2477
LJ         -0.444945         -1.5698        0.561717
LJ           1.68051         1.46318        0.965399
LJ           1.86981          1.8305         0.48862
LJ           -2.5113        -2.11696        -1.04816
LJ           1.45841         2.02453       -0.435983
LJ         -0.335778       -0.433962         -1.5792
LJ         -0.864792        -2.47261        0.868196
LJ              -nan            -nan            -nan
LJ          0.109762        -2.01862        0.616944
LJ          0.219926        -1.00321       -0.114297
LJ          -1.87071        0.454981         2.03902
LJ          -2.24815        0.875333         1.56753
LJ          0.297565         2.35698       -0.606699
LJ          -0.81222       -0.188879       -0.752332
LJ         -0.865129         2.17922        -2.17297
LJ         0.0918022         1.92674        0.777536
LJ          0.908698        -1.51405        -1.28541
LJ         -0.707658         1.09724       -0.493162
LJ           1.93272        -1.41643         1.14642
LJ          0.963863        -0.56214         2.43445
LJ          -1.65456        -1.38195       -0.120262
LJ           1.95852        -2.31835        0.101794
LJ              -nan            -nan            -nan
LJ           1.47325         1.90864         1.35192
LJ            2.4311       -0.523008        0.777542
LJ         -0.388961        0.357763        0.993393
LJ          0.477263        0.352292         2.08989
LJ         -0.557851        -1.22849        0.446774
LJ          0.102079         2.29251        0.463388
LJ          0.331697         1.79007        -2.18242
LJ          -1.70043       -0.784136        -0.79304
LJ          -2.16997       -0.553768       -0.214816
LJ          0.661336         1.29466        -1.50035
LJ          -1.59744        -2.13837        0.933228
LJ           2.19193        0.665405        -1.38351
LJ         -0.167201         1.74863         1.41178
LJ           1.64676        -1.24063         1.28145
LJ            1.2222       0.0217543       -0.881431
LJ          0.794473         -1.8528       0.0116616
LJ           1.00324         2.00536         2.14536
LJ         -0.710421       -0.456587         2.19788
LJ          -2.28363        -1.96921          0.3914
LJ         -0.831736      -0.0958081        -1.86671
LJ           1.87082        -1.52888         1.62801
LJ           1.49322         1.55969         0.11383
LJ              -nan            -nan            -nan
LJ          0.498218        -2.42214        0.464752
LJ            -2.284         1.77524        -1.70176
LJ           1.63169        -1.32398        -1.97394
LJ           2.20136       -0.457739        -1.17786
LJ          -1.23195         2.15397        -0.34453
LJ         -0.383115         2.52971        -1.54886
LJ           2.16563         1.90878        -1.96045
LJ              -nan            -nan            -nan
LJ          0.864533        0.313392       -0.584393
LJ           1.13999          2.4711       -0.535071
LJ          0.218442         1.27933        0.503388
LJ           1.06835        -2.41724        0.999575
LJ          0.140021         2.35407        -1.73114
LJ           1.30962         2.21271         1.12329
LJ          -1.30178        -1.72768        -2.15973
LJ           1.69038        -2.51032        -0.99752
LJ              -nan            -nan            -nan
