108
#Comment!
LJ          0.262515       -0.976406        0.438335
LJ          -1.60595        -0.37736         2.14997
LJ           2.13153       -0.920168        0.231287
LJ          -2.19753         -1.7797        -2.17954
LJ         -0.634521         1.83204        -1.90165
LJ           2.50338       -0.703118       -0.380555
LJ          0.251096        -2.26203          0.9779
LJ           1.08635        -1.06911       -0.330223
LJ           1.37953        0.432345        -1.41711
LJ          -1.27185         1.08084         1.14765
LJ              -nan            -nan            -nan
LJ         -0.406304        -1.37368       -0.569356
LJ         -0.381412        -1.00752          1.7431
LJ              -nan            -nan            -nan
LJ         -0.191199        -1.09243         1.49112
LJ              -nan            -nan            -nan
LJ              -nan            -nan            -nan
LJ              -nan            -nan            -nan
LJ         -0.487618        -1.66314       -0.115977
LJ              -nan            -nan            -nan
LJ           1.39495       -0.532216       -0.381827
LJ           1.38641        -1.36679          1.2019
LJ          -2.25817        0.130817       -0.446902
LJ          0.885176       -0.175609         2.28859
LJ           1.97788       0.0450533          2.4985
LJ           1.81622        0.316608         2.14568
LJ          -1.92241       -0.711104        -2.23391
LJ           1.97655         0.35163         1.90168
LJ           1.90285         1.27866         1.75582
LJ          0.180128        -1.38571       -0.225852
LJ              -nan            -nan            -nan
LJ           1.45096        -2.51082        -1.86735
LJ              -nan            -nan            -nan
LJ          -1.39332         1.75964         1.80306
LJ              -nan            -nan            -nan
LJ          -2.08288         1.85957        -1.44781
LJ          0.277022         1.31185       -0.582072
LJ          -2.04315        0.661866        0.134111
LJ          -1.70235       -0.500455        0.493626
LJ           2.01999       -0.120105         1.47535
LJ          0.212217        -1.06044        -1.53588
LJ            1.3232       -0.634172       -0.769854
LJ          -1.18325         1.52702       -0.932136
LJ           0.91397         2.34299       -0.266906
LJ          -1.68036       -0.914832        0.848149
LJ          -1.34432         1.28088       0.0671089
LJ          -1.21886        -1.43414         2.20918
LJ          -2.16575        -1.22594         1.05252
LJ           1.57636        -1.88605         1.03241
LJ           -1.2867        -1.04537       -0.545944
LJ            -0.334         -1.1116       -0.328267
LJ         -0.240215         2.04517         2.01132
LJ              -nan            -nan            -nan
LJ          0.894482        0.313752         1.37615
LJ           1.30633        0.462454        -1.65551
LJ          0.288818        -1.31883       -0.991003
LJ          0.443624         -1.0649         1.39312
LJ           2.04948        0.372506         0.40184
LJ             1.231          1.6561        0.557515
LJ           1.87838        -1.57527        -1.76176
LJ           2.03377        -0.81995        -0.22773
LJ         -0.578059        0.691662         1.11372
LJ          -2.21085       -0.399624         1.58409
LJ           1.32804        -2.43287       -0.765012
LJ              -nan            -nan            -nan
LJ          0.880824       -0.536908         1.36797
LJ         -0.276826         0.45988        0.790027
LJ              -nan            -nan            -nan
LJ           2.51745       -0.367191         1.10303
LJ            1.0953        -1.13237         1.30524
LJ         -0.363855        0.789805       -0.696708
LJ           0.19585        0.779009       -0.057356
LJ          -1.59156         1.46778        -1.55527
LJ            2.1985         1.73265           1.276
LJ           2.27865        -2.21905        -2.16165
LJ           2.21339         1.18945      -0.0195942
LJ          -1.03698          1.2141          2.0046
LJ          -1.26618         2.27458         2.01716
LJ           1.46943        -2.20993         -1.0648
LJ          -1.83723        0.311236           1.795
LJ         -0.142921       -0.728926       -0.276092
LJ          0.955147        0.629802       -0.608347
LJ         -0.352356       -0.307323      -0.0818591
LJ          0.724172         2.13115          -1.589
LJ         -0.329921      -0.0767604        -2.41346
LJ           2.20197         1.06864        0.896394
LJ         -0.236006        0.714668       -0.718075
LJ          -2.01127        0.609405         1.79525
LJ          -1.17473         1.71908        -2.23589
LJ          0.411916       0.0510782         1.30807
LJ              -nan            -nan            -nan
LJ          0.173049        -2.26257        0.650051
LJ           1.85228        0.815756         2.53766
LJ           -1.4945         1.91403         1.63466
LJ          0.192474         1.93849        0.529687
LJ           2.49612        -1.39985       0.0659308
LJ         -0.520839         1.60305        -2.40763
LJ          0.495243         1.21481        0.671525
LJ              -nan            -nan            -nan
LJ         -0.226673        -2.27253       -0.916806
LJ          0.764721        -1.56019         1.17605
LJ         -0.283606        -1.34196         2.30809
LJ          -2.25364        -1.40856         1.10882
LJ           1.06618       -0.267597        -1.46802
LJ              -nan            -nan            -nan
LJ         0.0080592         1.64231        0.433139
LJ           -1.8583        0.975889       -0.919378
LJ              -nan            -nan            -nan
