108
#Comment!
LJ            2.5593        -1.64223        -0.21568
LJ           1.27588         1.56717        0.585043
LJ            1.0223         1.00012       -0.869129
LJ          -2.45094         1.87597        0.759736
LJ          0.443595        -0.88478        -2.39498
LJ             1.339         1.19403       -0.910951
LJ            2.2905        -2.18523         1.07613
LJ          -1.30992        0.760837        -1.17472
LJ          -2.50338         0.71074        -1.91735
LJ           1.44363        -1.09847         1.96502
LJ              -nan            -nan            -nan
LJ         -0.212666         2.38685        0.650343
LJ          -1.20054         1.15731        -0.61458
LJ              -nan            -nan            -nan
LJ           1.93993       -0.278744       -0.267987
LJ              -nan            -nan            -nan
LJ              -nan            -nan            -nan
LJ              -nan            -nan            -nan
LJ          0.469192        0.650485         1.37397
LJ              -nan            -nan            -nan
LJ          -1.33431       -0.634524        -1.55698
LJ          -1.41381       -0.935869       -0.368121
LJ          -1.56907       -0.183826        0.724992
LJ           2.52817       -0.760358       -0.771198
LJ          -2.41996        -2.30378          1.6039
LJ         -0.739203       -0.253135        -2.41995
LJ          -2.05699       -0.683482         1.24611
LJ           1.97478         1.79926        0.843207
LJ           2.40898         1.98302        0.467046
LJ          -1.48597         0.17697        -1.24076
LJ              -nan            -nan            -nan
LJ           2.21927       -0.551871         2.19381
LJ              -nan            -nan            -nan
LJ          0.271402         1.74278         1.93193
LJ              -nan            -nan            -nan
LJ            1.5402        0.269731        -0.70335
LJ         -0.465476        0.496217       0.0824478
LJ          -1.82444         2.22898         1.80614
LJ         -0.377179       -0.533122        -1.03981
LJ           2.32385        0.330366       0.0832968
LJ         -0.912803        -1.18605        -2.06826
LJ         -0.758224         2.51453       -0.479935
LJ            1.1832         1.72397         1.38632
LJ           1.84661       -0.671482        0.762337
LJ          -1.94538        -0.68139        -2.42888
LJ          -1.98473       0.0999707        0.506167
LJ         -0.523148       -0.265033          1.5824
LJ          0.362834         1.89815        -1.95751
LJ           1.02013        0.969095       -0.870331
LJ           -1.6795         1.75654         1.44856
LJ          0.636654        -1.43419        0.767871
LJ         -0.400814         1.06722        -1.24296
LJ              -nan            -nan            -nan
LJ          0.492035       -0.867131       -0.363772
LJ          0.402365        -2.53449        -1.09999
LJ          0.185791        0.377068      -0.0191681
LJ         -0.573553         1.18384         1.68363
LJ          0.574992         2.18874       -0.454162
LJ          -1.55127         1.63815         1.19686
LJ          -1.86507         2.35735        -1.37246
LJ            0.6861         2.50198        -2.45023
LJ          -1.58211       -0.590802       -0.138913
LJ           1.85517        -1.58775         1.10411
LJ          0.764842         2.02018        0.240897
LJ              -nan            -nan            -nan
LJ          -1.08862         1.01106         1.28644
LJ          -1.24783       -0.867787        0.122862
LJ              -nan            -nan            -nan
LJ          0.405706        -0.71104       -0.243556
LJ          -2.23663        0.171144       -0.361443
LJ         -0.229228         1.45734       0.0367278
LJ           1.00171         1.63223        0.180564
LJ          -1.46878        -1.38073        0.166684
LJ          -1.99728        0.554551        -1.99269
LJ           1.95495        -1.24362        0.167216
LJ           2.20546         1.87185         1.03294
LJ          0.610597        -1.46058         0.85118
LJ           1.79614         1.12628       -0.575285
LJ          -1.90921           2.047         1.24093
LJ            2.0706        -1.86429        -1.73544
LJ          -1.29721         2.27862        -1.46042
LJ           1.71801       0.0458726        0.565423
LJ         -0.508048        -2.21191        0.907164
LJ         -0.350759       -0.724134        0.430135
LJ           2.25269       0.0514177        -1.39461
LJ           1.42215       -0.801018          1.9961
LJ        -0.0979578        -1.42799        0.751107
LJ         0.0706752       -0.894484        -1.89484
LJ          0.171174        -2.18166         1.16635
LJ          -1.35764         2.54334         2.04288
LJ              -nan            -nan            -nan
LJ         -0.871707           0.318         1.65146
LJ           2.23557        -2.39319        -0.55514
LJ           1.47722         1.99166         2.21045
LJ          0.602026       0.0494522        -2.24429
LJ           1.10906       -0.254734         1.36635
LJ         -0.522564       -0.896128         1.70314
LJ          -2.53566         2.26213        -1.97461
LJ              -nan            -nan            -nan
LJ         -0.765809         1.14903       0.0830867
LJ         -0.307621          1.9713        -0.42376
LJ           2.52516        -1.46144        -2.19232
LJ          -1.51354      -0.0413374         1.09974
LJ           1.97642        0.838245        0.532647
LJ              -nan            -nan            -nan
LJ          -2.16372        0.316659        0.880303
LJ          0.829741       -0.343562         1.30679
LJ              -nan            -nan            -nan
