108
#Comment!
LJ           0.67744       -0.278273       -0.451032
LJ          -2.56396         2.05798       -0.779669
LJ         -0.757067        -2.18564        0.745605
LJ           1.64688       0.0462104        -2.49661
LJ          0.939723        0.951242       -0.579906
LJ          0.619873       -0.321802        -2.22416
LJ          0.523637          2.0253         1.02752
LJ          -2.25639        -1.93976        -1.83643
LJ          -1.85354        -1.89377        0.890995
LJ           1.20295       -0.292529         -2.2162
LJ              -nan            -nan            -nan
LJ          0.717971         1.34709         2.05546
LJ          -0.81451        0.229558        -2.13471
LJ           1.61489        -1.93454         2.34168
LJ         -0.982563         1.77657        -1.50595
LJ          0.157103         2.02679        -2.54172
LJ           1.27481        -1.44778         0.43651
LJ          -1.11131        -1.88456         2.13587
LJ           -2.4529        -2.17835        -1.58609
LJ          -2.25517       -0.608976        -0.52247
LJ          0.935152       -0.316691         1.40918
LJ           1.61347       -0.917673        -2.21888
LJ           2.06604         1.07116         1.26178
LJ            2.0995        -1.59178        0.734209
LJ            1.9455         0.17307         -1.9736
LJ         -0.977231       0.0367054       -0.923193
LJ          -1.26193         1.41663         2.21012
LJ          -1.76111       -0.652454       -0.168979
LJ           1.22041         2.28835        0.791087
LJ           1.65529        -1.68208        -2.07122
LJ           2.33988        0.505347        -1.16395
LJ          -2.33933        0.667987         1.05084
LJ              -nan            -nan            -nan
LJ          -2.22785        0.825191        -1.45256
LJ              -nan            -nan            -nan
LJ         0.0742342        -1.96618        0.474524
LJ          0.256125        0.824538         1.01199
LJ           1.99876        -2.16254         2.01013
LJ          -1.83654        -1.01179        0.704819
LJ          0.496668         1.24777       -0.612362
LJ           1.51178        0.562043        -1.34829
LJ          -1.84457       -0.367049       -0.642379
LJ          0.337582        -1.40912        0.382492
LJ         -0.785145          1.9505       -0.113754
LJ           1.61242         1.97469         1.38578
LJ          -2.43143          -1.594         1.67969
LJ          -2.21157        0.547518       -0.783009
LJ           1.70638        -2.35651         1.88848
LJ          0.110582        -2.05651       -0.785556
LJ          -1.46839       0.0612469         2.28172
LJ           2.15173        0.355563        -1.10928
LJ         -0.781375        -2.14882        0.132242
LJ           1.06435        -1.93088        0.659943
LJ           1.76961        -2.11053        -2.39197
LJ          -2.06654        0.103621          1.5419
LJ         -0.819609       -0.784864        -2.19341
LJ          0.476995       -0.230007        -1.49976
LJ         -0.797775        -1.13407          1.9283
LJ          -2.44224         1.28626         1.07792
LJ           1.91211        -2.11347       -0.183346
LJ           1.96594         1.46428         1.95312
LJ         -0.217046       -0.371952         1.88531
LJ          -1.58237         -2.4136        -1.82761
LJ          0.599482        -1.36981          -1.199
LJ          -1.43631         1.70783        -1.29307
LJ           2.22992       -0.442709        0.179722
LJ         -0.294784        -2.38601       -0.221887
LJ              -nan            -nan            -nan
LJ         -0.241112       -0.342575         1.76787
LJ           1.61963         1.52427        -1.75079
LJ           1.59178         1.70271         1.54538
LJ          -2.34088         1.31273         2.56369
LJ          -2.37032      -0.0399852        0.514355
LJ           2.33104         2.36925        0.474927
LJ          -2.34237       -0.403665         1.47811
LJ         -0.664193          2.4023       -0.869615
LJ          -2.31518         2.10931        0.134665
LJ           1.96746       -0.267952       -0.699882
LJ           1.38953        -1.52907       -0.737442
LJ          0.229236        -1.47494       -0.817017
LJ          0.508993        0.917533        0.207512
LJ          -2.40916       -0.966043       -0.655805
LJ           1.68032        -2.01983        -1.28186
LJ          -1.71393        -1.52448         1.61247
LJ           1.21896        -1.31039        -1.03305
LJ          -2.15277        0.685717        -1.22684
LJ           2.53963         2.33301       -0.226648
LJ          -2.21115       -0.971478        -1.95411
LJ         -0.033454        -1.34107         2.09252
LJ        -0.0863146           0.734        0.163745
LJ          -1.81729        -2.52094       -0.383114
LJ          0.723095        -1.17548        -0.79162
LJ          0.103638         1.33452         2.12912
LJ           1.07312         2.34307          2.0311
LJ          -0.91882        -1.97612       -0.198715
LJ          0.483429         -0.4021         2.25825
LJ           1.75548       0.0926572        -0.36346
LJ          0.464738         1.74974        0.603349
LJ           1.72465         1.27863       -0.795834
LJ          0.994892        -0.70136       -0.890108
LJ           2.04944         1.16007         2.54255
LJ           1.24212        -2.11786       -0.224991
LJ            2.4524        -2.50205        -1.94222
LJ          0.382197         2.39776         1.43717
LJ            1.5874         1.83978        -1.70935
LJ          -2.50912        -1.02565        0.582945
LJ           2.30153         1.83765       -0.508249
LJ           1.94138       -0.168162        0.118013
