108
#Comment!
LJ          -1.27029        -2.47902          2.4938
LJ          0.192677        0.368019        -0.34184
LJ         -0.404884        -2.24155       -0.692529
LJ         -0.480451        0.792804        -1.64747
LJ           1.61136         -1.9616         -2.2954
LJ            1.0887        -2.52858        0.668352
LJ         -0.478667         2.00122         1.93673
LJ           1.92251       -0.799974        0.423335
LJ           1.08863       -0.852348         1.93507
LJ           1.86256        -1.77526         -1.7472
LJ              -nan            -nan            -nan
LJ           1.46363        0.557014        0.152403
LJ          -2.15356       -0.663376        -2.50466
LJ           1.52604       -0.335618        0.150402
LJ           2.07259         -2.2497        -1.04241
LJ         -0.641778         1.12844        0.227888
LJ              -nan            -nan            -nan
LJ              -nan            -nan            -nan
LJ           1.65306        -1.45647         0.72983
LJ              -nan            -nan            -nan
LJ          0.686959        -1.40486        0.443823
LJ           1.33491         1.58373        -2.18702
LJ           1.32657        0.295034        -2.47329
LJ          -1.62922       -0.586553       -0.323934
LJ           1.85077         2.49095        0.266999
LJ           -2.5032        -1.17545        0.180655
LJ            1.3106        -2.09262         2.15275
LJ          -1.01878        -1.22216       -0.594249
LJ           1.47838        -1.48046        -2.07325
LJ          -2.32978         1.49101       -0.266157
LJ           1.20002        -2.09134        -2.18397
LJ           -1.2202        0.191197      -0.0486945
LJ              -nan            -nan            -nan
LJ          -2.14746         -1.8497      -0.0628866
LJ              -nan            -nan            -nan
LJ          -1.69565        -1.63605         1.40529
LJ         -0.267403        -1.39357         2.03278
LJ          -1.97393         -1.8344        -1.46542
LJ          -1.47956      0.00762433        0.315575
LJ          -1.37826       -0.180867         1.61293
LJ            2.2273        0.959832        0.928276
LJ          -1.16895        -1.92388         1.05463
LJ          0.937369         1.76264        -2.04045
LJ           2.45869         1.94074        0.519029
LJ          0.118018         -1.7802         1.34537
LJ          0.785588        0.459253        -0.62656
LJ          -1.35569         1.76178       -0.491115
LJ          -2.10597        -1.21553        -1.64268
LJ          -2.10449        -2.44446          1.6435
LJ          -2.52141         1.87543        -2.19514
LJ          0.573004         2.11224        -1.84134
LJ         -0.853001       -0.260051         1.90102
LJ              -nan            -nan            -nan
LJ          0.699673        -1.51944          1.0901
LJ         -0.190576         1.66519          1.4539
LJ          -1.30159        0.110223        -1.72229
LJ          -1.22786        -1.20634      -0.0219955
LJ        -0.0866252       -0.852774        -2.21913
LJ           1.60193        0.673884       -0.964819
LJ           1.74724           1.485         0.79093
LJ          0.212164        0.336094         1.91208
LJ          -2.19771        -1.39543        -0.65553
LJ           1.18585         1.35995        0.412073
LJ          -2.01719         1.66631        -1.80877
LJ          -1.89422         1.89534       -0.377771
LJ           1.62449       -0.778081         1.86268
LJ          -2.36893         1.06981       -0.064152
LJ              -nan            -nan            -nan
LJ          -1.89976         2.50088         0.18133
LJ          -2.01924         1.77079        -2.54173
LJ         -0.266912         -0.3112         1.94066
LJ            2.5357        -1.50803         -2.2585
LJ        -0.0189559          -1.855       -0.772366
LJ           1.57089        0.864156         1.50491
LJ          -1.65181       -0.396234        0.959821
LJ          0.947592         1.67314       0.0222933
LJ           2.44657         2.21571       0.0405832
LJ           1.73292        -2.15756        -2.18899
LJ          -1.02412         1.50197        -1.59091
LJ          0.997599        -1.76415       -0.851612
LJ          0.640935        -1.62302         1.90242
LJ           2.52971         -0.1131         1.71624
LJ          -1.12797         1.60695         2.38625
LJ           1.35401          1.0506       -0.066739
LJ           2.12926         1.04957         2.54746
LJ          -2.10921        0.173583       -0.252123
LJ         0.0780131        0.757076        0.487952
LJ           2.07611       -0.340323       -0.563991
LJ          -1.72112       -0.881807        -1.82043
LJ          0.854414        -2.44963        0.604994
LJ              -nan            -nan            -nan
LJ          -2.46975      -0.0872704         1.19375
LJ        0.00956195         1.10922        -2.09945
LJ          -1.39815         1.03796        -2.34805
LJ         -0.942205         1.17233         2.02383
LJ           1.23057        0.846839         1.71412
LJ          0.431771         1.05798        0.352304
LJ         -0.743942        0.101869       -0.800039
LJ         -0.424257         1.63097        -2.28555
LJ           1.12855        0.373747        0.963145
LJ          0.447127        -1.35364          1.2009
LJ          -2.43017       -0.801448         2.40521
LJ          -2.40319        -2.31788         1.98747
LJ         -0.492265       -0.909899         1.74876
LJ           1.05919         2.19574         -2.1285
LJ           -1.5986      -0.0803243        -1.09947
LJ           1.77714        -0.65673         2.34922
LJ              -nan            -nan            -nan
