108
#Comment!
LJ         -0.365741         2.08505       -0.177674
LJ           2.03497         1.77291         1.93702
LJ          -1.81633        -1.75005         1.88874
LJ          -1.87166        0.169106        -1.66071
LJ           2.45396         1.14367       -0.958191
LJ           1.52879       -0.147903          1.5195
LJ           1.01387         1.91588         1.35677
LJ           2.36986       -0.775227        0.159917
LJ          0.459199       -0.573962        -1.05217
LJ            1.5571         1.89016         2.43567
LJ              -nan            -nan            -nan
LJ         -0.555006         -1.6144       -0.291831
LJ           -2.5371        0.850732         1.91956
LJ              -nan            -nan            -nan
LJ          0.205223         2.14383         1.42504
LJ              -nan            -nan            -nan
LJ              -nan            -nan            -nan
LJ              -nan            -nan            -nan
LJ          -2.46746       -0.224643        -1.54585
LJ              -nan            -nan            -nan
LJ          0.987168       -0.242075         1.24328
LJ           2.42194       0.0762133        -2.25871
LJ          -2.42844       -0.213709         -2.1098
LJ           1.96127        0.947151        0.165079
LJ           1.55106        -1.20541        0.222683
LJ         -0.885403        -1.40759        -1.36382
LJ         -0.748866        -2.43439         -2.3839
LJ          -2.19286         2.50857         -1.7231
LJ          0.869685        -2.50467        -1.21281
LJ         -0.107648        -2.52748         2.24604
LJ              -nan            -nan            -nan
LJ          -2.40444         1.59704         1.11387
LJ              -nan            -nan            -nan
LJ           1.37698      0.00523027        0.624997
LJ              -nan            -nan            -nan
LJ         -0.367103        -2.05063       -0.224378
LJ          -1.77034         2.30387       -0.982246
LJ           2.42681        0.908119        0.919595
LJ         -0.386221        -2.18301        0.184975
LJ            1.3818       -0.680911        -1.81582
LJ         -0.205843        -1.48787        -2.47723
LJ          -2.37054      -0.0711413       -0.624051
LJ         -0.420461        0.840355        -1.75643
LJ          -2.27854        0.498765       0.0484291
LJ         -0.353633        -2.47916         1.15136
LJ          -1.68518         2.51988         2.37518
LJ         -0.312255         1.96653          1.2616
LJ          -1.20137         1.47407          2.0553
LJ          -2.10504     -0.00754545         -1.3207
LJ         -0.499801         1.08723          2.2289
LJ          -2.08975        0.185799        -2.03854
LJ          0.326754         2.27936        -1.95032
LJ              -nan            -nan            -nan
LJ          -1.50337         2.46773         1.45307
LJ         -0.519897        -1.21587         2.17353
LJ         -0.618289         2.38288      -0.0690892
LJ           2.33504       -0.960677         1.04128
LJ         0.0300839         2.03771         2.43504
LJ          0.868445        0.747525        0.182902
LJ          -1.65948        -1.45769         2.24256
LJ          -1.05161        -0.33477       0.0222661
LJ           1.81085         2.36673         1.65609
LJ          -1.41116         2.47865       -0.890863
LJ          -2.55814       -0.730996        -2.44787
LJ              -nan            -nan            -nan
LJ           1.11781        0.494288          1.5579
LJ         -0.258808         2.45421       -0.224133
LJ              -nan            -nan            -nan
LJ          0.980981         2.29212         1.00981
LJ           1.50762        -1.80122        -1.82254
LJ          -1.60539        -1.08329        0.528242
LJ          0.922366       0.0160242        -2.42152
LJ          -2.00934        -0.87258         2.03338
LJ          -1.06023        -2.19554        -2.41782
LJ            1.7936        -1.87159        0.179253
LJ          0.513539         2.32484         1.36559
LJ          -1.70855        -1.05602        0.955473
LJ          -2.33762        0.458493        0.271096
LJ           1.71409         1.34322        0.294521
LJ          -1.47955      -0.0606528       -0.954809
LJ          -1.46086        -1.81078        0.186798
LJ         -0.393493        -0.75006       -0.295027
LJ           -2.3355        0.507321         1.02815
LJ          -2.36389        0.417928         1.28235
LJ          -1.78543         2.41884         -1.3092
LJ           1.57673         0.28276        0.767805
LJ          -1.87379          2.1703        -0.64163
LJ          -1.63486       -0.111929         0.59214
LJ           1.12576       -0.751961        -1.64516
LJ          -1.04975        -2.10793        -2.56283
LJ              -nan            -nan            -nan
LJ         -0.441155         1.74851         1.06721
LJ          -2.25727          1.6476        -2.24741
LJ         0.0612508        0.787579          1.9529
LJ           2.51531      -0.0896362         2.25281
LJ         -0.704853       0.0205584       -0.354888
LJ          0.321098        -1.64299        -2.29712
LJ          -1.92407         1.00105          2.1342
LJ              -nan            -nan            -nan
LJ           1.80367       -0.847478         1.01595
LJ         -0.359689       -0.720753          1.7406
LJ          0.391338        0.442909         1.54757
LJ        0.00571292         2.25065       -0.961983
LJ           -2.5185         2.21409       -0.320343
LJ              -nan            -nan            -nan
LJ           1.44846         1.60552        -2.37731
LJ          -1.05522       -0.574416         1.86166
LJ              -nan            -nan            -nan
