108
#Comment!
LJ          -1.67711          2.5342        -2.21104
LJ            0.7778       -0.429788       -0.196354
LJ           1.39642         2.38935         2.11558
LJ          0.343259        -1.42447         -2.2647
LJ          -1.71156       -0.409335         0.44065
LJ         -0.588084        0.793225       0.0278811
LJ          -0.42933         -2.1424        -1.64193
LJ            2.3724        -2.33259       -0.422449
LJ         -0.611898       0.0246659          -1.321
LJ          0.967319         1.14066      -0.0814291
LJ              -nan            -nan            -nan
LJ           2.23446        -2.15802        -2.15234
LJ         -0.182527        -1.79104       -0.325754
LJ         -0.140448         1.08519      -0.0703571
LJ        -0.0510778        0.395232         1.79311
LJ          -1.74265        -2.42418         2.37354
LJ           1.10233       -0.780137        -1.06721
LJ          -1.15006        -2.51185         1.49322
LJ          -1.04723       -0.535059         2.30499
LJ          -1.92188         2.05978       -0.437131
LJ           1.07687         2.36649         2.07179
LJ          0.328289        -1.21338         1.31089
LJ          -1.45265        0.985055       -0.903339
LJ         -0.398042         0.77638        0.893654
LJ          -1.81162        -2.46663        -2.26906
LJ          0.125255         2.22924         2.12299
LJ          0.959856        0.959016       -0.955191
LJ          -2.53037        -2.31609         1.74421
LJ          -2.45112        -2.51029       -0.690771
LJ          -1.94653        -1.85704         1.93385
LJ          -2.20248        0.237072         1.84817
LJ           1.98022         1.40171         2.46898
LJ              -nan            -nan            -nan
LJ          0.020687        -2.52147       -0.452114
LJ           1.56747        0.515528       -0.376268
LJ           1.03252         1.60342         2.43335
LJ          0.317219        -2.46854       -0.521325
LJ            1.3135         1.23574      -0.0772045
LJ           2.04998         0.80395        0.565456
LJ           2.47513         0.62436         1.61302
LJ          0.499652         1.27305        -1.19818
LJ            1.9038        0.226007        0.210378
LJ         -0.104123        -1.53908        -1.23613
LJ          0.714299        0.225151          -0.863
LJ           1.87063        0.482834        -1.95131
LJ            0.8144       -0.192253        0.711752
LJ          -1.01212       -0.665255      0.00970539
LJ         -0.132521       -0.616518       -0.360234
LJ        -0.0283531        0.769608        0.312019
LJ          0.663871       -0.476622         2.26682
LJ         -0.024118        -1.32118        0.280077
LJ        -0.0851349         2.17165         2.23542
LJ           1.88217        -1.29805        0.259507
LJ          -1.77745        0.614825        -1.87127
LJ          -1.36473        -2.50618         2.55179
LJ           1.15738         2.03624         1.57354
LJ          -2.38755       -0.434714        -1.90247
LJ         -0.162633        -2.16025     -0.00236948
LJ          0.708845        -2.51843        -1.15749
LJ        -0.0898743        -2.07859       -0.293514
LJ          -2.44957         1.26631         2.51981
LJ       -0.00880599       -0.315272         2.26012
LJ           1.84669         0.15063        -1.45048
LJ         -0.582853          0.5781        -1.78315
LJ          -1.26997        -1.58106        -1.71609
LJ          -2.27193        0.327016         1.75666
LJ          -2.39072         2.37974      -0.0714865
LJ           1.79495        -1.28505       -0.859198
LJ          -0.48567        -1.68422        -1.77036
LJ           1.04462         2.30013         2.12842
LJ           1.06225       -0.456099         0.76469
LJ          -2.18472        -1.70034         1.03588
LJ          0.486936        0.572908        0.411981
LJ          -1.86442         1.12593         1.12341
LJ           1.75314        0.862295        -1.62612
LJ          -1.32277         1.98491        -1.67069
LJ           2.15504        0.868791         -1.2722
LJ         -0.707669        -0.75902       -0.153451
LJ           1.57574         1.92396        -1.60907
LJ            -1.443         1.52741        -2.38522
LJ           1.42449       -0.194119        0.315498
LJ          -1.69073       -0.677784        0.400448
LJ           -1.7568       -0.380357         2.55144
LJ          -2.54703        0.456337        -2.14527
LJ          0.191462         2.16626         1.06467
LJ          -2.50048       -0.809534         1.35848
LJ          -0.71868        0.207108        0.482586
LJ           1.98792        0.505805         1.47917
LJ           2.55003         2.34127        0.295021
LJ         -0.613663        -0.72957        0.582166
LJ          -2.27084        -1.98947       -0.200591
LJ         -0.960931        -2.53416        -1.95548
LJ          -1.26022        0.757853          0.9114
LJ          0.737238        0.346479         2.46229
LJ         -0.646717       0.0406996        0.942386
LJ           1.80658         1.77261       -0.663082
LJ           1.04214        0.138896       -0.904978
LJ           1.57987        0.965449        -1.05823
LJ          -1.60322        -0.66585         1.68676
LJ        -0.0910561        -1.11257        0.798375
LJ           1.23371        -1.87922          -1.669
LJ           2.46318       -0.998524        -1.60342
LJ          -2.54281       -0.182538        -1.19677
LJ           1.24024         2.03917        -2.52404
LJ          -1.63253        -2.33922         2.36789
LJ          -1.98771        -2.50259         1.29428
LJ          0.700534        -2.27706         1.31619
LJ         -0.487791         1.14458         1.07954
