108
#Comment!
LJ        -0.0506913        -1.12294         -1.3027
LJ           2.09415        -2.39003        -2.05851
LJ           1.93725       -0.879555         2.22084
LJ         -0.188299         0.04719        -1.81651
LJ          -1.31626       -0.759544        -2.21868
LJ          0.189782         2.33949       0.0418624
LJ         -0.176436       -0.178643       -0.412763
LJ          -1.85304         2.40362       -0.812081
LJ            1.8912         1.17051         1.36961
LJ         -0.802697         1.60965         2.37071
LJ              -nan            -nan            -nan
LJ          0.721844      -0.0672879        0.880227
LJ           1.62633        -1.42943        -1.43356
LJ          -2.10979        0.668104       -0.582064
LJ           2.21097        0.579255          1.0109
LJ           1.20853        -1.62573        -1.42718
LJ           1.10369         1.72249        -1.71075
LJ           -2.3575         2.23851        0.695252
LJ           2.38238        -2.29733         2.32854
LJ          0.363258         1.96415        -2.00128
LJ          0.403828         0.20511       -0.564231
LJ          -1.85422        0.503328         2.55862
LJ          -1.85525         1.65265        0.255175
LJ          0.409364       -0.624504        -1.88396
LJ          -1.77561         2.15267        -1.18952
LJ         -0.100103        -2.50415       -0.772676
LJ         -0.434441        0.736935       -0.194835
LJ           2.06698      0.00386139        -1.67417
LJ          0.850043       -0.284537        -1.27908
LJ          -0.11416        -1.50838        -2.40247
LJ          -0.26013       0.0168827         1.27682
LJ           2.03474        -2.01887        -1.33143
LJ              -nan            -nan            -nan
LJ           1.34191       -0.911848        0.807969
LJ           2.08621        -2.14331         -2.0569
LJ           1.24192         1.11178        -1.61897
LJ           1.83364       0.0832865         1.81599
LJ          0.966991         1.62016         2.48158
LJ           -1.2243           1.267         2.35418
LJ         -0.493202        -1.31971          2.1944
LJ            -0.804        -2.17603        -2.35914
LJ           1.46505       -0.817181         2.36215
LJ           -0.4262        -2.46908         1.38563
LJ         -0.836267         2.30925         1.89573
LJ          -1.94305        -1.10106        0.542931
LJ           2.22862        0.513797         1.07523
LJ          0.123839        -1.44598        0.254309
LJ           1.08237         2.56258        -1.33876
LJ         0.0699182        -1.40933         0.08069
LJ           1.45953         1.79692       -0.269948
LJ         -0.738251       -0.534637         1.36458
LJ           0.13985        -0.59312         1.63356
LJ          -1.78009      -0.0762319        -2.43692
LJ           -1.6967        0.624762       -0.682999
LJ         -0.391874         1.74146      -0.0236633
LJ         -0.304686         1.13907         1.52561
LJ            2.0903       -0.921875        0.694735
LJ         -0.359848        -1.03464        0.347971
LJ           2.33598       0.0379723        -1.26853
LJ          -1.04797         2.00573         2.43323
LJ           0.93856        0.547656       -0.346341
LJ         -0.385115        -2.29037         1.45695
LJ          -2.05111         2.41063        -2.32409
LJ          -1.86365         1.79933        -2.44063
LJ          -1.14395        0.962175         1.50217
LJ          -1.37702         1.74923        0.466947
LJ        -0.0349391         -1.8773        -1.51929
LJ           1.63272        -2.33917       -0.699385
LJ          -1.85666       0.0756134        -1.35664
LJ          -2.04772       -0.453598         1.32918
LJ          -1.24305        -0.67412        -0.99072
LJ         -0.215414         2.37582        -1.91149
LJ          -1.81745         2.32301        0.736348
LJ          -1.34087         1.66246         2.33117
LJ          -2.16137       -0.903463       0.0504946
LJ         -0.899132         2.43048         1.02805
LJ          0.599879         1.93219        -1.68086
LJ          0.887145        0.273898        0.457461
LJ          -1.88284         1.71369        -1.49203
LJ          -1.91429          2.4769       -0.385681
LJ          -1.14367        -1.43618       -0.845012
LJ            2.3958         1.51005        0.273382
LJ         -0.883161         2.39672        -1.70233
LJ           2.14073        0.180114         2.09927
LJ           2.55152       -0.270652         1.11195
LJ          -1.76306     -0.00347186        -1.66292
LJ            1.6743        -0.33355        -1.77522
LJ        -0.0439798       -0.530924      -0.0949884
LJ         -0.858531         1.78098         2.35119
LJ           1.94729         2.25663        -2.15335
LJ          0.127409         2.35438        0.178813
LJ          -2.43602         -2.0306         1.42116
LJ          0.665527        0.813145       -0.855279
LJ          -1.08703        0.903826         2.22077
LJ           1.60454        -1.03491        -2.24137
LJ         -0.624304        -1.19916        -2.37935
LJ           -2.4037         1.80108        0.280855
LJ           1.95561         1.06207         1.97422
LJ           1.14003        0.686093        0.701692
LJ          -2.17081         1.33776         1.72948
LJ           1.67935        -1.70609         -1.4834
LJ         -0.915024        0.272016         1.56991
LJ           1.52097       -0.630031        -2.12208
LJ           2.43934         2.00516        -2.27016
LJ         -0.195143         2.44503         2.38654
LJ           1.26631        0.198203       -0.221719
LJ          -1.95471        0.628836        -1.87263
LJ          -2.02454         -1.6838         -1.9723
