108
#Comment!
LJ         -0.174965          1.0756        -2.19186
LJ       -0.00081248        0.620529      -0.0983095
LJ           2.19002         1.15994        0.790214
LJ           2.29041         -1.4681       -0.399331
LJ         -0.538925        -1.94234          1.9288
LJ           2.35455       -0.909059      -0.0286671
LJ          -1.20927       -0.440272        0.306888
LJ          0.877677        -2.26744        0.721633
LJ           1.78479         2.16608        -1.81576
LJ          -1.91861       -0.121802      -0.0962293
LJ              -nan            -nan            -nan
LJ          -1.71647        0.908948         0.26832
LJ          0.633298          1.5576       -0.822986
LJ           0.45581        0.137066        0.155406
LJ          -2.08577         0.15618        0.232917
LJ              -nan            -nan            -nan
LJ              -nan            -nan            -nan
LJ              -nan            -nan            -nan
LJ           2.00851        0.172937        -0.12416
LJ              -nan            -nan            -nan
LJ          -2.38672        0.682774         2.23612
LJ          -2.39477        -2.22981         1.35932
LJ          0.223309       -0.779753        -1.30184
LJ           2.34773         -1.6177        -1.91835
LJ         -0.853642          2.5295        -0.86027
LJ          -2.54678       -0.769317         1.56174
LJ           2.17323        -1.08894        -1.05918
LJ          -2.07559       -0.800639        -1.74034
LJ          0.139885       -0.563967        -2.04439
LJ          0.319123        -1.90549         1.74581
LJ         -0.476654       -0.171792        0.695092
LJ         -0.448155      -0.0879031        0.695912
LJ              -nan            -nan            -nan
LJ           2.02719        0.354724         0.31376
LJ              -nan            -nan            -nan
LJ          -2.17418        0.638444        0.829258
LJ           1.26905         1.69776         2.56126
LJ           2.07173         1.16904       -0.588416
LJ           1.72719        -2.06611        -1.54885
LJ         -0.742048         2.14374         1.97151
LJ           1.81864         1.47711        -2.47893
LJ         -0.627102        0.472058        -1.97953
LJ         -0.695479        0.710771        0.807028
LJ         -0.305148        -1.05093         1.70819
LJ          -1.79697        0.147126        -1.96192
LJ          -2.50534         1.39728        -1.19179
LJ          -1.43638          2.4294        -2.30676
LJ          0.657746        0.617499         2.44588
LJ          -1.20233         1.95389        0.855885
LJ          -1.81738        0.250608       -0.270978
LJ            1.0849         1.51442        -2.48185
LJ         -0.405364        -1.19801        -2.02279
LJ              -nan            -nan            -nan
LJ         -0.938306         1.91513         1.65949
LJ          -2.18154        0.571146       -0.801637
LJ         -0.730466         -1.7312         1.85667
LJ         -0.853695        -1.09073        0.446971
LJ            2.4459        -1.84031        -2.40126
LJ          -1.84306         2.25815         2.05832
LJ             1.029         0.33477        -2.00659
LJ          -2.22998      -0.0305976        -1.98503
LJ         -0.787656        0.802341        0.422051
LJ          0.178535          -2.355        -1.51132
LJ          -1.53046        -2.40517       -0.261152
LJ           1.93435         2.06885       -0.826931
LJ          -2.53397       -0.451077         1.04073
LJ           1.25621        -1.45172       -0.169792
LJ              -nan            -nan            -nan
LJ          -1.67383         1.33345       -0.411948
LJ          0.183921        -2.46226       -0.537612
LJ         -0.822886        -1.10387         2.27455
LJ           1.91197         2.32217        -2.23455
LJ            1.8644         1.18645        -2.19928
LJ            -2.164        -1.91379        -0.58505
LJ           0.41229        0.718758       -0.660924
LJ         -0.331763         2.35485         1.17248
LJ          0.200296       -0.145084          1.1272
LJ           2.43237        0.968362       -0.173288
LJ           2.56458       -0.681446          1.2642
LJ          0.147946        -2.44238        0.449126
LJ          -2.37004        -0.81675       -0.591132
LJ          -2.54598         2.46375         1.01599
LJ        -0.0559583        0.905058         -1.6522
LJ           1.16378         2.39742        -2.32509
LJ           1.92181        -0.91772         2.13166
LJ           1.96824       -0.431536         1.90904
LJ           1.63667         2.30656        -1.63291
LJ         -0.695804        -1.90279        -2.50767
LJ          0.442096        -2.33438        -1.96768
LJ          0.720628       -0.578499        -2.32959
LJ              -nan            -nan            -nan
LJ         0.0463228         1.23313       -0.601681
LJ          -1.82314      -0.0134221         1.59055
LJ           0.10001        -1.39449        0.177934
LJ             1.293       -0.900658         1.93958
LJ          0.948565        0.237141        0.474425
LJ          0.624772       -0.238204        -1.49842
LJ          -2.19812         2.40512         1.63957
LJ              -nan            -nan            -nan
LJ          -1.88842        -2.46452         1.77786
LJ          -1.47356         2.52605         2.48246
LJ         -0.555309        0.741379         1.44784
LJ          0.333331         1.54986        -1.56685
LJ          -2.39123         1.44796      -0.0617992
LJ          -1.58714         2.46836         2.37163
LJ          0.203886        -2.55479       -0.703156
LJ          0.824151         2.17254         -1.7845
LJ              -nan            -nan            -nan
