108
#Comment!
LJ          -0.19748         2.23307         2.35778
LJ           1.57302      -0.0825736       -0.231603
LJ         -0.833511        0.799326          2.4848
LJ          0.162195       -0.549461        0.184654
LJ         -0.993919        -1.51058        0.743446
LJ           0.92674      -0.0270204        0.611624
LJ          -2.22273       -0.106377       -0.840523
LJ         -0.392225       0.0627293       -0.289394
LJ          0.160741         1.94636         1.08293
LJ          0.904116        -2.20787         1.87879
LJ              -nan            -nan            -nan
LJ           2.16688        -1.43903        0.199433
LJ          -1.53175       -0.465737        -1.34253
LJ              -nan            -nan            -nan
LJ           2.15781        -1.43096       -0.620137
LJ              -nan            -nan            -nan
LJ              -nan            -nan            -nan
LJ              -nan            -nan            -nan
LJ          -2.49704         1.72531         1.57299
LJ              -nan            -nan            -nan
LJ          -1.96308         1.39197        -1.13524
LJ           1.58484       -0.366761         -1.8882
LJ         -0.942447        0.439115       -0.943213
LJ              -nan            -nan            -nan
LJ         -0.916326       0.0315839         1.34149
LJ         -0.841901     -0.00476972       -0.764591
LJ           2.12485         1.07295         1.66299
LJ          0.323602         0.64886         2.12212
LJ          0.802713         2.10382        0.991139
LJ         -0.319972          2.3595         -2.3876
LJ              -nan            -nan            -nan
LJ          -1.40126        0.983923         2.48448
LJ              -nan            -nan            -nan
LJ           -1.7875       -0.982564         -1.2966
LJ              -nan            -nan            -nan
LJ           0.51525        0.289242        -1.36462
LJ           2.53929       -0.733822        -1.94487
LJ            1.7667         1.71728       -0.276881
LJ         -0.726946       -0.270733         1.63596
LJ           -0.9703        -2.12703        -1.38518
LJ          0.715596         1.29965        0.306207
LJ         -0.937667        -1.42988        0.754835
LJ           2.35083        0.150934         1.58282
LJ          0.380836         1.42283        0.782012
LJ           2.02317      -0.0922688        -1.06729
LJ           1.98096        0.601687       -0.730533
LJ          0.938427        -1.84129         1.06681
LJ          -1.71828       -0.686857         1.18527
LJ          -0.89167        -2.53738         1.01466
LJ          -1.79403       0.0260707        0.613896
LJ           1.78779        0.776344       -0.565173
LJ          -1.42076       -0.196048         2.02265
LJ              -nan            -nan            -nan
LJ          0.472772         1.64667        -1.85237
LJ          -2.01257         -1.9728        -2.38838
LJ         -0.155843          1.6553       -0.711969
LJ        -0.0642864        -1.55773        -2.26054
LJ          -1.85066         1.69316        -1.59609
LJ          0.637464        -1.54725         2.07073
LJ         -0.590943       -0.928709        0.616831
LJ           2.16999          2.5629         1.72543
LJ           -2.0463        -2.08693        0.911791
LJ         -0.644054       -0.771262          1.9979
LJ              -nan            -nan            -nan
LJ              -nan            -nan            -nan
LJ          0.482159        0.260833       -0.626249
LJ           2.46894       -0.977836        0.363344
LJ              -nan            -nan            -nan
LJ          -1.56477         1.61152        0.565065
LJ         -0.568331        -2.03879        -1.94787
LJ           2.12909         1.43524        -0.78317
LJ           2.50303         1.29889       -0.916905
LJ          -1.71358         2.47812         1.51879
LJ           1.26666       0.0441652        -1.69233
LJ       -0.00226507        -0.90384        0.432722
LJ          -1.45705       -0.666052       -0.164608
LJ         -0.916816         1.10087       -0.312313
LJ         -0.408767         1.21073       0.0177814
LJ          -0.81614         2.32201        -2.21734
LJ           2.44527        -1.72165        0.875509
LJ         -0.659035        -1.10829         2.36432
LJ          -2.28591        -2.16423        0.624312
LJ       -0.00884493         1.71521        0.268006
LJ          -2.19434         0.25947        0.698391
LJ          -1.90762        -2.18178          1.8362
LJ          -1.26619        -1.51643        -1.80574
LJ          0.659795         2.25878       -0.415836
LJ          -2.03044        -1.69325          -1.144
LJ           2.00934         1.79289        -2.49596
LJ         0.0387842        0.975102        -1.29847
LJ              -nan            -nan            -nan
LJ           1.02317       -0.736915        -1.22172
LJ          -1.77979        -1.51096        -1.88764
LJ          0.913438       -0.971974         2.46307
LJ          0.633193        -2.31443        -1.28382
LJ         -0.899135        -2.45091        -1.00786
LJ         -0.979719        -2.08143        -1.68481
LJ          -2.16676        -1.05084       -0.904066
LJ              -nan            -nan            -nan
LJ          -1.09689       -0.373007         2.13426
LJ         -0.223294        -1.44566         1.06494
LJ           1.43661         2.08511        -0.73386
LJ          0.333736       0.0566323        0.230924
LJ        0.00106844        -2.19585        -1.18952
LJ              -nan            -nan            -nan
LJ           1.83711       -0.416719        -1.26527
LJ          -1.13742        0.907986        -1.66203
LJ              -nan            -nan            -nan
