108
#Comment!
LJ           1.96292         1.32083         1.41822
LJ          -1.21056        -1.14484          1.4749
LJ          0.889472        -2.51484        0.850834
LJ           1.26401        -1.90615        0.361619
LJ          0.332755         1.90476         2.47903
LJ            2.0139         1.31376      -0.0429732
LJ          -2.37524         2.35113         -2.2438
LJ          0.300544       -0.355893        0.475864
LJ           1.12179         2.02231       -0.936768
LJ          -1.62711         2.17623        -2.28878
LJ              -nan            -nan            -nan
LJ          -1.50902        0.643115       -0.716713
LJ         -0.203531        -1.78046        -1.41273
LJ              -nan            -nan            -nan
LJ           1.82607       -0.746864        -1.37878
LJ              -nan            -nan            -nan
LJ              -nan            -nan            -nan
LJ              -nan            -nan            -nan
LJ          -2.24998       -0.206492         1.47361
LJ              -nan            -nan            -nan
LJ          0.250481          1.8495         0.13113
LJ          0.440199        -1.84925        -2.21851
LJ          -1.98078          1.7314        -1.73227
LJ           2.43287       -0.788711        -1.70067
LJ           2.46722        -1.58521       -0.767017
LJ         -0.321743         2.37498       -0.242468
LJ           2.06561       -0.630894          1.5497
LJ          -1.48298       -0.956969        -1.03103
LJ           1.35176         -2.4766         2.43775
LJ           2.39976        0.198668          2.1413
LJ              -nan            -nan            -nan
LJ          0.838049        0.280594          2.4111
LJ              -nan            -nan            -nan
LJ          -2.15941         1.10011        -1.93795
LJ              -nan            -nan            -nan
LJ          -1.67603        -2.25994         2.05145
LJ           2.18193         1.66168       -0.462535
LJ           1.63282         1.79935       -0.585443
LJ         -0.843738        0.123484         1.99367
LJ           1.13968        0.743174         1.96316
LJ          -1.82889       -0.707538      -0.0594449
LJ          -1.08805         2.35871       -0.574012
LJ           1.57338         2.56256        0.193236
LJ          -1.10002       -0.635289       -0.882006
LJ         -0.501164       -0.973708        -0.60711
LJ          0.637677        0.670137        -2.20201
LJ           2.37603        -1.45079         1.00641
LJ          -1.39115        0.136345       -0.457527
LJ           2.33009        -2.39622        0.385383
LJ          -2.27932        0.363718          2.3028
LJ          -1.16855       -0.224832         1.88882
LJ           1.58197         2.22591         -2.4098
LJ              -nan            -nan            -nan
LJ         -0.186061        -1.05394         2.28233
LJ          -1.52507          1.1242         2.03547
LJ          0.559508          1.5516        -1.37165
LJ          -1.33718        -2.01801        -1.87259
LJ           1.18188        -2.12674          1.6168
LJ         -0.411745        0.363683        -0.67549
LJ         -0.565141        -2.07432       -0.663562
LJ           -1.2668       0.0113495         2.37213
LJ           1.44037        -0.69586        -1.40892
LJ           1.06377         1.22452        0.937098
LJ           1.60051        -1.89202         1.29928
LJ              -nan            -nan            -nan
LJ           -2.1413         -2.4162         1.14631
LJ         -0.568635         1.79819       -0.188144
LJ              -nan            -nan            -nan
LJ          0.287425        0.444856       -0.596134
LJ          -1.46064        0.711217       -0.612371
LJ          -1.43152        0.557775         1.28799
LJ          -1.33338       -0.113527        0.566883
LJ         -0.273263         1.70466         1.85842
LJ          0.420089       -0.481362        -1.83857
LJ          -1.14383         1.12457         1.62627
LJ          -1.02544        0.175084         1.08535
LJ           1.35395        -1.48713         1.53939
LJ           0.10633        -2.44593        -0.37126
LJ           1.85945        -1.41961         1.14834
LJ         -0.189875       -0.197351        -1.68284
LJ          -2.18254         2.02987         1.74261
LJ           1.49385        -1.10977         2.28534
LJ          -2.04114        -0.31545         2.55422
LJ           1.88053        0.240185         1.78232
LJ          -1.94966        -2.34464         1.03564
LJ           1.13594        0.404004        -2.30304
LJ         0.0282893        0.811394         1.78239
LJ         -0.551864            1.93         1.02653
LJ          -1.50627         1.71811        0.607177
LJ           2.31201         1.42515        -2.04283
LJ              -nan            -nan            -nan
LJ           1.74144         1.64413        -1.52683
LJ         -0.185057        0.990075         1.96955
LJ          -2.20618         2.42118        -1.20389
LJ           -2.0494        -2.38054         1.63129
LJ       0.000211159         1.33941        0.459601
LJ           2.44994        0.588661        0.463834
LJ           2.07694         2.31831        -2.52225
LJ              -nan            -nan            -nan
LJ         -0.625262         1.69295        -2.23461
LJ             1.839         1.59361         1.59061
LJ           1.97077       0.0386482        0.646448
LJ           2.47831        -2.24393        -2.24358
LJ          -1.88075        -1.82612        -1.40453
LJ              -nan            -nan            -nan
LJ           -2.4805       -0.693728       -0.919633
LJ          0.730567        -1.95927       -0.172265
LJ              -nan            -nan            -nan
