108
#Comment!
LJ          -2.27589       -0.627682         1.63249
LJ            1.8125        -1.85138        -1.24918
LJ        -0.0134475       -0.568828         1.60234
LJ           1.91542         -2.0328        0.707998
LJ           2.05924       -0.615432        -1.21704
LJ            1.6788        0.307388         1.87366
LJ          0.468708         -2.3679         1.10897
LJ         0.0750091        -1.98807       -0.944744
LJ            1.8942         1.92758        -2.09943
LJ         -0.773494        -1.18332         1.93066
LJ              -nan            -nan            -nan
LJ          -1.93987        -2.25474        0.508011
LJ          -1.43436         2.55764         1.16421
LJ           1.11429          2.3497         0.47759
LJ           1.84189       -0.114162        -2.45995
LJ         -0.107802         -2.4314        -1.47504
LJ         0.0395093        -1.49917         1.86964
LJ          -2.44888        -0.85117         1.76966
LJ           2.53755          1.5361         1.68841
LJ          -2.06477        -1.16351       -0.593282
LJ         -0.344137        -1.66831          1.0089
LJ           1.98679         1.90465       -0.598195
LJ          -2.09685         1.44683         1.08507
LJ          -1.01094       -0.155672         2.25182
LJ           2.09354          2.4217        -1.68384
LJ          -1.30773       -0.957879        0.310682
LJ         -0.266124        -1.93225         1.00125
LJ          0.370234       -0.507027        -1.28529
LJ          -1.09313         1.90366       -0.125163
LJ           2.37889       -0.751481         2.34265
LJ          -1.06384         0.68093       -0.522738
LJ          -1.77508       -0.196761        -1.90815
LJ              -nan            -nan            -nan
LJ           1.62676        -0.73231        -2.40597
LJ           1.93884       -0.955808       -0.944217
LJ          0.299691         2.46001        -1.64398
LJ          -1.89884        0.802448        -2.49328
LJ          0.159459        -1.03164          2.2129
LJ          0.882377        0.649839        -1.10272
LJ          -1.28974        0.467693         1.40466
LJ           1.29969         -1.9564        -0.61195
LJ           2.32087         1.08776      -0.0672688
LJ         -0.942822         0.02213        -1.04802
LJ         -0.052002        -1.51984         2.46285
LJ           2.42877        -1.35434        -2.39617
LJ          0.313089        -2.20751        0.868646
LJ          -1.36925       -0.490682        -1.37231
LJ         -0.841026        0.433334        -2.16016
LJ          0.452078        0.148192        0.824896
LJ          -0.19955         2.09806        -2.51967
LJ         -0.470244         2.53124         -1.6497
LJ          -2.01888        -0.11783        -0.20762
LJ          -1.39088        -2.30352       -0.959002
LJ           2.24038         -1.9061        0.883429
LJ          -1.49053       -0.850638       -0.910367
LJ            0.1174       -0.389899        -1.58489
LJ           2.34775         1.51806        -2.39709
LJ           1.32643       -0.466843        -1.23302
LJ          -1.59624        -1.97963        -2.32198
LJ          -1.95265         1.23006         1.60861
LJ          0.401877      -0.0284326        -1.79659
LJ          -1.58884        -2.12522        -1.49651
LJ          -1.74329        -1.96792         1.10392
LJ         -0.449426       0.0197633        -1.20098
LJ          -2.30317         2.53957         2.34128
LJ            1.7592        -1.36673       -0.345301
LJ            1.3388       -0.864571        -1.61832
LJ           1.17284        0.748124        0.384569
LJ          -1.78119         2.11132       -0.148895
LJ         0.0941598       -0.157074          2.4647
LJ          -1.67631          2.1861         -2.0238
LJ          -1.66882      -0.0305264         1.15113
LJ         -0.962147        -1.25957        0.614005
LJ          -2.16682        0.344371        0.628705
LJ           2.07276       -0.684185        0.673575
LJ            1.4945        -2.32941         2.23574
LJ          -2.02486       -0.917717         2.30342
LJ           1.46335      -0.0842321         2.01113
LJ          -2.27618       -0.423245         2.02879
LJ         0.0105883        -2.07286         1.29608
LJ           2.30893          2.5074        -1.21903
LJ           1.44682         1.28736         1.06142
LJ          -2.54456        -2.08389         0.50475
LJ           2.14332         1.58258        -1.46723
LJ         -0.350619        -2.07916         -1.3184
LJ           2.33149         -2.5516        0.723204
LJ          0.792338        0.689749         1.32628
LJ          -0.26294         2.03549        0.623094
LJ           2.19862      -0.0905851         2.16762
LJ           2.34541       -0.451438         0.48055
LJ           1.99326        -1.23255         -1.6625
LJ         -0.931065         1.93153      -0.0664958
LJ           2.09323        -0.39818         1.32171
LJ          0.537975         1.34391        0.776163
LJ            1.7872         2.39323         1.91473
LJ           -1.9843       -0.879383         1.41551
LJ          -2.35987       -0.448075        -1.44234
LJ           1.47892       -0.168075         1.41281
LJ           1.52942        -0.47858       -0.805675
LJ          -2.32021       -0.604372       -0.541337
LJ           2.22512       -0.184474        -2.11162
LJ          -1.46399      -0.0955313        0.399743
LJ          -0.40261         1.03062      -0.0419827
LJ          -1.81055        -2.42425         1.95773
LJ          -1.51823         1.23249         1.51009
LJ           1.06964         1.72013         2.40242
LJ           2.00436        -1.78008        0.441341
LJ          0.699164         2.37204       -0.172968
