108
#Comment!
LJ          0.309795        0.905816         1.76618
LJ          -1.07214        0.455621          0.2642
LJ          -1.66744       -0.710194         2.13114
LJ         -0.152454         1.17256        -1.79817
LJ          0.666194       -0.596065        0.884013
LJ          0.189424         2.48147         2.35342
LJ         -0.227587       -0.280192        -1.67122
LJ          0.784958         2.09263       -0.245718
LJ          0.531008        -1.88679        -1.96133
LJ          0.838177        -1.71403        0.868118
LJ              -nan            -nan            -nan
LJ         -0.630014         1.21632         2.16138
LJ          -1.92056        0.489085          1.7113
LJ          -1.13727       -0.572067         1.72495
LJ           1.47115         2.44429         1.28046
LJ           1.45467         1.33009         1.44927
LJ              -nan            -nan            -nan
LJ          -1.52506        0.312148         1.54866
LJ           1.71841       -0.557251         2.38708
LJ              -nan            -nan            -nan
LJ           0.21476        -1.77413        -1.25825
LJ            -1.603         2.29824       -0.217713
LJ           2.13752         1.08283        -2.09238
LJ          0.671899        -2.50443         2.46564
LJ           -1.0245         1.32751         2.49943
LJ           1.14277        -1.15064         1.33445
LJ           2.23789        -1.27168        -2.37223
LJ          0.498286       -0.131306         -2.1783
LJ         -0.715063       0.0989904       -0.947701
LJ          -1.91233         1.74411        -1.64999
LJ          -2.25955        0.922176         1.97448
LJ           1.73325        -2.15584         1.48487
LJ              -nan            -nan            -nan
LJ          -2.31703          2.4728        -2.54363
LJ              -nan            -nan            -nan
LJ         -0.854813         2.08921        0.219757
LJ          -2.26753         1.89714         1.84816
LJ         -0.727823         2.03224        -2.44916
LJ           2.15498         1.52938          1.6699
LJ           1.16417       -0.684254        -1.81296
LJ         -0.916455        0.358212         1.51653
LJ          0.652416        -1.26669        0.783546
LJ          0.366228         2.19045        -2.46104
LJ           2.19261         1.28723        -1.85424
LJ         -0.552246        -1.66733        0.255418
LJ         -0.970343        -1.79424         1.79065
LJ           2.52752          2.1148          2.5273
LJ         0.0567933        -1.42467        0.817785
LJ         0.0765475        -1.75537         1.80222
LJ            1.5423       -0.697769        -1.25996
LJ          0.202066        0.147269        -1.66661
LJ          0.657554       -0.253128         2.26723
LJ              -nan            -nan            -nan
LJ          -1.28872       -0.263892          2.3867
LJ          -2.33026        -1.47396       -0.304351
LJ           2.40642        0.572998        -1.34633
LJ           2.08326         1.37311        -1.50463
LJ         -0.515142        -1.73009        -2.35833
LJ           2.29208        0.502975         1.70889
LJ            1.1374       -0.585251        0.516531
LJ           1.12735        -1.97486        0.133388
LJ         -0.315584         2.32077        -1.25884
LJ           2.48661         2.09037         2.11795
LJ         -0.774368        0.351394        0.186508
LJ         -0.720922       0.0609741         2.46489
LJ        -0.0711061        -2.37996        0.926115
LJ          -1.94136         1.45762        -1.90603
LJ              -nan            -nan            -nan
LJ           1.17778       -0.810475        0.452473
LJ          -0.83805         2.06884         2.00596
LJ         -0.286808        -2.06861        -1.41264
LJ           1.84881         2.11204        -2.53427
LJ           2.06887       -0.514062         2.32503
LJ        -0.0647639        0.600048         2.10142
LJ           2.38888         1.36451         1.85235
LJ          0.980587         2.52834        0.465385
LJ          -1.48575         1.21464       -0.758787
LJ           1.63803        0.263859         2.30245
LJ          -1.12656        -1.63521         1.66265
LJ          -1.39084         2.24056         1.87499
LJ         -0.074224        -1.32881       -0.752148
LJ           1.24379        0.654338       -0.689305
LJ           2.09654        -1.72339       -0.923852
LJ          -1.72593         1.67072         1.06775
LJ          -1.43537         1.38484         1.34559
LJ         -0.159769       -0.744403         -1.3501
LJ          -1.96812        0.326955       -0.672992
LJ          -1.49394         1.34042       -0.892124
LJ          0.767746         2.33563          2.4341
LJ          -2.42802       -0.480436        -2.13007
LJ              -nan            -nan            -nan
LJ           0.47857       -0.978031        0.575341
LJ          0.359703       -0.837366        -1.48593
LJ         -0.812069        0.759451         1.09162
LJ         -0.124008         1.51584        0.819745
LJ          0.750883        -2.17009        0.286687
LJ          -1.89907         1.72383        0.612352
LJ          -1.65053        -1.35127       0.0275554
LJ          0.636164         1.72488          1.8505
LJ           1.84113         1.42904         1.30879
LJ          -1.95545         2.06127         1.39014
LJ           1.34536         1.49405        -1.09518
LJ        -0.0798082       -0.277279         1.92724
LJ           1.15848        0.148744        -2.03121
LJ          0.471514       -0.403416         1.51821
LJ          -2.08528        -2.04657       -0.588776
LJ            1.6784        -2.15394        -2.27124
LJ           1.35302       0.0397699         1.18774
