108
#Comment!
LJ          -2.08744         2.41524       -0.745055
LJ           2.20679         0.41364       -0.823039
LJ         -0.184319         1.66776          2.3247
LJ          0.749248         2.06834       -0.344746
LJ            0.2085       -0.214717         1.13221
LJ           2.21676        -1.54409        0.483953
LJ         -0.439395        0.580207        -1.89351
LJ          -1.79644        -2.48749        0.289249
LJ          0.295814       -0.720207        -2.47261
LJ          0.602041       -0.684642        -0.83731
LJ           -2.3337        -1.65558        0.075056
LJ         -0.757075         1.49373        -1.57681
LJ         -0.814768          2.0615       -0.063875
LJ           0.96974         2.37063         1.32097
LJ          0.162846         1.97183          1.7397
LJ          -1.71581        -2.16662       -0.304376
LJ           2.07213        -1.54906         -1.8658
LJ         -0.214269       -0.487492      -0.0190836
LJ           1.75609        0.936425        0.502873
LJ          -1.41903        0.956669         -1.0639
LJ           1.23719        -2.20957        -1.19844
LJ          -1.95466        -0.10418         1.68477
LJ           2.55366        0.159171         1.60426
LJ          0.418035          1.3618        0.964542
LJ         -0.720219        -0.43732         2.33226
LJ          -1.83616          2.4431         1.00101
LJ         -0.963468       -0.470684         1.75133
LJ           2.25516         1.72327        -1.75238
LJ            1.4713        0.624717        -1.13406
LJ          0.399522        0.187571         1.05105
LJ          0.800509        0.108698        0.973709
LJ          -1.62917       0.0553565        -2.35761
LJ          0.743953        -1.16733       -0.536766
LJ         0.0551682        -0.49815       -0.119046
LJ         -0.920166        -0.91284        -1.37822
LJ        -0.0317346        0.327918        -1.61742
LJ         -0.465122        -1.81425        0.876054
LJ         -0.141715         1.60788         1.84439
LJ         -0.355616        -1.14539        -2.14944
LJ          0.814133        -2.42961        0.615614
LJ          0.270046        0.959346         1.37655
LJ          0.799649        0.672909        -2.34642
LJ          -0.85406         -1.3736         2.08564
LJ           1.72603        -2.51423         1.74571
LJ         -0.127509        -1.01716         2.14831
LJ            2.0058        -1.05647      -0.0986279
LJ          0.127591         2.50623        0.389226
LJ            1.0269       -0.236002        -2.43991
LJ           1.05848        -0.42263        -1.34533
LJ          -2.26835       -0.626492         2.48285
LJ          -1.69273         -1.7083         -2.0704
LJ          -2.20475        -1.57311        0.775419
LJ         -0.499332       -0.576085         2.15484
LJ          -1.19064        0.432098       0.0266645
LJ           1.72873         1.88505         1.98433
LJ           2.44565        -1.60422        -1.49978
LJ          0.100166       -0.722882         0.37309
LJ         -0.361784        0.420773         2.37688
LJ           1.63848       -0.202166      -0.0164187
LJ          -2.05747        0.421529      -0.0458967
LJ          0.541904         2.47336       -0.730041
LJ           1.31346         1.66046        0.642314
LJ          -2.39349       -0.649518        -1.11231
LJ          0.453436        -2.49505          1.8555
LJ         -0.174948        -1.47611        -1.13844
LJ         -0.861431        -1.60728         1.57365
LJ          -1.52342        -1.81052        -1.07106
LJ        -0.0386791        0.577341        0.167327
LJ         -0.387077        -2.23392        -1.78808
LJ          -1.97919       -0.946662         -2.1549
LJ           1.44885         1.04003        -0.45121
LJ          0.189432           1.064        -2.09171
LJ        -0.0062531        0.818042         1.60285
LJ          -1.87531        -1.52059       -0.731807
LJ          0.536491        -2.54981        0.887113
LJ          -1.91325        -2.08481          1.3724
LJ          0.799757        -1.76893        0.429251
LJ           1.04605        -2.12098       -0.690234
LJ          -1.21006        0.898974        0.639232
LJ           1.22059       -0.804628        0.375159
LJ          -0.60312         1.06158       -0.432771
LJ           1.52216        0.786501        -2.54076
LJ          0.437717        0.404101        0.401162
LJ          -2.06259         1.48582         2.46995
LJ          0.758184       -0.723189       -0.089333
LJ           2.39607        -2.30762       -0.187213
LJ         -0.764926        0.308519        0.664268
LJ           1.69837        -2.27369      -0.0510529
LJ          -1.67478         2.24403        0.243986
LJ         -0.306168       -0.468169          2.5608
LJ          -2.44964        -1.47359        -1.10659
LJ          0.441225         1.35054         0.82893
LJ           2.42423         1.35971         2.18441
LJ           2.33709       -0.552362         1.83927
LJ         0.0222277         2.51266       -0.976792
LJ         -0.468054        0.194816        -1.44939
LJ          0.985348         1.21447        -1.58492
LJ           2.20912        -1.54125       -0.971234
LJ         -0.636795       -0.634044         1.80993
LJ          -1.61712          1.9057        -1.70138
LJ           1.44802        -1.17472        0.606985
LJ           2.28056        0.665542        -2.47313
LJ         -0.537096         2.24734         2.47254
LJ          -1.88213      -0.0451847       -0.947101
LJ       -0.00865164         1.98209       0.0279273
LJ          -2.38934         1.87564        0.995636
LJ          0.148532        -1.35176        -1.07654
LJ          -1.77447        -2.27758        -0.34362
