108
#Comment!
LJ           2.21993         2.40861         1.90148
LJ          -2.44196        0.376863         1.93439
LJ         -0.715692        -1.10162        -2.37513
LJ            1.2224       0.0806004       -0.781503
LJ          -2.30225         2.42255       -0.592626
LJ           -2.1368        0.270463       -0.559704
LJ           2.10754         0.25692        0.744002
LJ          -2.20556         2.25875        -2.07166
LJ           2.41151        -1.20417       -0.361837
LJ           2.29528          2.5119        -1.21902
LJ              -nan            -nan            -nan
LJ           -2.4817        -2.52531        0.979546
LJ           1.92895        -1.52584        -1.62983
LJ          -2.43445         1.81448       -0.625951
LJ         -0.512472        0.212685        -2.46853
LJ              -nan            -nan            -nan
LJ              -nan            -nan            -nan
LJ              -nan            -nan            -nan
LJ          0.128177       -0.315676        -1.55225
LJ              -nan            -nan            -nan
LJ        -0.0600292        -1.11172        0.860671
LJ          -1.15297         1.09878        -1.68698
LJ          -1.27542       -0.913337         1.30482
LJ           1.12299          2.0764        -1.64928
LJ         -0.957151         2.12426        -1.21516
LJ         0.0434224         1.36103          1.6371
LJ         -0.656003       -0.848226         2.11591
LJ           1.97726         2.50006        -1.74121
LJ          0.953449        -1.99374        0.453872
LJ          -1.01864          2.0571        -1.93999
LJ         -0.380047       -0.756523        0.852602
LJ           1.85709        -1.40731        -1.15587
LJ              -nan            -nan            -nan
LJ          -1.67418          1.8698         -1.9189
LJ              -nan            -nan            -nan
LJ          0.965936        -1.15528       -0.714076
LJ          -1.06692         1.13429        -2.05315
LJ         -0.722521       -0.359153        -0.25789
LJ           1.06896        -1.26498       0.0715116
LJ           1.22604       0.0278234        0.137789
LJ         -0.658905        0.839537        -1.02995
LJ           2.05436      -0.0604425        0.522531
LJ           2.44222        -2.33696        -1.79852
LJ        -0.0472991       0.0636753        0.114479
LJ           2.13359        0.583034        -1.48504
LJ          -2.20853        -1.34397        -1.85047
LJ         -0.196078       -0.856346         1.70707
LJ           2.16535       -0.548385         2.47874
LJ          -2.36471         -1.2017        -1.59712
LJ           2.46664        -2.47217        0.390092
LJ           1.52241        -1.03189         1.32968
LJ         -0.991519         2.20063         1.07801
LJ              -nan            -nan            -nan
LJ          0.688604       -0.771191        0.792202
LJ           -1.5655         1.92222         -1.9394
LJ           1.42545       -0.871868        0.249815
LJ          0.555939        -2.10681        0.221339
LJ           1.16584        -1.31512       -0.343681
LJ          0.583391       -0.376246        0.469572
LJ          -1.07254       -0.787179       -0.352707
LJ            2.1042         1.57743       -0.754044
LJ        -0.0439741       -0.396408       -0.162711
LJ         -0.261728        -1.57277       -0.321272
LJ           1.13818         1.41299         1.21616
LJ           2.14715       -0.479633       -0.461477
LJ          0.988007        -2.11548       -0.126107
LJ          0.569792        0.713091         2.23826
LJ              -nan            -nan            -nan
LJ         -0.569609          2.5602        0.632953
LJ           1.94663        0.147338        -1.34658
LJ          0.467423        0.627251         1.70244
LJ           1.42685         2.09844        -1.54932
LJ           2.21844         -2.0541         0.62841
LJ          -1.58623         -1.7329       -0.805554
LJ          -1.11393       -0.530263       -0.449612
LJ          -2.20746        -2.17274        -1.84575
LJ          -1.63561        0.684587         2.41292
LJ          0.204624         1.20776        -2.35492
LJ         -0.500887        -1.64232       -0.603861
LJ           1.84202         1.23628       0.0967964
LJ         -0.761423         1.88105        -2.38437
LJ           -1.1247         1.38689          1.7972
LJ         -0.378279       -0.484901         1.17267
LJ          -2.02794       -0.455712        0.905352
LJ          -1.24016        0.983169         0.34014
LJ           2.28032        0.967198        -1.36286
LJ          -1.91692       -0.255755         1.21857
LJ         -0.634541        -1.03768       -0.135522
LJ           -1.8346         1.30743        -1.60489
LJ           1.13197        -1.59046         1.10123
LJ              -nan            -nan            -nan
LJ           2.42852         1.26631        -1.29512
LJ          -2.38873       -0.971232         2.55534
LJ         -0.890611        -1.56429        -1.80537
LJ          -1.45571         1.54733       -0.297445
LJ           1.92496        -1.17903        -0.98212
LJ           1.72747         1.97512         1.70323
LJ          0.142561        -1.14512        -2.12383
LJ              -nan            -nan            -nan
LJ         -0.531689         1.86501         1.09172
LJ           1.47572        -2.09042        -1.20723
LJ          -2.07151       -0.625644         1.00112
LJ          -2.40438       -0.776627         1.27526
LJ           2.54793        -1.27747        -2.32746
LJ         -0.298522       -0.849078        -2.54661
LJ           1.07738        -1.77236         0.73914
LJ         -0.703155        0.921581         1.83428
LJ              -nan            -nan            -nan
