108
#Comment!
LJ          -1.27371          1.2949        -2.49682
LJ          -1.04023       -0.332397        -1.01139
LJ        -0.0119948       -0.520635         1.30104
LJ          0.658602         1.87301         2.15085
LJ           0.48569        0.868877         2.08405
LJ          -1.90643         2.04596        -1.92384
LJ          -1.75144       -0.423973        -2.18246
LJ           2.25025        -1.25765        -2.14781
LJ          -1.03735        -2.55104        -1.42075
LJ          -2.00879        -2.35332        -2.02991
LJ              -nan            -nan            -nan
LJ           -1.3316         2.39237        0.417318
LJ          0.551707        0.755585        -1.72385
LJ          -1.12265         2.01262         2.21505
LJ           1.52582         2.48976         2.48685
LJ           1.19746         -1.8706         2.20806
LJ              -nan            -nan            -nan
LJ              -nan            -nan            -nan
LJ          -1.24387        0.339697        0.483543
LJ              -nan            -nan            -nan
LJ          -1.41984       -0.886121      -0.0705903
LJ          -2.42834         1.91339        -1.05704
LJ            2.4229        -2.48285         1.31416
LJ           2.17544        -1.54029        -1.26528
LJ           -1.2424         1.00397        -1.78919
LJ         -0.160488         2.49857        0.785202
LJ           1.04026        -2.16112        -1.11497
LJ           1.48998        -1.69787        0.153375
LJ          0.286329        -2.04417         1.21375
LJ           -2.3514       -0.654489        -1.64446
LJ          0.560793       -0.832061       -0.694168
LJ         -0.889945        -2.10859        0.778425
LJ              -nan            -nan            -nan
LJ         -0.817975       -0.409246        -2.46864
LJ              -nan            -nan            -nan
LJ           1.68094        -1.39936       -0.638172
LJ          -1.93193        -2.26413        0.651638
LJ           0.26567         2.30727         1.25522
LJ           1.37411         2.37818        0.311868
LJ           1.90624         1.28467        0.292313
LJ          -0.32015     -0.00223269        0.302403
LJ           1.41952       -0.690524       -0.895097
LJ         -0.623535       -0.671264         2.26969
LJ          0.276633         1.43412         2.05162
LJ           1.85228         2.01811        0.132311
LJ          -1.30579         1.73552         -1.0677
LJ         -0.711555         1.35507         1.07661
LJ           2.43024        -1.00837        -1.50634
LJ          -0.20399        -1.68579          1.0714
LJ           2.02334        0.219603         1.32737
LJ           2.34804       -0.650543       -0.630371
LJ           1.82339        0.920876        -1.94691
LJ              -nan            -nan            -nan
LJ          -2.45577        -1.75629       -0.571855
LJ          -1.59761         1.32865         1.77943
LJ          -1.79458       -0.281621        0.738826
LJ          -2.15744         1.19039       -0.648875
LJ         -0.812137       -0.919524       -0.886118
LJ           1.70655        0.679249       -0.752266
LJ           1.06099        -1.66754         2.21281
LJ           1.30831       -0.243885         1.56967
LJ        -0.0149367       -0.428215        0.244841
LJ          -1.61932        -1.00424        -2.31349
LJ          -1.60033         1.15577        0.213897
LJ           2.05994        0.218163      -0.0518581
LJ          0.411978         1.74586          1.4332
LJ          -1.64404        -1.30978        -2.07549
LJ              -nan            -nan            -nan
LJ          0.553045        0.897814         2.26417
LJ         0.0311115        -2.33284         2.16373
LJ           1.94817         2.23711        0.913167
LJ          0.299003        -2.46946        0.145753
LJ           2.35832         1.32426        -1.29855
LJ          0.474179        -1.60718        -2.09338
LJ        -0.0393966         1.99001       -0.146808
LJ          0.133852        -1.13435       -0.422925
LJ          -2.20268         1.61218       -0.870528
LJ          0.804866        0.519698         -1.6956
LJ          0.607985        -1.30132        0.415024
LJ           1.12331       -0.204071         1.59027
LJ           1.00954        0.124498       -0.155142
LJ           1.01961         1.74463        -1.31277
LJ           -1.6407           1.247      -0.0524423
LJ           1.75062         2.12119       -0.223547
LJ           1.33714        -1.78001       -0.413043
LJ           2.43308         2.24537        -1.22792
LJ          -1.75174        -2.43493         1.86591
LJ         -0.328942         2.24967        -1.76329
LJ         -0.544113         1.38571          1.0905
LJ          -1.27354         1.32453         2.03018
LJ              -nan            -nan            -nan
LJ         -0.241474        0.281479        0.723219
LJ          -1.56474        -2.24009       -0.184692
LJ         -0.633216        -2.48985         1.37654
LJ           2.11478         1.29609       -0.536111
LJ          0.411232        -1.16791        -1.78897
LJ           2.43672        0.801686       -0.232617
LJ           2.28328        -1.12336        -1.84904
LJ          0.164497       -0.947821         2.35459
LJ          -1.97204        -1.63231        0.574519
LJ           -1.7894       -0.187058        -1.75726
LJ         -0.808814         1.64082        0.629648
LJ          0.865892        -1.06024        0.493465
LJ          0.846574         1.94413         2.36172
LJ          -0.29304        -2.10461        0.404555
LJ         -0.463634       -0.547747         2.55849
LJ           1.01792         1.50337        -1.62656
LJ              -nan            -nan            -nan
