108
#Comment!
LJ          -1.56571       0.0431322       -0.623563
LJ        -0.0125737       -0.110677        0.965982
LJ         -0.456851         1.50944        -2.16084
LJ            2.4264        -2.24304        0.411739
LJ          -2.32734        -0.67243      -0.0772408
LJ         -0.909168        -2.15258         2.25553
LJ           2.13239        -1.77204        -1.26598
LJ          0.126883        0.815166         2.14877
LJ          0.984094       -0.385434         1.89107
LJ          -1.94153        -2.49033        -1.97429
LJ              -nan            -nan            -nan
LJ          -1.41233          -2.127        -1.15709
LJ          -1.65544        -1.92759        0.416156
LJ          -2.25674         1.47943         0.72131
LJ          -2.12645        -2.39835        -1.98992
LJ          0.164664         -1.1118        -2.45811
LJ              -nan            -nan            -nan
LJ              -nan            -nan            -nan
LJ          0.877102       0.0181292      -0.0438693
LJ              -nan            -nan            -nan
LJ          -1.52842         1.77111        -1.09974
LJ         -0.898409        -1.06848         1.58629
LJ          -1.78533      0.00784218         1.91778
LJ          0.101761         1.02475        -2.44606
LJ          -1.84787        -1.51188        -1.77504
LJ          -1.35438        -1.87767       -0.651266
LJ          -1.38997         2.53494        -1.99752
LJ          -1.54165         2.29055        -2.23733
LJ          -2.17788       -0.662058         -1.1378
LJ          0.258687       -0.643684       -0.536128
LJ          0.274394        0.714825        -2.40043
LJ          0.553947         1.70112       -0.554742
LJ              -nan            -nan            -nan
LJ           1.69625        0.223085        -2.07457
LJ              -nan            -nan            -nan
LJ         -0.380499       -0.163755        -1.97675
LJ           -1.2869       -0.587378       -0.703883
LJ           1.01032        0.995411         1.06216
LJ          0.452833        0.996822         1.17087
LJ          0.465662          1.7155         1.17891
LJ        -0.0933612        0.357599        0.577944
LJ          -1.91794        0.958175          1.3703
LJ         -0.676743        -1.20326         1.05213
LJ          -1.24237         0.62401         1.42854
LJ          -1.99396        -2.01432       -0.276138
LJ        -0.0566663        -1.62509        0.549059
LJ          0.820811       -0.678879        -1.55334
LJ          -1.48819        -1.25852        0.112562
LJ          0.160893        0.852546        -2.35621
LJ           1.70443       0.0413033        -1.81422
LJ          0.548842         -2.1889       -0.543901
LJ           2.23358        -2.02964        0.443614
LJ              -nan            -nan            -nan
LJ          -1.86316          2.2073        -1.12971
LJ         -0.728419         1.50395         2.43106
LJ           1.78087       -0.228376        0.847102
LJ           1.30154        -1.38255        -1.05228
LJ           2.27898       -0.839423       -0.981863
LJ         -0.554472         1.22769        0.684725
LJ           1.33713         -1.5812       -0.852476
LJ          -1.86796         0.54193         2.11372
LJ          -2.10893         1.40696       -0.240091
LJ          -1.24777         2.46221         2.06467
LJ          0.125019        0.978139        -2.26828
LJ         -0.230187        -1.32826         0.89367
LJ          0.175937        -1.47055        -2.23729
LJ           2.01389       -0.264637        -1.11766
LJ              -nan            -nan            -nan
LJ         -0.105996       -0.504896        0.375835
LJ          -2.01584        -1.15005         1.37803
LJ          -2.32736         -1.3325         2.36714
LJ         -0.993117        -1.43972       -0.628392
LJ           1.99772        0.464944          1.3414
LJ          -1.73907       -0.901303       -0.711617
LJ          0.026523         1.92657        -2.06866
LJ           2.29267       -0.107163         1.41651
LJ           0.43656        -1.90414        -0.55112
LJ          0.395948       -0.759366        -1.92483
LJ           2.11611         2.18822        -1.17368
LJ          0.164791        -1.85567       0.0292543
LJ         -0.894937         1.39893         2.49137
LJ           2.23922         2.54641         1.58896
LJ          -1.54792        0.531807        -1.79629
LJ        -0.0487601         1.68168        -2.56034
LJ         -0.371718         1.73079         1.13749
LJ          0.361656         2.21533         -2.0768
LJ         -0.807999         1.97081         2.06421
LJ         -0.743277        0.344472        -1.43356
LJ           1.95402         1.35503         0.51385
LJ          -1.26912         2.24878        -1.93747
LJ              -nan            -nan            -nan
LJ          -1.64574        -2.25173         2.14885
LJ          -1.07687        0.394829      -0.0744692
LJ          0.779286        0.552519        -0.39545
LJ          0.501205        0.970892         2.33092
LJ         -0.985803       -0.376796        -1.08004
LJ          -1.49741         1.94329        -1.32775
LJ           1.30763        -2.15121        0.450928
LJ           1.85882          1.6863         1.93049
LJ           1.87641       -0.525467          1.6402
LJ           1.07843       -0.532424        -2.50232
LJ          -0.64023        -0.28507        0.210906
LJ           2.23475        -0.44266         1.18325
LJ          -1.79472         -1.4666         1.11914
LJ           1.55082         1.52088        0.827412
LJ          -2.36366       -0.311807         1.36075
LJ           2.32528        -1.19433         2.23682
LJ              -nan            -nan            -nan
