108
#Comment!
LJ         -0.477257       -0.115018        0.395215
LJ           1.66706       -0.946795        0.521884
LJ          0.260629          1.3423         1.66945
LJ           2.46448       -0.146303        -1.70874
LJ          -1.50046       -0.618807         1.89552
LJ          -1.41798         2.13377       -0.829669
LJ           1.06725        0.504972        -0.67042
LJ          -1.77134        -1.94709        0.689785
LJ          0.410595        -1.54214         2.52907
LJ          -1.04016         1.40576        -1.75988
LJ              -nan            -nan            -nan
LJ            1.3974         1.40115        0.719102
LJ          -1.69468        -2.24754          1.9001
LJ           1.44391         2.33675        -2.47155
LJ           2.17958        -2.14992         2.33938
LJ           2.34689        -2.34361        -1.72245
LJ              -nan            -nan            -nan
LJ              -nan            -nan            -nan
LJ           1.20943         -1.9938        0.515914
LJ              -nan            -nan            -nan
LJ          -1.87434       -0.660401        -1.48589
LJ           1.51104        0.470807         1.16162
LJ         0.0125338        -1.46847        0.797601
LJ          -1.46469         -1.2502         -1.2343
LJ          0.766247        -1.80568       -0.811332
LJ            1.3989        -1.88065         1.92255
LJ        -0.0733051        0.208319         1.99272
LJ          -1.09923        0.183836         2.49442
LJ          -1.03143       -0.379743        -1.13937
LJ          0.180695        0.645338         0.31491
LJ           1.64623        -2.18218         1.58113
LJ          0.336926        -1.63606         2.30325
LJ              -nan            -nan            -nan
LJ         -0.225999        0.162155         1.90092
LJ              -nan            -nan            -nan
LJ           1.92444       -0.306575        -2.18331
LJ          0.837156         1.51678       -0.839345
LJ           0.84993          2.3668         2.52378
LJ           1.19648        -1.74904        -2.43369
LJ           1.05829        -1.94901       -0.821739
LJ         -0.190136        -1.68287        -2.03762
LJ           1.37669        0.865536        -1.50865
LJ         -0.823317        -1.03869         1.50816
LJ           0.52809       -0.203868       -0.243992
LJ          0.744499       -0.931135         1.95961
LJ         -0.812947        -1.04652         1.65858
LJ            1.1698         2.22267       -0.309358
LJ           1.24607       -0.143768         1.33245
LJ          -1.38036         1.15061        0.127274
LJ           1.29899         2.41633        -1.71192
LJ          -2.18245       -0.148373        -1.90335
LJ           1.00455        -1.92199          1.3785
LJ              -nan            -nan            -nan
LJ          -1.95213        -2.38405         2.15786
LJ          -2.34157        -1.99191        0.133085
LJ          -2.00371        0.963265          1.5743
LJ         -0.177974         1.82309       -0.842591
LJ          0.344427        -2.34023        -2.36093
LJ           -1.5071        -1.16365       -0.030255
LJ         -0.737655        -1.50845         0.88548
LJ         0.0607655        0.990833       -0.822455
LJ         -0.978469       -0.852688      -0.0372193
LJ          0.822828         2.46117        -1.86627
LJ          -1.10592         0.97314         1.37282
LJ           1.53923         1.13894        -1.63392
LJ          0.323952        -2.41954        -1.41654
LJ           1.63095         1.47235         1.16657
LJ              -nan            -nan            -nan
LJ         -0.443961        -2.30276        -1.78859
LJ           2.03344        -1.76618         0.12733
LJ        -0.0936538        -1.34862      -0.0452109
LJ            1.0827        -1.91356         1.07458
LJ           1.55724        0.520546         1.38727
LJ           2.49242        -1.83817        0.177039
LJ         -0.705026       -0.372371         2.14991
LJ           1.92878        -2.03231        -0.37796
LJ          0.365819         2.39987        0.309889
LJ          0.924032          1.3901         -2.1686
LJ           1.35523        0.165823        -1.61076
LJ          -2.17255        -1.16864         1.92603
LJ         -0.402461        -2.18218        -1.03477
LJ          -1.30724        -1.84553          2.4074
LJ          -2.11048         2.13962        -1.44299
LJ           1.60641         1.42136       -0.932793
LJ          -1.93558         1.97587        -2.52973
LJ          -1.24959         1.17987        -1.54733
LJ           1.39737       -0.970501        -2.35863
LJ          -1.27994        0.344448      -0.0649243
LJ          -1.36619        -1.98886        -1.23237
LJ         -0.832317        0.341621        0.629349
LJ              -nan            -nan            -nan
LJ          -2.33011        -1.07685         1.45673
LJ          0.469332         2.50188       -0.889449
LJ        -0.0962092        0.615574         2.13378
LJ          -1.36211       -0.184801        -1.25152
LJ         -0.146938         1.58719        -2.51161
LJ          -2.48168        -1.87689       -0.328842
LJ          -1.49953       -0.530273        -0.83148
LJ           1.96163        -1.06614         2.56058
LJ           1.63558        0.505818        -2.27126
LJ            -2.128       -0.110878        -1.20103
LJ           1.69082        0.634905        -1.64922
LJ           2.55763        -1.11491        0.428876
LJ           0.10823        0.637688         1.85989
LJ           2.49941       -0.163482        -2.17216
LJ          0.505265         1.02008        -1.52483
LJ           1.37845       -0.212632        -1.24666
LJ              -nan            -nan            -nan
