108
#Comment!
LJ           2.16489        0.867273        -1.76022
LJ         -0.845522          0.5582         1.86098
LJ         -0.109223         2.14694         1.01884
LJ           2.26394        0.577884         2.37791
LJ          -1.23101        -1.85525       -0.355741
LJ          -2.39664        -1.94502        0.835915
LJ          0.411589        -0.95428        0.817566
LJ          0.716508         2.37501        -1.05774
LJ           1.78225        0.854433        -0.10564
LJ           1.95454         1.44982         1.56854
LJ              -nan            -nan            -nan
LJ          0.370372        -1.68548         2.32344
LJ           1.45438       -0.276584         1.95844
LJ          0.520922        -2.29545        -1.32069
LJ           1.27079        0.493036        -2.45118
LJ              -nan            -nan            -nan
LJ              -nan            -nan            -nan
LJ              -nan            -nan            -nan
LJ         -0.411068         0.87722         2.22544
LJ              -nan            -nan            -nan
LJ         -0.306801        0.816863        -1.68497
LJ          -2.54703          2.1468        -2.19496
LJ           1.85765        -0.70262         1.19755
LJ           1.96405        -2.09726         1.29409
LJ           1.08112        -2.43114        -1.44278
LJ          -1.47981        -1.29178      -0.0915985
LJ         -0.229609         -2.3686        0.396166
LJ           1.29471        0.345619       -0.623114
LJ           1.47698         2.23727        -2.50857
LJ          -1.24419         -2.3363         1.31289
LJ           1.87636         2.19213        -1.34994
LJ          -1.94943       -0.353561        0.412301
LJ              -nan            -nan            -nan
LJ           2.16449         1.18221         1.88427
LJ              -nan            -nan            -nan
LJ          0.779064        0.630252         1.65085
LJ           2.53461        0.946805        -0.71424
LJ         -0.336232       -0.425845         2.15773
LJ           2.22228         1.12871       -0.199495
LJ         -0.382184       -0.916387       -0.476056
LJ          -1.65116        0.150531         1.23725
LJ          -1.07924         2.23429       -0.487937
LJ           1.76434        -0.92588         2.18879
LJ          0.357826         1.72752         1.12909
LJ          -2.43135        -2.05434        -2.46588
LJ        -0.0216822        0.392665        0.982926
LJ           1.79322         1.53388        0.174839
LJ          -1.65977        -1.53508        -1.52565
LJ          0.927775         1.86387        0.973691
LJ          0.491516         1.86722        -1.37437
LJ        -0.0627482        -1.32898         1.89344
LJ         -0.515008        0.132682         1.66606
LJ              -nan            -nan            -nan
LJ          -1.69812       -0.185389        -1.50304
LJ          -1.40844         2.17749        0.807798
LJ         -0.884328        -1.52939       -0.657746
LJ          -1.46539        0.942847         2.30236
LJ        -0.0726739        -2.10339        0.702203
LJ          -2.52354        0.231069         -1.0894
LJ         -0.531629         1.99873       -0.241026
LJ           1.96863         2.04292        -1.12546
LJ          -2.51848        0.668599         -2.1193
LJ              2.44        -1.97335        -1.68157
LJ         -0.767836       -0.837104        -1.39428
LJ           1.64185        -1.20956        -1.84588
LJ         -0.560566       -0.698719       -0.625845
LJ          -2.51517       -0.307251        -1.98899
LJ              -nan            -nan            -nan
LJ           2.27047        -1.83351        -0.94425
LJ           1.42011         1.36383         -1.6737
LJ           2.36124        0.586058       -0.469413
LJ          0.515185        -1.95573        -2.23687
LJ           2.35411        0.268998        0.614629
LJ           1.34159        -1.16396        0.374431
LJ          -2.42054        -2.30672         2.15178
LJ          -1.45748        0.127218       -0.959924
LJ          -0.54001        0.644047        -2.26343
LJ          -2.22868       0.0793303      -0.0614477
LJ          -2.52384         2.13871          2.0455
LJ          -1.78543       -0.475286        -1.23646
LJ          -2.08198         1.71145        -2.41708
LJ           2.35336         0.25251       -0.901402
LJ          -1.64576        -2.19834       -0.186645
LJ            2.4831       -0.274944       -0.762596
LJ           -2.4769         2.17781        -1.38763
LJ          -1.18902         -2.0407         1.03022
LJ           2.19802        -1.84655        -1.34517
LJ          0.873821        0.107172        -1.13213
LJ          0.219791        0.875438       -0.866954
LJ          -2.52705        -0.67144        -2.36243
LJ              -nan            -nan            -nan
LJ           1.24507        -1.67783         1.58836
LJ          0.290542         2.53278       -0.843764
LJ         -0.348944        0.866992         2.23006
LJ          -0.66234        -1.80689          1.8356
LJ          0.891672         1.60484        -2.00709
LJ          -2.54538          1.9228        -1.78323
LJ           1.85357        -2.40363       -0.902883
LJ              -nan            -nan            -nan
LJ           1.09843          0.5297        -2.38308
LJ           1.03563        -1.45567        -2.21777
LJ            1.2976       -0.733842         1.28981
LJ           1.10467        0.623812        0.773123
LJ          0.898232       -0.514804         1.99701
LJ        -0.0204659        -1.60788        0.966174
LJ           1.87929        -1.69673         1.87568
LJ          0.143467         0.80577         1.71551
LJ              -nan            -nan            -nan
