108
#Comment!
LJ         0.0696362       -0.982641       -0.343995
LJ           1.19455       -0.473653        -0.47606
LJ           2.19012         1.79688        -0.56932
LJ          -1.47796        -1.01021         -1.8599
LJ           1.95276        -2.15035         -2.3098
LJ          -2.09993        -1.51481        0.712305
LJ          -1.76649         2.14761        0.626922
LJ           2.43512        0.892823        -1.71761
LJ         -0.511117        -1.15429         1.97733
LJ         -0.211266        -2.41033         2.44268
LJ              -nan            -nan            -nan
LJ         -0.645053          1.9841        -2.44536
LJ          -1.49622         2.45699       -0.420286
LJ           1.11621        -2.53523         1.95048
LJ         -0.872373         1.35375         1.39687
LJ           2.41039         2.07739       0.0269141
LJ              -nan            -nan            -nan
LJ              -nan            -nan            -nan
LJ         -0.172855         2.26866         1.77845
LJ              -nan            -nan            -nan
LJ          -2.24765         2.33044         1.20117
LJ          0.783298         1.12626       -0.504065
LJ           1.94114         1.10106      -0.0428584
LJ           1.13872         2.44852         1.51282
LJ           2.46131        -1.81647        -1.83789
LJ         -0.908232        -2.46104        -1.49752
LJ          -2.06722        -1.23954        0.398517
LJ           1.57921         1.03134       -0.442254
LJ          -2.45042       -0.731594       -0.950068
LJ            2.0259        0.630646        0.573778
LJ        -0.0592221        -1.40009       -0.785818
LJ          -2.05421        0.659428        -1.04269
LJ              -nan            -nan            -nan
LJ          -1.84669         2.34408        0.964783
LJ              -nan            -nan            -nan
LJ          -2.20575       -0.511569         -1.9318
LJ           -1.8501       -0.810179       -0.338293
LJ           2.15458        -1.53523         0.62754
LJ          -2.23468       -0.599103        -2.54847
LJ          -1.72247         1.95971         2.48542
LJ           -1.7558         -1.8769       -0.111243
LJ          -1.18126        -2.07782        -1.31367
LJ          0.733832        0.818683         1.53188
LJ          0.445398       -0.125329       -0.755099
LJ          -1.29054         1.97086         1.15182
LJ          -1.20779        -1.22826        -0.30588
LJ          -1.98969        0.153104        0.366755
LJ          0.290663        -1.78954         -1.8973
LJ           1.93339         1.11843         2.38561
LJ          0.543273       -0.347653         2.33337
LJ         -0.811877         1.82652        -1.36638
LJ           -2.1932        0.806739         -1.5083
LJ              -nan            -nan            -nan
LJ         0.0962784        -1.30195        0.138953
LJ           -2.1288        0.187981        -1.10424
LJ           1.62181         1.71775         2.01364
LJ          0.352317        0.659637        -1.35035
LJ          0.779859         2.24176         2.31539
LJ         -0.251466         1.77906       -0.938445
LJ           2.47739         2.03118         1.38642
LJ         -0.353588        -0.49052         1.06487
LJ          -2.11323          2.4174        -2.53462
LJ          -1.31289         1.29896       0.0814744
LJ          0.632646       -0.928241        -1.74177
LJ           1.90833       -0.628319        -2.08488
LJ           2.02507       -0.989467         1.11591
LJ          0.806123        -1.16202       0.0205444
LJ              -nan            -nan            -nan
LJ           2.43379         1.96116         1.28545
LJ          0.242255       -0.504763       -0.339927
LJ          -2.25693        -2.51427        -2.43943
LJ          -2.01031         1.43134        -1.19124
LJ           2.53132        0.131978       -0.634821
LJ         -0.477752         2.39265        -1.11101
LJ           -1.8929        0.349985       -0.698325
LJ           2.32193         -0.4923        0.558776
LJ           1.99573         1.84883        -1.76354
LJ         -0.810928         2.22806     -0.00928778
LJ           1.23884        0.250957      -0.0470841
LJ          0.929544         1.32914         2.35993
LJ           2.52091        -1.54655        0.434439
LJ          -2.52382         2.12565          0.3052
LJ           2.03262        0.215011        -2.38565
LJ           1.87904        -1.26644         2.45785
LJ           1.42269         1.40269       -0.441704
LJ         -0.537216         1.47329         2.14707
LJ           2.40246         1.77107        0.627652
LJ          0.446089         -1.7336         1.84947
LJ          -1.89738      -0.0135954         1.86197
LJ          -1.18918         2.45189         -1.7866
LJ              -nan            -nan            -nan
LJ          0.189187         -1.4406       0.0324613
LJ          0.699031         -2.5593       -0.822418
LJ           -1.8789        -1.62536         1.77045
LJ           1.63702        0.883133        0.597883
LJ           -2.5446          1.0802         2.39819
LJ           -1.8844        -1.35042         1.70372
LJ           1.01517         1.15021         1.98009
LJ           1.87736        0.733883        0.487878
LJ           2.06218        0.770963        -2.00459
LJ           1.18409       -0.147891         1.56278
LJ           2.09993        0.398221         1.64657
LJ          0.140119        -1.50994         2.38095
LJ          -1.44013       0.0162601         2.54471
LJ          -1.87909       -0.902957       -0.403251
LJ           2.09198         1.78787       -0.214093
LJ          -2.11893       -0.947581        -2.52454
LJ              -nan            -nan            -nan
