108
#Comment!
LJ         -0.417215        -2.49317        -1.95209
LJ          -1.02266       -0.966164        0.667043
LJ           1.40409       0.0210774        -1.14526
LJ          0.672465        -2.03999         2.15533
LJ          0.145034      -0.0424998         2.09225
LJ         -0.590907        0.493826         1.08588
LJ         -0.127706        0.480055       -0.362904
LJ           2.42342        0.784096       -0.677725
LJ           1.53837        -1.14747        -1.80241
LJ           1.94513        0.477002        0.417976
LJ              -nan            -nan            -nan
LJ           -1.1851        -2.36518      -0.0242728
LJ         -0.165676       -0.834948         1.83231
LJ              -nan            -nan            -nan
LJ           2.15709        -2.21332         1.90143
LJ              -nan            -nan            -nan
LJ              -nan            -nan            -nan
LJ              -nan            -nan            -nan
LJ          -1.71046         2.48888         2.43075
LJ              -nan            -nan            -nan
LJ          -2.53095       -0.252227        -1.35548
LJ            2.0174         1.41827         1.84637
LJ           2.45734         1.25229         2.25641
LJ              -nan            -nan            -nan
LJ           1.55172        0.489432         2.32997
LJ           1.73134         2.24337         1.18507
LJ          0.922915        -1.36177       -0.731521
LJ           -1.6285        -1.19652         1.91154
LJ          -1.26017       -0.187137        -1.96703
LJ           1.01636        -2.33127        -1.67441
LJ              -nan            -nan            -nan
LJ         -0.783401        -0.22337        -0.92943
LJ              -nan            -nan            -nan
LJ          -1.93504        -2.19943         2.25854
LJ              -nan            -nan            -nan
LJ         -0.506457        -1.82762        0.569841
LJ         -0.654184       -0.511552         1.75504
LJ            -1.057        -1.74164        0.462052
LJ           1.41096         2.10814         2.36309
LJ         -0.625578         2.49104       -0.148592
LJ           2.52804        0.799763        0.230317
LJ           -1.0861        0.634486       -0.316589
LJ           1.36451        -1.11972         1.42804
LJ          -2.06169         1.68784       -0.147533
LJ          -1.73092        -2.04119        0.304959
LJ          -2.42525       0.0672559        0.196215
LJ           0.26151         2.38016         1.28535
LJ          -1.09846         2.15488         1.07636
LJ         0.0353693        0.291791        0.322481
LJ          -2.34672        0.292939        -1.67216
LJ           0.23446         2.38571        0.152798
LJ           2.13258         1.02382         2.51248
LJ              -nan            -nan            -nan
LJ          -1.10955         2.01394         2.23418
LJ           1.48462        -1.31047         2.26091
LJ         -0.313319        0.668474        0.498546
LJ          -1.12303       -0.990896        0.660784
LJ         -0.314543       -0.751924         2.35518
LJ            1.0163        -1.76218        -1.11413
LJ          -0.61565         1.75391         1.45966
LJ          -2.34664         1.94004         1.21276
LJ           1.01077         1.56474        -2.54474
LJ         -0.477402       0.0868963         1.01919
LJ              -nan            -nan            -nan
LJ              -nan            -nan            -nan
LJ          0.285526         1.47764        0.644617
LJ            1.1897         2.32738       0.0962361
LJ              -nan            -nan            -nan
LJ           2.32269        0.696169         2.44338
LJ          -2.36416         2.54503         1.61284
LJ          -2.38591         2.14215        -1.02711
LJ          0.103937         2.50167         2.31435
LJ           2.25485        -2.41009       -0.827612
LJ          0.137946        -1.54543       -0.493907
LJ           1.33339         1.47217       -0.119882
LJ         -0.834217        -0.48866      -0.0926917
LJ           1.38166         2.09396        0.555305
LJ           1.02397         -1.9382       -0.660714
LJ          0.964099         2.33887        0.753432
LJ           1.96522         1.22057         2.40117
LJ          -1.67875         1.48277         1.76967
LJ           0.42766         -1.5988        -2.16495
LJ           2.07172       -0.550862         1.39775
LJ          0.666074       -0.699796        -1.41626
LJ         0.0880532         1.91909        -1.07952
LJ           -1.1026        -0.35998         2.16064
LJ           1.49762         2.14269       -0.147144
LJ         -0.476425        -1.26166        0.841815
LJ         -0.648614       -0.249053        -1.99672
LJ          0.133252        0.974506         0.37048
LJ              -nan            -nan            -nan
LJ          -2.46063       -0.659559        -1.77464
LJ           2.29412        -1.23305        0.927415
LJ          0.902209       -0.765726       -0.948164
LJ           2.17405         0.75562         2.27059
LJ          -1.51916         1.74264        -1.17369
LJ           1.94588         1.38617       -0.212066
LJ           0.36533          1.2177        -1.48109
LJ              -nan            -nan            -nan
LJ         -0.191132       -0.370575       -0.759296
LJ         -0.547031        0.675403         2.26463
LJ          0.371786         1.81326        -1.39383
LJ          0.302246        -1.56374        -1.09409
LJ          -2.09466        -0.67921        0.898866
LJ              -nan            -nan            -nan
LJ           1.05918         1.28204        0.319346
LJ           -1.4997         2.53889        -2.19804
LJ              -nan            -nan            -nan
