108
#Comment!
LJ           -1.7457        -2.17775        -2.13062
LJ          -2.11324        -2.18237          2.0001
LJ           1.81065         1.22437        -2.38469
LJ          -1.48727       -0.201701        -1.79143
LJ           1.99335        -1.52374         1.11634
LJ           1.56291         0.28932         1.28207
LJ          -1.86016         2.49743        -2.07952
LJ         -0.813458        0.660273        -2.48672
LJ          -1.38994         2.14142         2.11296
LJ          -2.11557         2.44761        0.366931
LJ              -nan            -nan            -nan
LJ          -1.19269         1.50824         2.03947
LJ          0.844825       -0.880723       -0.102421
LJ         -0.663285        -2.34006        0.460791
LJ          -1.26877         2.29967         1.36203
LJ              -nan            -nan            -nan
LJ              -nan            -nan            -nan
LJ              -nan            -nan            -nan
LJ         -0.220975        0.575974        -2.39139
LJ              -nan            -nan            -nan
LJ          -1.31562       -0.677513        -1.13403
LJ           1.16274         1.27445         2.02055
LJ           1.62714         2.16252        -1.44442
LJ         -0.562124        -1.90282         1.73847
LJ          -1.92815         1.24643         2.16975
LJ          0.703263        0.658689        -1.53922
LJ            1.5444         1.44647        -1.40292
LJ          0.134945        -1.94292        -1.55436
LJ         -0.247131        -1.13245        0.513405
LJ          0.401819        -1.39211        0.136217
LJ           1.70064       -0.888137        0.524127
LJ          -1.47291       -0.160353        -1.95088
LJ              -nan            -nan            -nan
LJ          -1.00029        -1.29396        0.960639
LJ              -nan            -nan            -nan
LJ           -1.1502        0.434852        0.426795
LJ          -2.34845       0.0641291        -1.56702
LJ          -0.11003        0.901924         1.55853
LJ           2.02117         2.39132       -0.672116
LJ            1.5913        0.309646          0.7042
LJ          -2.23714        -2.16021       -0.806334
LJ           2.02171         1.83168       -0.144288
LJ          -1.91172         1.72502        -1.62182
LJ          -1.41827         -2.1708        -1.60036
LJ           1.97155        -1.30672        0.226105
LJ           2.03063         2.40895       -0.797155
LJ          -1.13091        -2.48174          1.5781
LJ           2.08128        -2.34261         2.10857
LJ         0.0730689         2.19668        -2.04878
LJ            1.3831        0.632079       -0.828932
LJ           1.36685        -2.04141        -2.18948
LJ           2.53561         1.50605         2.22185
LJ              -nan            -nan            -nan
LJ          0.362894        0.797532       -0.548568
LJ          -1.33692       -0.230384        0.555633
LJ           2.28988         1.92356        -1.12004
LJ          -1.82235         1.11843         1.95314
LJ         -0.180378       -0.598738        0.511681
LJ           1.73713         1.57624        -2.18148
LJ           1.92728         1.63333         2.01404
LJ           1.14608         2.09704        -2.26145
LJ         -0.208032       -0.369773        -1.15584
LJ          -1.47797        -1.68469        -1.99721
LJ         -0.558728       -0.143002        -1.78003
LJ          0.518123       -0.239121        -1.80267
LJ        -0.0062012        -1.62973        0.545826
LJ         -0.751816       0.0676088          1.9297
LJ              -nan            -nan            -nan
LJ          0.459273      -0.0316015       0.0554878
LJ          -1.64512       -0.451139        -1.04391
LJ            1.3119         2.33544          1.2499
LJ          0.656641        0.807664        -1.86499
LJ         -0.470024         2.52755        0.662189
LJ           1.15797        -2.06439        -2.13115
LJ           2.46236         1.65133        -2.55258
LJ           1.00916        0.392136       -0.535651
LJ          -2.02905         1.92786       0.0929851
LJ          -1.56211       -0.971533        -2.51958
LJ          -1.87745         2.43705      -0.0584503
LJ           1.81041        -0.15267        -1.50523
LJ          -1.08801         -1.5692        0.174431
LJ           2.14257        -1.48792        0.671407
LJ         -0.418589         -2.3709         2.22143
LJ            2.5343         1.41216        -1.13717
LJ         -0.698702         1.86288          -1.695
LJ          -1.28558         1.38646         2.19615
LJ          0.802626         1.21015         1.61696
LJ          -2.42404        0.693055        0.380667
LJ            1.0041         1.37311     -0.00400601
LJ         -0.947365         1.94506        0.863629
LJ              -nan            -nan            -nan
LJ          -2.47233          1.3198         2.20939
LJ          -1.76555         1.26895        -2.53572
LJ            2.3554       -0.630799      -0.0143582
LJ          -1.87033         2.33175        0.500253
LJ           2.10649       -0.298746       0.0581297
LJ           2.09496        -2.44257        -0.97363
LJ         -0.836202        -2.28467        -1.29958
LJ              -nan            -nan            -nan
LJ           2.35544        0.595968         2.05674
LJ            2.3504         1.85383       -0.306187
LJ           -1.5527        0.564259        0.109877
LJ           1.31897         1.71649        -1.20705
LJ           1.61551         1.65828         2.34238
LJ         -0.542862         2.15208        0.623692
LJ           2.38236       -0.904595       -0.189416
LJ          -1.94472       -0.692811        -2.19389
LJ              -nan            -nan            -nan
