108
#Comment!
LJ           1.14229        -2.06689       0.0311918
LJ           2.51351        -2.44194         1.65467
LJ           2.30641       -0.637208        0.819992
LJ          -2.27532        0.145674         -2.4527
LJ          -2.26089         1.37463         1.33059
LJ          0.453194         1.70625         2.40022
LJ           1.15252       -0.839846        0.503482
LJ         -0.131473        -0.42245        -0.58736
LJ         -0.393286        -1.66503         1.41968
LJ           2.11807          1.7568        -2.46228
LJ              -nan            -nan            -nan
LJ           1.15995        -2.05193         1.18612
LJ           1.57629        0.730265       -0.622586
LJ          -2.12217         1.82696        -1.46357
LJ         -0.991939        0.250394        -2.50049
LJ              -nan            -nan            -nan
LJ              -nan            -nan            -nan
LJ              -nan            -nan            -nan
LJ            1.1935         1.01265        -1.40423
LJ              -nan            -nan            -nan
LJ         -0.499221         1.12131       -0.888902
LJ           -0.9083      -0.0149366         1.97709
LJ          -1.13353          1.7981         1.42705
LJ          0.676598       -0.377253         1.89964
LJ          0.367841         0.33505        0.295696
LJ          -1.63597         2.24442        0.886719
LJ           1.66774       -0.105661         1.92361
LJ          -1.50664        0.938902       -0.192919
LJ         -0.671233         -0.5429         1.32215
LJ          -2.47851         2.16655       -0.838616
LJ           1.16313        -2.18833       -0.305886
LJ           -2.3487       -0.538291       0.0276171
LJ              -nan            -nan            -nan
LJ           2.34224       -0.919251       -0.962312
LJ              -nan            -nan            -nan
LJ           1.77077       -0.731251       -0.632504
LJ           1.33511         1.63256       -0.370862
LJ           -2.5403        -2.32585       -0.598791
LJ           1.55637        -1.23548        -2.37165
LJ           1.64908        -2.17591       -0.463725
LJ           1.38863        -1.16151        -2.54966
LJ           1.69023        0.330896        -2.55896
LJ           1.40817        0.497425       -0.916299
LJ          -2.51554        -2.03005       -0.479252
LJ          -1.23237       -0.851825       -0.739869
LJ           0.18709        -1.17434        -1.18122
LJ           1.08255        -1.09865        0.492329
LJ           1.76933         2.21548        -1.24714
LJ         -0.112897      -0.0934082       -0.210289
LJ           -0.4855        0.937638     -0.00628594
LJ           1.04567        -1.82728        -1.07645
LJ           1.13464       -0.493341         0.97658
LJ              -nan            -nan            -nan
LJ         -0.329161        0.970668       0.0907135
LJ           0.27573         1.68048       -0.658778
LJ           2.00511        0.973299        -1.83022
LJ           1.48966        -2.37864         -2.4996
LJ           2.05076         1.58472         1.98639
LJ         -0.603962        -2.12664        -1.04814
LJ          -1.61097         1.98197        0.993247
LJ           2.51383        -2.56485         1.63774
LJ          -1.07228        -1.82537         1.04677
LJ          0.808174         2.30936         1.61103
LJ           1.71556         1.91459         1.41185
LJ          0.929796          2.0173        0.293495
LJ          -1.38386        -2.04721       -0.434883
LJ         -0.325684       -0.535771        -1.59981
LJ              -nan            -nan            -nan
LJ         -0.289089        0.326602        -1.13212
LJ          -0.91263       -0.265946       -0.264542
LJ          0.857356     0.000667309         1.58098
LJ          -1.39932         1.43835        0.879906
LJ           2.40478        -1.27219        -2.33407
LJ         -0.979763        0.103223         1.78955
LJ          -1.03205       0.0761473        0.989994
LJ           2.40838        -1.80881        -1.41654
LJ          0.683029         2.22313        -1.76568
LJ           -1.1168       -0.842849        0.518868
LJ         -0.361483         1.41197         1.68677
LJ           1.84568         2.23402         0.65522
LJ          -1.90527       -0.401786         1.31441
LJ           2.30461        -1.23875        0.445524
LJ         -0.735523       -0.947645        -1.23364
LJ           1.31813        -1.81593         -2.5034
LJ           1.44466       -0.429654        0.150672
LJ             1.392        -2.19497         -1.9426
LJ          -2.41759         2.30389          1.7704
LJ          0.936881        -1.64862         2.12887
LJ           1.70502          1.9107       -0.945616
LJ         -0.103536        -1.09599         0.43061
LJ              -nan            -nan            -nan
LJ           1.01508         1.72112          1.5335
LJ           1.40937         2.00086        0.117063
LJ          -1.75722         1.56786         0.39452
LJ          0.115901       -0.706733        -0.18149
LJ          -1.95817       -0.740807       -0.687932
LJ           1.12247       -0.299898         2.03159
LJ           2.05576        -1.54423        0.915432
LJ              -nan            -nan            -nan
LJ           1.47243         2.39424       -0.979852
LJ            1.2369         2.08072         2.49711
LJ          0.480839          0.4935        -1.39395
LJ          0.946845       -0.996319        -2.14417
LJ          -1.45525        -1.84181         -1.7379
LJ         -0.255782          1.9573       -0.964031
LJ           1.75687        -2.15613        -1.18484
LJ           1.13953         0.29406        -1.12217
LJ              -nan            -nan            -nan
