108
#Comment!
LJ          -0.12675        -1.10587        -2.01148
LJ         -0.728116        -2.37392         1.84075
LJ         -0.933547        -1.55907         -0.1082
LJ          -2.56467        -1.47621       0.0752313
LJ          -1.89453       -0.315398        -2.23841
LJ          -1.54532        -1.62343        0.484435
LJ           2.15268        -1.22738       -0.532267
LJ           2.20176         -2.5173        -1.69973
LJ          -1.28112        0.543568        0.407759
LJ           2.45653       -0.453717         -2.3655
LJ              -nan            -nan            -nan
LJ           1.43655        -2.30711        0.194425
LJ           1.95216        0.615348        -1.23258
LJ           1.10719       -0.296867         1.19353
LJ          -1.60501         2.21226         -2.3042
LJ          -1.93069         1.60654       -0.804255
LJ              -nan            -nan            -nan
LJ              -nan            -nan            -nan
LJ         -0.124782        0.652043       -0.732948
LJ              -nan            -nan            -nan
LJ           -2.4428        -1.41404        -0.32761
LJ           1.58167       -0.926013       -0.942595
LJ          0.848833         2.03251         2.32695
LJ           2.19477        -2.25083        0.179212
LJ        -0.0491005        0.516882        -2.47183
LJ           2.01117         -1.2484        0.208824
LJ           1.30021       -0.220027         2.16188
LJ         0.0506651         1.80658        -1.46968
LJ         -0.993949        0.905376         1.31311
LJ          0.954666        0.899378         2.05474
LJ          -0.15538         2.54699         -1.4824
LJ          -1.06647         2.09292        0.729185
LJ              -nan            -nan            -nan
LJ           -1.9841        0.971739        -0.63205
LJ              -nan            -nan            -nan
LJ           -2.0293         2.46584         1.43073
LJ           2.10902       -0.459009        -1.50732
LJ         0.0877261        -1.49263        0.135562
LJ          -0.83917         0.91342        -1.67927
LJ           1.40642      -0.0039698       -0.948145
LJ        -0.0933381        -1.58724        0.661699
LJ          -2.11389        0.050649        -1.61631
LJ          -2.08615        0.285877        -1.12629
LJ           1.47459       -0.387095        -1.62778
LJ          -1.95822         1.00583        0.428173
LJ           2.48176       -0.263308         1.01006
LJ         -0.816631        -0.10064        -2.25896
LJ           2.21827       -0.699957        0.957057
LJ           0.59475        -2.51456        -2.10668
LJ         -0.121782        -1.10256       -0.893496
LJ         -0.409003         2.18656        -1.62827
LJ          0.178242         2.19429        0.610689
LJ              -nan            -nan            -nan
LJ          -1.83359      -0.0172096        -1.96671
LJ           1.58333         1.01166       -0.308024
LJ          -1.20732      -0.0304892      -0.0221858
LJ          -1.62976       -0.312689         1.76246
LJ         -0.801723        0.906352       -0.562691
LJ           2.22879       -0.678614         2.22602
LJ           1.20267       -0.465272       -0.389985
LJ           2.51359        -1.90884         2.53444
LJ            2.3544         2.05399       -0.150593
LJ          -1.10146       -0.351955         1.53408
LJ          -1.42377        -2.24831         2.40618
LJ          -1.17738        -2.03437        0.310559
LJ          -1.29453        -2.27024       -0.484019
LJ         -0.105126        -2.28612        0.323683
LJ              -nan            -nan            -nan
LJ          -2.50637       -0.207139        0.160612
LJ           1.49218        -1.76712        -1.14378
LJ          0.303605        -2.04734        0.495375
LJ         -0.184975        -0.46083        -1.33305
LJ           1.96264        -1.51732         2.56473
LJ          -0.22722       -0.435436        -1.43762
LJ           1.27574        0.390796         2.44859
LJ          -2.37828        0.820095       -0.166718
LJ          -2.31759         2.00714       -0.456888
LJ           2.36997        -1.72536       -0.203347
LJ          -1.16645        -1.79816        -1.89173
LJ           2.13889         -2.3914         1.64498
LJ         -0.205093        -1.72777         1.51024
LJ         -0.269444        -1.00603         1.00466
LJ           1.37648      -0.0234709        -1.28096
LJ          -2.47876          1.4103        0.409299
LJ        -0.0998375         -2.3969        0.810418
LJ           1.41907         1.12826        -1.71637
LJ          0.490675        0.732996        0.716016
LJ         -0.570823        -1.40441        -2.00093
LJ         -0.814956        0.659761        0.748349
LJ            1.5963        0.115111        -0.58531
LJ              -nan            -nan            -nan
LJ         -0.945451        -1.08939         2.13264
LJ          -1.52009        0.411617        -2.15667
LJ          -0.03901         2.30005        -1.29156
LJ          -2.14977     -0.00786492        0.965879
LJ           2.31636        -2.04166        -0.92591
LJ          0.530738      -0.0632627         -1.5011
LJ          0.265525        -2.40536         1.94036
LJ           1.81019        -2.48273        -1.57215
LJ           1.53912         1.86123         1.70587
LJ          0.865224       -0.747646         2.04879
LJ          -2.33247         1.11824       0.0176252
LJ          -1.38654       -0.349138         1.57661
LJ          -1.87438         1.71717         1.60953
LJ           1.77189        0.504211         1.21183
LJ          -1.72874        0.589984        -1.97841
LJ           1.93218         1.95106        0.647699
LJ              -nan            -nan            -nan
