108
#Comment!
LJ           1.44306         1.87372       -0.768241
LJ           1.35292        -1.28045     -0.00167475
LJ           2.04932         1.42894       -0.251586
LJ           2.20961       -0.106545       0.0838372
LJ         -0.844312         2.18198         1.55778
LJ          0.331049        -2.45809         1.57051
LJ         -0.522798       -0.470233       -0.845561
LJ         -0.458336         1.15705        0.409224
LJ          -1.71088        0.544985        -2.06348
LJ           1.85232          1.8017        -2.40444
LJ              -nan            -nan            -nan
LJ           1.15097        -1.59208       -0.405881
LJ          -1.74229         -2.0364         2.16735
LJ           2.12935         2.46187         2.13022
LJ           1.33317        0.359207         1.81083
LJ           2.02367         1.54868         1.23043
LJ              -nan            -nan            -nan
LJ              -nan            -nan            -nan
LJ          -2.45756        -1.73834        0.625841
LJ              -nan            -nan            -nan
LJ           0.85896        -1.43848        -0.63473
LJ         -0.595875         -2.3458       -0.762114
LJ           2.38833        -2.53146        -2.38464
LJ          0.686136        0.230016        -2.25906
LJ           1.35352         1.90974          2.0217
LJ          0.984238         2.42493        -2.15936
LJ          -2.55593         0.66569        0.427426
LJ          -1.06438         1.86869      -0.0284164
LJ          -1.68279         1.08403       -0.839926
LJ         -0.115542         1.24929         1.88042
LJ         -0.994504        0.206874       -0.702594
LJ           2.05836       0.0823003        -1.09167
LJ              -nan            -nan            -nan
LJ          0.803466       -0.292975        0.821177
LJ              -nan            -nan            -nan
LJ          -2.40492         2.35663          1.1647
LJ          -2.40773        0.467545       -0.766666
LJ           1.50599       0.0669769         1.37155
LJ         -0.273897         1.88322         2.55125
LJ           1.47384        0.181471        -2.47933
LJ         -0.733688         1.11181       -0.353668
LJ          -1.21679         2.17375        -1.68583
LJ          -1.11106        -1.00287       -0.367282
LJ         -0.233929        -1.26935       -0.684574
LJ          0.280522        -2.27682         0.87155
LJ          0.992055        0.833233         1.11636
LJ         -0.012406         1.55299        0.739633
LJ          -1.66772         -1.8837        -1.01397
LJ          -2.08807        -1.11981        -2.53754
LJ          -1.17964       0.0174703        -1.85495
LJ          -2.45783        0.300755         1.08513
LJ        -0.0596698        0.936265      -0.0378651
LJ              -nan            -nan            -nan
LJ          0.252317        0.934035       0.0553365
LJ           1.03778      -0.0264298       -0.337669
LJ          0.156724        -1.94076         1.13019
LJ         -0.127063         1.27479        -1.94828
LJ         -0.485526         2.55253       -0.324053
LJ          -2.24433       -0.583797        0.864863
LJ           1.51623        -2.30407       -0.960288
LJ          -2.28827        -1.83178        0.966234
LJ          -2.41731         1.20108         1.40849
LJ           2.42828        0.560448        -2.42665
LJ          -1.88341       -0.548272        -2.28266
LJ           2.12319       -0.722586        0.153125
LJ           1.36576         2.13761        -1.38796
LJ       -0.00350931        -2.10374        0.902016
LJ              -nan            -nan            -nan
LJ           2.38461       -0.549376       0.0194272
LJ          -2.23014         1.81649         2.03403
LJ          0.247241         1.40517         1.71332
LJ          -2.12974         2.09149         1.04262
LJ           1.68587        -2.04895        -2.09126
LJ         -0.555909        -1.67988       -0.621342
LJ           1.39902        0.415461        -2.37905
LJ          -1.46625        0.758577        -1.51751
LJ          -2.48881         -1.9769         2.31903
LJ           1.10766         1.06847       -0.786251
LJ           1.88154        -1.58233        -1.45831
LJ           0.28906        -1.92877       -0.128961
LJ           1.07487         1.19707           2.223
LJ          -2.33832         1.70832        0.370547
LJ           1.43769        -2.10508        -1.60373
LJ         -0.722905       0.0203822         1.30823
LJ         -0.627981        -2.31426         1.00763
LJ            1.0949        -1.99432        -1.68533
LJ         -0.366694        0.982528        -1.76722
LJ          -2.32434         1.05989        -2.08205
LJ           -1.4497        0.439339        0.356517
LJ           2.13103         2.08949        -1.75367
LJ              -nan            -nan            -nan
LJ          -1.84112       -0.272195        0.511306
LJ         -0.403817       -0.921347         1.39521
LJ           1.53571        -1.31303        0.947703
LJ          -1.07676        -2.45106       -0.987374
LJ         0.0437321       -0.963601        -1.26065
LJ         -0.942306        -2.31081       -0.411994
LJ          0.156276        0.834252        0.314724
LJ           2.49404       -0.659399       -0.511804
LJ          -1.81428        -1.85898         1.96667
LJ           -1.6778        0.655177         2.30848
LJ          0.394315         -2.3039         1.44024
LJ         -0.427544      -0.0490369        -2.42428
LJ           2.33101        -0.22862        0.204914
LJ          -1.93868        -1.87668        0.686131
LJ         -0.268115        -2.53838         1.90253
LJ         -0.880189       -0.688664        0.519215
LJ              -nan            -nan            -nan
