108
#Comment!
LJ          -1.91597        -1.75395         1.46275
LJ          0.764217        -2.41135         1.80161
LJ          -1.36274       -0.478217        0.412432
LJ          -2.12661         2.30822        -2.22282
LJ         -0.705389          1.4265         1.60613
LJ           2.29046        0.522631         2.38375
LJ         0.0487905       0.0675609         2.31405
LJ          0.987972        -1.28224        0.577828
LJ          -0.23459        0.905234       -0.346855
LJ          -2.06739        0.413001      -0.0493947
LJ              -nan            -nan            -nan
LJ          0.902267       -0.558844       -0.412049
LJ          0.680173       -0.350386        0.784266
LJ           2.37344        -1.88199         -1.8932
LJ          -1.42138       -0.773513       -0.681796
LJ              -nan            -nan            -nan
LJ              -nan            -nan            -nan
LJ              -nan            -nan            -nan
LJ          -2.21588         1.09675        0.549998
LJ              -nan            -nan            -nan
LJ           1.41071         1.50112        0.724694
LJ          -1.21774       -0.107983        -1.09908
LJ           2.34059         2.17521       -0.651006
LJ         -0.463546        -1.01428       -0.641289
LJ          -1.00784        -1.83608         2.50745
LJ           2.31697         1.84474         2.50329
LJ         -0.586263       -0.326808         2.32231
LJ         -0.657832       -0.323158          1.6254
LJ         -0.132388         1.71141        0.126089
LJ           -1.6345         2.28237        -1.23275
LJ           1.32821         2.34907        -1.81841
LJ          0.870901          1.3078         2.00504
LJ              -nan            -nan            -nan
LJ          0.593536        0.850614         -1.1364
LJ              -nan            -nan            -nan
LJ          0.616422        -1.47939         2.22463
LJ          -1.27525         0.87628        -1.72495
LJ          0.673133       0.0873359        0.291318
LJ          -1.91615          -1.151        -2.05083
LJ            1.8235        -2.29445         1.51498
LJ         -0.932272       -0.786945        -1.86081
LJ         -0.166568        -1.04726         2.29654
LJ          -1.17347        -1.38559         1.94198
LJ          -1.52683         -2.3291        0.452441
LJ         -0.848637         2.40124         2.24158
LJ           1.30266        -1.48741         2.46496
LJ          -2.27315         1.64493        0.412971
LJ         -0.482934        -1.74162        -1.53759
LJ         -0.122544        -0.56476         2.05837
LJ           2.48941        0.139803        0.980513
LJ           1.01603        0.435843       -0.745682
LJ         -0.699004        -1.33896       -0.843429
LJ              -nan            -nan            -nan
LJ          -1.05713       0.0430972         2.17021
LJ          -2.00777        0.622825        -1.32061
LJ           1.73579       -0.362806        -1.38021
LJ           1.84192        -1.04319         1.59246
LJ           2.15583         1.60144       -0.455853
LJ            2.4301         1.96978         0.14683
LJ           0.37508        -2.33012        -2.46931
LJ          0.948277          2.0164           2.188
LJ         -0.597995        0.559302        0.555349
LJ           1.21572         1.82053       -0.625439
LJ           -0.2584        -1.87073        -2.08033
LJ          -1.91183          1.7036        -2.23509
LJ           1.45788          2.2465       -0.304046
LJ          0.216869       -0.894478         2.09317
LJ              -nan            -nan            -nan
LJ          -1.11622         1.62665        0.813632
LJ          0.105962        -1.28042          -2.215
LJ           -2.5646       -0.389631          1.9661
LJ          -1.89611         2.41305        0.989575
LJ          -1.63619         -2.2558       -0.693231
LJ          0.732367         1.50309       -0.707305
LJ         -0.649565         -1.0609        -1.77196
LJ          -2.22907        -1.92798         2.20727
LJ           1.43306        -1.78025        -1.36588
LJ           1.94652         -1.6919         -1.7252
LJ        -0.0354113         1.73098        -1.64456
LJ         -0.807601        0.609605        0.773353
LJ          -1.52117       -0.744493        -1.13464
LJ          -1.69301        -1.29766        0.377326
LJ          -0.84979         -1.9522        0.559646
LJ         -0.809156         1.91309         1.29181
LJ         -0.285862          1.1676        -1.80662
LJ           1.94881        -2.18292        -2.37139
LJ            -2.522         2.08576       -0.639729
LJ           -1.9025       -0.672696        -0.59854
LJ          -2.52201        -1.92813         -1.3458
LJ            2.4752        0.918799         2.43823
LJ              -nan            -nan            -nan
LJ         -0.939412        -1.56012         1.52336
LJ           1.43644        -2.29726        -2.07942
LJ           1.56395         2.27622        -2.29992
LJ          0.794384         1.46248         1.31187
LJ          -0.15757        0.883655       -0.762226
LJ           2.24096        0.299603        -1.46524
LJ          0.474101        -1.80262         1.08311
LJ              -nan            -nan            -nan
LJ          -2.27322        -1.26503         0.79632
LJ          -2.19838        -1.15822        -2.32138
LJ          0.488804         2.21169         2.28766
LJ         0.0956703        0.203057        -2.49652
LJ           1.48287        -2.19318         2.16861
LJ          -2.40367         2.16701         2.20328
LJ          -1.04035        -2.36777       -0.328563
LJ            1.9797         -1.4295        0.702905
LJ              -nan            -nan            -nan
