108
#Comment!
LJ            -1.778         1.84453         1.43599
LJ          0.988345        -2.30211        0.486335
LJ           1.20776        0.276764       -0.962794
LJ           1.15398        0.561174         2.15506
LJ           2.13385        -2.27449       -0.933561
LJ          0.670592         2.09198       -0.970496
LJ           1.45762         1.73474        0.885726
LJ          -2.12637         1.26971       -0.582527
LJ           1.00612         2.24243         1.44394
LJ           2.29329        -1.11387         -1.0253
LJ              -nan            -nan            -nan
LJ          0.640488        0.663031       -0.832602
LJ           1.06689        -1.84196        -2.35549
LJ         -0.901763       -0.885786         1.51528
LJ           2.39899        -1.74526        -1.75888
LJ          0.812579        -2.10202         1.91276
LJ              -nan            -nan            -nan
LJ              -nan            -nan            -nan
LJ           2.56116        -1.04188          1.8624
LJ              -nan            -nan            -nan
LJ          -1.72521        -1.72355       -0.916476
LJ          -0.35703        -1.60831       -0.140216
LJ         -0.896988         2.10958       -0.249852
LJ          0.360533         -2.1463       -0.244675
LJ          0.315247         0.80301        -1.07496
LJ          -1.57084       -0.196666        0.380515
LJ           1.68812       0.0768716        -1.96042
LJ           2.54342        -2.46199          1.0836
LJ           2.48693         1.81063        0.599867
LJ          -2.40637         2.24595        -2.35659
LJ         -0.348986       -0.998749         0.11246
LJ         -0.964274        -2.24265         1.66804
LJ              -nan            -nan            -nan
LJ          0.604212        0.176255         -0.9686
LJ              -nan            -nan            -nan
LJ          -1.86821        -0.79986       -0.443809
LJ         -0.678516        -2.11888        0.270181
LJ          0.171441         2.50116       -0.721055
LJ          0.014483        -2.36511        -2.34654
LJ           1.01646         1.22115       -0.904528
LJ          0.980074        -1.11007       -0.662342
LJ           1.70223        -1.68031         1.46084
LJ          -1.71411         2.13825       -0.370099
LJ          -1.41628        -2.32139         -1.6814
LJ           2.42256        0.661762         2.39947
LJ           2.00166        0.182377        -1.77335
LJ           -1.0985         1.41905        -2.31318
LJ           1.59129         1.09396          1.6458
LJ          -1.11444         1.71715        -2.39182
LJ          -1.85489        0.276765        0.457654
LJ          0.257125        0.140878       -0.881486
LJ         -0.826954        -2.55866         1.81157
LJ              -nan            -nan            -nan
LJ           2.18908        -1.74877        -2.23298
LJ          -1.31241        0.385516        -2.50714
LJ          -2.25292         2.29433        -1.28798
LJ         -0.311161       -0.283447        0.397612
LJ           1.76473         1.50189        -1.25304
LJ        -0.0648833       0.0568819        0.117786
LJ           2.19228       -0.260871        -2.26307
LJ           2.21095        -2.44145        -1.04957
LJ         -0.852229         -2.2892       -0.734179
LJ          0.776606         2.28641        -1.56886
LJ         -0.967269       -0.718679         1.88682
LJ         -0.985048         1.70657         1.56105
LJ         -0.652185         -1.8065         2.27033
LJ          0.980543         -2.2777     -0.00271895
LJ              -nan            -nan            -nan
LJ          0.260152        -1.26024       -0.382024
LJ          -1.75511         1.38599       -0.445105
LJ          -1.55045         2.11506        -2.06332
LJ           1.65352         1.70937        -1.12617
LJ          -2.33934         2.12801        -1.10212
LJ          0.738305         2.43067         1.19809
LJ          -2.14665          2.5117       -0.287958
LJ         -0.849879        -2.44513        -1.24433
LJ          -1.46263        -2.18198       -0.441564
LJ          -1.03687        -2.39077        0.329988
LJ         -0.621879         1.44702        -2.55822
LJ          -2.33017         1.70491        -1.93305
LJ         -0.793716         1.63791       -0.812904
LJ          -1.00452         0.35129       -0.619878
LJ          -2.01952         1.07359        0.790852
LJ         -0.779729        -1.14873        -2.38179
LJ         -0.385164         1.50554         0.70695
LJ          0.760759       -0.298778       -0.302698
LJ          0.345271        0.055462         2.31841
LJ          -1.01758         0.84991        -2.52844
LJ          -2.27882          1.2846       -0.264845
LJ           2.09053        0.384298       0.0476338
LJ              -nan            -nan            -nan
LJ         -0.630156         1.26445       -0.512243
LJ          0.877324        -2.36904        -1.63743
LJ           1.37872        0.685251       -0.992197
LJ          0.637664        0.338956        -2.08071
LJ         -0.522043     -0.00588289        -1.92849
LJ           1.67379          1.5741         2.54755
LJ          -2.34503        0.796186        -0.35798
LJ        -0.0978052       -0.637696        -1.51361
LJ           1.26746        0.935953         1.03601
LJ           2.36918        -1.73806         1.87099
LJ           1.37941         2.41948         1.06983
LJ           1.11211        0.562061        -1.53565
LJ         -0.320363        -2.49229        -1.66096
LJ            2.1804        0.231377         1.31997
LJ         -0.369042        -2.27705         2.29014
LJ           1.45385        -2.42872         1.57974
LJ              -nan            -nan            -nan
