108
#Comment!
LJ           2.32203         -1.1532        -2.44226
LJ          0.575269         1.87805        -1.82928
LJ         -0.749862        0.198992         2.05186
LJ          0.255969        -1.77902        0.839729
LJ         -0.331286        -2.28273       -0.726915
LJ          0.917877         -1.8166        0.528352
LJ          0.232856       -0.872751       -0.550626
LJ          -1.46411        -2.28516         2.33824
LJ         -0.650045         0.46831        0.165431
LJ         -0.411004        0.607162       -0.862142
LJ              -nan            -nan            -nan
LJ          -1.83824       -0.351938         2.50383
LJ           1.17356       -0.930648        -1.06851
LJ              -nan            -nan            -nan
LJ           1.29409          2.4367        0.920845
LJ              -nan            -nan            -nan
LJ              -nan            -nan            -nan
LJ              -nan            -nan            -nan
LJ          0.502326        -1.01324          2.3992
LJ              -nan            -nan            -nan
LJ          -1.69763        -1.38116      -0.0163893
LJ        -0.0192457        0.971013         2.32755
LJ           2.16872       -0.174748        0.351973
LJ          0.254286        -2.19543        -2.38087
LJ         -0.587778         -1.8088        -2.46256
LJ          -1.14562        0.513152         2.04604
LJ         -0.147464          1.5155         1.88967
LJ           2.07976        -1.24138         1.86813
LJ           1.12597        -1.62586         1.80698
LJ          -1.19906        -1.83964        -2.27979
LJ           1.65392        0.848195        -2.12045
LJ          -1.72033         1.89066         1.95214
LJ              -nan            -nan            -nan
LJ            2.4152        -1.72121        -2.27984
LJ              -nan            -nan            -nan
LJ           1.72682        -1.69394        -1.72631
LJ           1.87436         -1.4577       -0.898861
LJ         -0.785394        -2.22917        -2.35692
LJ         -0.191153        -1.05635        -1.05394
LJ           2.38486        0.220224        -2.14693
LJ          -1.63755        -1.43129       0.0877586
LJ           2.41291        -2.45597        0.756635
LJ           1.90548       -0.207326        -1.94301
LJ           2.55544       0.0721527        -1.77715
LJ         -0.863261        -1.08824        -1.35461
LJ          -1.42751       0.0974751       -0.237193
LJ           2.10817         0.62448        0.421098
LJ         -0.883877       -0.834413         2.13641
LJ          -2.31808       -0.218903        0.256614
LJ          -1.59599        -1.44709        -1.75817
LJ          0.672623          1.7548        -1.05202
LJ            -2.295         2.49309         1.98569
LJ              -nan            -nan            -nan
LJ          -1.46167        -2.46899        -1.63993
LJ          0.302513       -0.263969       -0.309405
LJ          -1.83452          2.1624        0.517187
LJ          -2.38286         2.07597        0.297069
LJ           1.04524       -0.998343       -0.959245
LJ          -2.41993       -0.521666       -0.248274
LJ           2.39888       -0.880601        0.679069
LJ           1.59131        -1.47046         -1.5303
LJ         -0.962986        -1.57462         1.15538
LJ            1.5895          -1.083        -2.30366
LJ          0.422505       -0.143999        -1.66919
LJ           1.95332        0.626643        -1.81278
LJ         -0.908637       0.0261086         1.83078
LJ         -0.760492        0.300379        0.395277
LJ              -nan            -nan            -nan
LJ          -0.70239        -1.80998        -1.29357
LJ         -0.184494        -2.51881         1.19099
LJ          -1.98497        0.980261       -0.535768
LJ         -0.587421        0.677352         0.47435
LJ          -1.27588         -1.0262        0.760478
LJ          0.319968       -0.879757        -1.21054
LJ          -2.54867        0.260493        0.924181
LJ           1.64156        0.116371         2.09451
LJ         -0.380021        -2.15371         1.44154
LJ          -2.38162      -0.0645883        0.855543
LJ          -2.03315        0.014174       -0.403773
LJ          -1.15235      -0.0437727         0.96126
LJ          0.860037       -0.565955         1.94664
LJ          -1.97856        -2.19697         1.62409
LJ           1.58931       -0.100608         2.25265
LJ          -1.23843         -2.2076        -1.32825
LJ           2.12025        -2.28277       -0.810847
LJ         -0.879158        -1.35367        0.341254
LJ         -0.115352        0.418645       -0.966529
LJ         0.0623346        -2.00319        -2.02172
LJ          -1.93145        -1.47492         2.24167
LJ          0.245216       -0.565765         1.26449
LJ              -nan            -nan            -nan
LJ           1.49811         -2.5007         0.83697
LJ         -0.504327         2.52494        0.951527
LJ            1.2765         1.96929         2.24377
LJ          0.415098        0.203067      -0.0756667
LJ         -0.116473        0.650505        -2.04162
LJ          -1.98708        0.598952        -1.53365
LJ           0.17242         1.92382        -2.28368
LJ              -nan            -nan            -nan
LJ           -1.1397         2.50105          1.2902
LJ           -1.0868        -1.11037        -2.09273
LJ          -2.18269        0.863497       0.0547748
LJ          0.279801        0.502618         2.36811
LJ          -1.46503        -2.14201       -0.208867
LJ              -nan            -nan            -nan
LJ          -2.00398         1.27765       -0.651524
LJ         -0.840338         -1.7298         1.57366
LJ              -nan            -nan            -nan
