108
#Comment!
LJ           1.28671        -1.23991        -1.93431
LJ          -1.68821         1.06501       -0.475395
LJ            1.4791        0.518211       0.0310697
LJ          0.482288         2.04573         0.21251
LJ          0.793498         1.84299         1.13514
LJ          -1.36898          1.8768       -0.788971
LJ          0.105085         1.29221        0.263132
LJ          -1.02041        -2.55374        -2.33271
LJ          -2.23821         1.85892       0.0562503
LJ          -2.09305         2.25923       -0.363183
LJ              -nan            -nan            -nan
LJ        0.00313734         0.78172        -1.37781
LJ         -0.363475        -1.47645        0.887028
LJ              -nan            -nan            -nan
LJ          0.509896        -1.47479        -1.48583
LJ              -nan            -nan            -nan
LJ              -nan            -nan            -nan
LJ              -nan            -nan            -nan
LJ          0.886101         -1.2653         1.23887
LJ              -nan            -nan            -nan
LJ           2.44674        -1.38182      -0.0744973
LJ           1.54274        -1.13079       -0.975449
LJ          -0.86139        -2.12949       -0.152509
LJ              -nan            -nan            -nan
LJ           1.80885         0.70837         2.39523
LJ          -1.47474         1.65564        -2.21364
LJ          -1.44833         1.63014         1.11392
LJ           1.85016        -0.58227        0.526706
LJ          -2.00153         1.30294         1.13285
LJ          -0.54045         1.15935        0.411933
LJ              -nan            -nan            -nan
LJ           2.01546       -0.886788        -1.64392
LJ              -nan            -nan            -nan
LJ          0.384316        -0.27387        0.398362
LJ              -nan            -nan            -nan
LJ          0.697378         -1.0182         2.20162
LJ          -2.45987       -0.879684         2.22497
LJ          -2.15395        -2.50986         2.41594
LJ         -0.664119        0.398786       -0.819071
LJ           1.17189        -2.37999         2.15524
LJ            1.5504       -0.176238        -2.35759
LJ           1.99007       -0.408829         2.54122
LJ          -1.43734        -1.07708        0.479726
LJ          -2.03459       -0.469886       -0.523361
LJ          0.426195       -0.621682      -0.0893923
LJ           -2.2102        0.682548       -0.814674
LJ          0.115128         0.10672        -2.11371
LJ          -2.36198       -0.152857        -2.22071
LJ        0.00910678         1.71051         2.24331
LJ          -1.05438         1.74515      -0.0406833
LJ          -1.62505         1.55239        -1.10801
LJ           1.64586         2.54878       -0.984246
LJ              -nan            -nan            -nan
LJ          0.515288        0.148525        0.460556
LJ           2.11624        -2.34955         1.19666
LJ          0.398736        -2.43169         2.02031
LJ          -2.44634         0.34304         1.66399
LJ         -0.975326        0.239815        0.630416
LJ          -1.64186        -2.47989        -1.97454
LJ           1.39271         1.64619        -2.21228
LJ          0.660217         1.78834       -0.912305
LJ           1.92736        -2.45441        -1.07745
LJ          0.214373        0.700139          2.3661
LJ              -nan            -nan            -nan
LJ              -nan            -nan            -nan
LJ          -1.74944         1.22445       0.0518889
LJ          -1.65267        -1.22679         1.68716
LJ              -nan            -nan            -nan
LJ            2.4493        0.289034        0.881398
LJ          -2.40058        -1.97675          1.6523
LJ          0.132263        -1.70904         -1.0663
LJ          -1.07107       -0.218885        0.998245
LJ           1.15781         1.11724         0.67268
LJ          -1.13089        -1.59814         1.28842
LJ        -0.0283098         1.44582        -2.50413
LJ          -1.55114         1.11632        0.561247
LJ          -2.48435        -1.59912       -0.926346
LJ         -0.146987        -1.99363        0.983501
LJ          -1.03224       -0.414568        0.740615
LJ          -2.30158        0.246841       -0.703332
LJ           1.22289        -1.89298        -1.44577
LJ          -1.95656       -0.145221         2.41754
LJ         0.0495511       -0.771368       -0.341156
LJ          -2.52605         1.49908         1.89337
LJ          -2.06347         1.10867        -2.33134
LJ          -1.81942        -1.41807        -2.21751
LJ          -1.98472        -1.76394        -1.30562
LJ           1.02377         1.18719         2.28544
LJ          -1.77474         0.83034       -0.574125
LJ          -1.10998         -1.4515         1.66937
LJ              -nan            -nan            -nan
LJ           1.07501       -0.809433       -0.834518
LJ         -0.731115        -1.12954          1.6886
LJ          -2.01797         -1.2231        -1.58528
LJ           2.37219       -0.765142         1.30096
LJ          -1.10592       -0.250985        0.377695
LJ           2.44414        -2.12304        -1.22083
LJ           1.38275        -1.60825       -0.279988
LJ              -nan            -nan            -nan
LJ          -2.52035        -1.99892        0.161431
LJ         -0.644539        -1.20591         2.04088
LJ           1.32891         2.22906        -1.39016
LJ          0.610252        -0.68194        -1.10162
LJ          0.708973       -0.836644          1.8816
LJ              -nan            -nan            -nan
LJ          -2.47909        -2.45729        -1.98446
LJ          -1.86857        0.592561         2.02817
LJ              -nan            -nan            -nan
