108
#Comment!
LJ          -1.63478       -0.175927         1.37111
LJ          -0.94637        0.719205        0.874508
LJ           1.40176        0.571166        -2.48938
LJ         -0.256396        -2.27304         1.49031
LJ         -0.996637        0.774505        -2.30354
LJ          -1.03721        0.678428         -1.0442
LJ           1.40599        0.617862        -1.83031
LJ           1.85768        0.740747        -2.09627
LJ            1.0704        -1.36456         2.46401
LJ          -0.36985         1.55643         1.67456
LJ              -nan            -nan            -nan
LJ          -1.39148        0.811062        -1.61217
LJ          -1.87679        0.482385       -0.895416
LJ          -1.75543         2.12851         2.09797
LJ          -2.16097         2.04921        -2.29958
LJ         -0.176558        -1.53672         -2.2157
LJ          -1.66385         2.32302         1.34291
LJ           1.08198        0.376228        -2.51746
LJ           1.54686        0.452523        -1.80214
LJ           2.54182        -1.98343        -2.10673
LJ          -2.45447          2.4971         1.75482
LJ           1.36929        0.876139         2.25321
LJ          0.878121         2.48282        -0.58107
LJ         -0.136775         1.59531        -1.11949
LJ         -0.959931         2.56165        -1.07094
LJ           1.41698         1.30506        -2.44059
LJ        -0.0655867       -0.268853         2.48533
LJ           2.43045       -0.304793        0.514139
LJ           2.39201         0.15632        -1.90448
LJ         -0.591595         1.31064         2.12036
LJ           1.23102        0.283986         1.06301
LJ           1.77613         0.65554         1.36038
LJ              -nan            -nan            -nan
LJ          -1.69386        0.409852       -0.252287
LJ              -nan            -nan            -nan
LJ         -0.215503         2.42854        -2.29695
LJ            1.8996         -1.6092        -1.78451
LJ           2.43183        -1.73014         2.45206
LJ         -0.395839        0.661478         1.49352
LJ           1.16416        -1.28227        -1.69453
LJ         -0.828782        -1.95746        -1.06771
LJ          0.828276        -1.19392         1.29903
LJ          -1.93735         1.49161       -0.785475
LJ           2.47493        -1.53387         2.46558
LJ        -0.0915043         1.33726      -0.0835753
LJ          0.593198        0.257654        -1.45922
LJ          -1.85203        -1.46021       0.0128982
LJ          0.170423           2.423        -1.38871
LJ           1.64374        -1.62388         1.56989
LJ          0.758594       0.0803314       -0.831248
LJ           -1.5413       -0.729643         1.60389
LJ          -1.17033         2.14824         1.37658
LJ          -2.42421         2.38777         2.50423
LJ         -0.867946         1.22879         1.51973
LJ         -0.772453        -2.29223        0.196102
LJ          0.554442         2.53406        0.482921
LJ         -0.406342         0.72789        0.977375
LJ           2.08823       -0.639418       -0.262793
LJ           2.05255         2.49055        0.960251
LJ          -1.62003        -1.71031        0.932987
LJ        -0.0824622       -0.377891        0.235483
LJ          -1.79771         2.31427          1.5169
LJ          0.372454         1.09225        -2.07445
LJ           1.00098        0.155935         1.90794
LJ          0.917584         -1.2023         1.55391
LJ         -0.239258        -2.01345        0.317401
LJ          0.864198          1.3412        -1.22975
LJ              -nan            -nan            -nan
LJ           2.06827         1.62732         2.17081
LJ          0.569445         -2.0261       -0.550447
LJ          -1.47726         1.62488         1.68261
LJ           1.05412         1.30656          1.3521
LJ          0.685797      -0.0578232        0.706222
LJ          0.390292        0.177561         2.45201
LJ           2.50342         0.85093       -0.385652
LJ          -1.00516         1.71783         1.69872
LJ          -2.31422         1.67622        -1.09879
LJ           2.35844       -0.195102        -1.44277
LJ          -2.40066        -1.63671        -2.12807
LJ        -0.0214601        -1.30363        -1.87358
LJ          -2.33287        0.926315       -0.183161
LJ           1.61363        -2.15839        -1.61689
LJ          -1.76338         1.49692        -1.65129
LJ           2.03421         1.72941         1.61381
LJ           1.59352        0.122969        -2.35376
LJ           -1.4547         1.86342        -1.72581
LJ          -1.22937       -0.076179         2.52913
LJ          0.116303         1.98396         0.92039
LJ          -1.30113       -0.450409        -1.07568
LJ        -0.0889112        -1.64325        -0.92085
LJ           1.45321         1.10108        0.928559
LJ          0.446044        -2.15298        -1.35542
LJ          -0.79579         1.44711        0.303241
LJ           2.52529        -2.52387        0.498701
LJ          0.553138         -1.9722         1.75713
LJ         -0.248532         -1.9132        -1.46588
LJ          -2.38191         1.51596        0.980209
LJ            1.8395        0.926438         2.23989
LJ          -1.33908        -1.01648       -0.924939
LJ          -2.56299       -0.223194        0.256027
LJ           0.53589       -0.519006         1.01832
LJ         -0.061167        -1.01313        -1.70536
LJ          0.502002        0.733227         2.38635
LJ            1.9489         -2.1365         1.96856
LJ           1.30837        -1.71543         1.42928
LJ          -2.35762        0.929263        0.196953
LJ          -2.55158        -2.00286         2.03943
LJ          0.268254         -1.6855        -0.18795
