108
#Comment!
LJ           2.20041        -1.69479        0.265765
LJ          -2.48132       -0.187081         1.67523
LJ         -0.699299       0.0917906        0.118791
LJ          -1.06365        -1.17306       -0.356958
LJ           1.57949       -0.975659         1.55884
LJ          -2.18522       -0.943563         1.50088
LJ          -1.21364        -1.69935         2.05672
LJ            2.5442        0.815614         -1.6526
LJ            -0.625               0         0.96875
LJ           1.82554        0.757342      -0.0420325
LJ              -nan            -nan            -nan
LJ          -1.50928      -0.0282371        -1.60611
LJ          0.763806         1.33405        -1.25228
LJ              -nan            -nan            -nan
LJ         -0.636291         1.59856        0.778388
LJ              -nan            -nan            -nan
LJ              -nan            -nan            -nan
LJ              -nan            -nan            -nan
LJ         -0.685395        -1.46601         2.01506
LJ              -nan            -nan            -nan
LJ           1.42667         2.43814       -0.521925
LJ           2.19605        -2.53806         1.70505
LJ          0.925026        0.766615         2.03668
LJ              -nan            -nan            -nan
LJ            -1.043         1.98059        -2.29323
LJ           2.17943          1.2046       0.0840815
LJ          -1.18386        -1.84073       -0.638026
LJ           1.46912         1.78755         1.52716
LJ         -0.973205       0.0336129         2.45481
LJ         -0.559334        0.256661        -1.00712
LJ              -nan            -nan            -nan
LJ           1.04921         1.86655        -1.39587
LJ              -nan            -nan            -nan
LJ         -0.155366         1.44337        -2.11958
LJ              -nan            -nan            -nan
LJ           1.82211        -1.49001          1.5532
LJ          -2.34914        0.317244         1.78857
LJ           2.36498        -1.02477         2.41879
LJ           1.70133         2.19132        -2.25091
LJ         -0.175976       0.0690044       0.0280149
LJ          0.473972         2.31277         1.78905
LJ          0.529735         1.09542        0.465177
LJ           -1.2434        0.480629       -0.211019
LJ            1.7737         2.21354         1.32688
LJ           1.41516        0.435431        -2.29207
LJ          0.293121       -0.410652        -2.17954
LJ         -0.607095         0.26735        -1.93553
LJ           2.14698         1.04247        -2.12895
LJ          0.184688       -0.302178         1.99256
LJ          0.648195        0.144335         2.35858
LJ            2.5576        0.815537       -0.886898
LJ          -1.01303       -0.354188        0.194352
LJ              -nan            -nan            -nan
LJ         0.0883661         1.16479        -1.76031
LJ            2.1804         0.39775       -0.192945
LJ           1.23567        0.768367        0.634918
LJ         -0.734088        -2.05723       -0.805145
LJ           1.31377         -1.2527        -1.92204
LJ          -2.36479       -0.742512         1.95918
LJ         -0.905714         2.36223         1.47032
LJ          0.501755         -2.5409         1.87783
LJ         -0.892807        -0.97244        -1.17403
LJ          0.328326        0.640157       -0.919846
LJ              -nan            -nan            -nan
LJ              -nan            -nan            -nan
LJ          -0.32884        -1.09626         1.32516
LJ         -0.566063        0.933186        -1.45885
LJ              -nan            -nan            -nan
LJ           -1.8879        0.624135         1.88054
LJ          0.664404        -2.15447         2.05369
LJ             1.326         1.42327        -2.14945
LJ           2.20263       -0.486062        -1.41003
LJ         -0.240505         2.06903       -0.713237
LJ         -0.303499          -1.276         1.18675
LJ          -0.59888         2.28152         1.69445
LJ                -1          2.3125             0.5
LJ          0.846234         2.13781         1.30684
LJ           1.21053         1.29157         2.51236
LJ            1.1361        -2.19701          2.4707
LJ          -1.08027       -0.241412         1.98705
LJ         -0.797496        -2.49916        0.553145
LJ          0.691811       -0.502092        0.532091
LJ         -0.867927       -0.762791        0.728967
LJ         -0.980675         2.08655         1.20944
LJ            2.4095         1.16447       -0.107359
LJ          -1.86875        -1.77191        -2.07184
LJ          0.299008         1.00319       -0.152768
LJ          0.963421          1.8204        0.314006
LJ           -1.9102        0.341254        -2.02358
LJ           0.27655       -0.670976        -2.51175
LJ              -nan            -nan            -nan
LJ           1.53963          1.5546        -1.00143
LJ           2.16299        0.158983        0.858288
LJ          -1.05311         2.36931          0.9911
LJ          -0.68959         2.49105        0.377406
LJ          0.861049        0.806642         -1.5426
LJ           2.47398         -1.9757        -2.50985
LJ          -1.86249         1.25643        -1.76093
LJ              -nan            -nan            -nan
LJ         -0.735006        -1.12391        -1.00097
LJ          -1.11871        -1.13511         2.54904
LJ           1.75296        -0.67082        0.850966
LJ           -2.1306        -1.57893         2.37228
LJ         -0.655892         1.16592       -0.237755
LJ              -nan            -nan            -nan
LJ          0.441014          2.4789       -0.192623
LJ          -1.45651         1.28771       -0.822491
LJ              -nan            -nan            -nan
