108
#Comment!
LJ          -2.28033         2.42358         1.19857
LJ           1.25127         1.79367        -1.91613
LJ           2.35586       -0.970863         0.26432
LJ          0.359998        -2.40625         2.50784
LJ           0.25326        -1.26136         1.08522
LJ         -0.359757        -2.00152        0.306281
LJ          0.780151         1.82624       -0.381691
LJ          -1.94151         1.83171         2.07843
LJ           1.98807       -0.352252       -0.959547
LJ          0.353796        -2.29875        -1.74726
LJ              -nan            -nan            -nan
LJ            1.4387       -0.106358          1.5104
LJ         -0.557961       -0.861144        -1.08124
LJ              -nan            -nan            -nan
LJ           -1.7245          1.6188         2.19352
LJ              -nan            -nan            -nan
LJ              -nan            -nan            -nan
LJ              -nan            -nan            -nan
LJ          -1.92313       -0.711685        0.301663
LJ              -nan            -nan            -nan
LJ           1.45223         1.79455         1.45491
LJ          -1.60468         1.10685       -0.686473
LJ           1.09992        -1.94718         2.10716
LJ              -nan            -nan            -nan
LJ          -2.28555       -0.665103         2.27948
LJ          -1.52425       -0.439046        -1.87081
LJ          0.690042        0.991216          2.1501
LJ         -0.733065        -0.63037        -1.20786
LJ           2.04364        -2.37308         2.15583
LJ          -1.47254       -0.864355       -0.131563
LJ              -nan            -nan            -nan
LJ          -1.57345         1.41546        -2.32625
LJ              -nan            -nan            -nan
LJ         -0.782938       -0.728882       -0.167972
LJ              -nan            -nan            -nan
LJ           -1.7831       -0.039655         -2.0816
LJ            2.5063         1.37526        -1.35668
LJ           1.90163      -0.0218576         2.02105
LJ         -0.607574       -0.657795         2.22576
LJ          0.342545        -1.88313         2.10263
LJ           2.35678        -1.66794         2.36795
LJ           2.18072       -0.170914        0.000861
LJ           1.93008         1.77863        -2.10306
LJ          0.352397        0.143992        0.159476
LJ           1.71257         2.19455        0.148379
LJ          -2.36551        -1.40235         1.25263
LJ          -1.94765        -0.84887         1.06065
LJ           1.38488      -0.0253537          2.2293
LJ         -0.491708         1.09126          1.6989
LJ           1.10082        -2.33104        -1.97537
LJ         -0.293549        -1.50536        -0.87995
LJ          0.832835        -1.63938       -0.526095
LJ              -nan            -nan            -nan
LJ          -2.33373       -0.221944         2.47858
LJ          -2.53022       -0.571414       -0.997049
LJ          -2.01497         1.36961        0.538173
LJ          0.249342         2.42426       -0.132393
LJ          -1.38668         2.02211         1.64479
LJ           2.25976        0.878874          1.3326
LJ          0.708951        -1.12939         2.42066
LJ        0.00421345        -1.14143        -2.25967
LJ          -1.59457        0.787764        -1.00171
LJ           2.06436         2.50821        -1.63554
LJ              -nan            -nan            -nan
LJ              -nan            -nan            -nan
LJ          -1.20896        -1.53409        -1.56245
LJ         -0.246554        -1.68132       -0.135746
LJ              -nan            -nan            -nan
LJ          -1.09548         0.36421         -1.6803
LJ           -2.3056        0.801488         1.21907
LJ           1.78299        -1.59547        0.193834
LJ         -0.987708        -1.57022       -0.589544
LJ           2.32031       -0.254077        0.338562
LJ         -0.859988         2.40973        -1.00845
LJ          -1.75372        -1.57973        -1.47036
LJ          -2.41508        0.917848         2.49782
LJ          -2.48746       -0.204995       -0.777528
LJ           2.08801         1.57614         1.03417
LJ           1.04058         1.71291        -1.07038
LJ          -0.63404        0.876457        0.819081
LJ         -0.324611       0.0560801        0.935813
LJ          -1.79057        -1.12493        -1.77809
LJ          0.480672        -2.04917         1.54199
LJ          0.205924         1.67406       -0.596905
LJ         -0.505227        0.622214         2.23967
LJ           1.05188       0.0664838         1.99615
LJ          -1.84626        -1.94345         1.33984
LJ          0.677063        0.616968       -0.118865
LJ          0.722464        -2.53269         2.48621
LJ         -0.118307        0.206128         2.06229
LJ              -nan            -nan            -nan
LJ           2.41929       -0.757563        0.264512
LJ         -0.486242         1.82296        -2.38305
LJ             1.453         1.93763       -0.886099
LJ           1.57417      -0.0469023       0.0529054
LJ           1.91246         2.45064         1.12451
LJ           1.68446         1.70597         1.07132
LJ         -0.769382        -2.32558         1.21984
LJ              -nan            -nan            -nan
LJ           2.43303      -0.0138594         1.70007
LJ          0.640363        0.161732        -2.48966
LJ          0.380259        -2.45197         1.09799
LJ          0.702835        -2.43102        0.405225
LJ          -1.69804         1.21798        -1.89393
LJ              -nan            -nan            -nan
LJ          -1.33298         1.82843        -0.62812
LJ          0.226936        -1.74802         0.27367
LJ              -nan            -nan            -nan
