108
#Comment!
LJ          -1.03169        -1.42123        -2.42526
LJ           2.47072        -2.02413         1.09354
LJ          0.937774        -2.56423        -1.86653
LJ           1.68917        -2.14306          1.5836
LJ           -0.3515        0.122232        0.569127
LJ           0.29466        -1.16921        -1.29933
LJ          -1.87967        -1.06167         1.06773
LJ          -1.42226         1.71841       -0.165385
LJ          -1.36405         0.21569        0.316092
LJ         -0.417475        -1.08423       -0.434043
LJ              -nan            -nan            -nan
LJ        -0.0967906        -1.79013        -2.46995
LJ           1.63409         1.52416        0.923583
LJ              -nan            -nan            -nan
LJ           2.46728        -1.00148          2.0525
LJ              -nan            -nan            -nan
LJ              -nan            -nan            -nan
LJ              -nan            -nan            -nan
LJ            1.7591        -2.32471        -1.90078
LJ              -nan            -nan            -nan
LJ          0.357707         1.55493         2.39317
LJ          0.407816         1.41801          1.0178
LJ           1.43181         -2.2003         0.56484
LJ           1.72126        -1.75877        -1.53026
LJ           1.90764        -1.40288        -2.50507
LJ         -0.796256         1.68862        -0.70434
LJ         0.0216897       0.0872205         2.47981
LJ            2.2222         1.90909        -1.11501
LJ          -2.52069        -1.91754         1.00516
LJ           0.73877        -1.88805         1.90872
LJ              -nan            -nan            -nan
LJ           2.01882         2.15572         1.19168
LJ              -nan            -nan            -nan
LJ          0.571645         2.28489        0.226111
LJ              -nan            -nan            -nan
LJ           1.84827         1.79195        -1.07005
LJ          -0.58187        -2.42585         2.06573
LJ         -0.805119         1.57483        0.408701
LJ         -0.886053        0.297451         1.23054
LJ           2.27715        -1.43623         2.31477
LJ           -1.8583       -0.323971        -0.63314
LJ          -2.20247       -0.696278        -1.06711
LJ         -0.810244        -2.16261        0.707416
LJ          -2.09824        -1.42075        -2.13021
LJ          -2.32005        -1.87143        -2.25128
LJ           1.18358        -1.44248       -0.579934
LJ           1.01399        0.749985        -2.02101
LJ          -1.75042         2.32064        -1.36253
LJ          -2.38007         1.93558       0.0213635
LJ          -2.20287        -1.91663        -0.22249
LJ          -1.46127        -1.27416       -0.845181
LJ           1.66097        0.552023        -1.04086
LJ              -nan            -nan            -nan
LJ        -0.0431582          1.9962        0.272761
LJ          -2.16743        -0.12762       -0.818227
LJ          -1.18418        0.573859         2.26467
LJ        -0.0387618        0.963376        -1.08325
LJ           1.08136         1.09305        -2.28693
LJ           1.99087        -1.00598        -1.28466
LJ          0.187048        -2.26275        -1.20152
LJ           -1.9299       0.0107936         1.42317
LJ          -2.46404         1.30906         1.24733
LJ           2.39081      -0.0819201       -0.406153
LJ           -1.0734       -0.580887         1.53826
LJ              -nan            -nan            -nan
LJ         -0.578094        -1.66545        0.933299
LJ           2.41227       -0.993139         2.46508
LJ              -nan            -nan            -nan
LJ            1.1706        -1.64207       -0.794598
LJ            1.7605        -2.27939       0.0907777
LJ         -0.699036        0.713948         2.53515
LJ           2.38521       -0.309245        -0.18646
LJ          -1.20382         1.28206       -0.343521
LJ           2.54648        -1.82963       -0.361735
LJ           1.51263        -2.05989        0.667493
LJ           1.95399        0.447387        -2.12148
LJ           2.05029       -0.943508        -1.44415
LJ          0.540205        0.460411        -1.13464
LJ           1.87115        0.382703        -1.99081
LJ          -1.93785         0.28456      -0.0881795
LJ          0.283088        -1.01705        -1.32087
LJ           2.35501       -0.393399       -0.240772
LJ         -0.513217        -1.85351         2.21904
LJ          -1.41611        0.753794        -0.42676
LJ           2.04506        0.213339        -1.73627
LJ           2.43122       -0.743698        -1.86574
LJ          -1.71995         1.74002        -1.47868
LJ           1.08971         2.12057         1.04764
LJ          -1.01792       -0.881054        0.345712
LJ           0.58768       -0.657757         2.02478
LJ              -nan            -nan            -nan
LJ         -0.192939         1.49489       -0.260556
LJ         -0.715767        -1.27297       -0.647486
LJ          -1.56031        -2.08326       -0.406854
LJ         -0.481247        -2.00017         1.22491
LJ           -1.8313       -0.222845       -0.258935
LJ          0.260705       -0.707839          -1.922
LJ        -0.0573032       -0.655551         1.22005
LJ              -nan            -nan            -nan
LJ        -0.0833961         1.98685       -0.431346
LJ          -2.08451        0.331477        0.939047
LJ          -1.74116       -0.892697       -0.948702
LJ           2.12578         2.53195        -1.70488
LJ          0.584219         1.75023        -1.94211
LJ              -nan            -nan            -nan
LJ           1.82613        0.528195        0.910057
LJ          -1.73904       -0.508506          2.2268
LJ              -nan            -nan            -nan
