108
#Comment!
LJ          -1.24349         1.24615        -0.15961
LJ          -2.36804        -2.35877        -1.19552
LJ         -0.145798       -0.119254        0.102718
LJ          -1.30316         2.01831         1.56884
LJ         -0.689971       -0.590858        0.668789
LJ          -1.01132       -0.426194         1.49419
LJ           2.29896         -1.9879        -1.37286
LJ          -1.50971        -1.02573       -0.101082
LJ         -0.717796        -1.72124         1.23739
LJ         -0.555112        0.835186         1.34358
LJ              -nan            -nan            -nan
LJ          -1.13102       0.0975737         1.29449
LJ         -0.117419         1.46702         1.38399
LJ           1.23276       -0.973886         2.37195
LJ           2.09524          1.6893       0.0751896
LJ          -2.33651        0.732549        -1.13978
LJ              -nan            -nan            -nan
LJ              -nan            -nan            -nan
LJ           1.77475         -0.3578       -0.193299
LJ              -nan            -nan            -nan
LJ           2.29186        0.580728        -2.18512
LJ           1.51206       -0.733335         1.28114
LJ          -1.59096        -1.75087       -0.270178
LJ          0.930229        0.274134      -0.0310435
LJ           2.06464        -1.84948        -1.52749
LJ          -2.27877         1.72159         2.38161
LJ           1.72098       -0.956331         1.59149
LJ          0.789145         1.27569        -2.28386
LJ           1.18255        -1.59751       -0.539271
LJ            2.5164         1.18228        0.193165
LJ          0.699387        0.500401         1.64951
LJ          -2.18819        0.290628         1.53661
LJ              -nan            -nan            -nan
LJ         -0.795136         2.45653       -0.917768
LJ              -nan            -nan            -nan
LJ          -2.37424        -1.97238        -2.16546
LJ           2.41434        -2.20671        -1.62506
LJ           1.98158        0.816539         1.38429
LJ         -0.927309        -2.47828        -1.16725
LJ          -1.82063       -0.384282         1.15604
LJ           1.78478        0.681443         1.70213
LJ            1.9501       -0.859575        -2.44127
LJ           0.76245      -0.0968763         1.95484
LJ           2.16117        0.864809       -0.693249
LJ           0.32014          -1.269         1.36888
LJ         -0.855181         1.20904       -0.664893
LJ           -1.3669         2.23611         1.21975
LJ         -0.428705        -1.86819         -1.2389
LJ           1.51364       -0.939238         1.12003
LJ           1.00746        0.322002         0.95913
LJ          -0.91685         1.44608         1.93743
LJ           1.02052       -0.454265         1.04798
LJ              -nan            -nan            -nan
LJ        -0.0804601        -1.24383        0.947106
LJ          0.999688        -2.23755       -0.902386
LJ         -0.786375        0.842482        -2.24955
LJ          -1.76141         2.41525        -1.89451
LJ         -0.947586        -2.55992         1.96089
LJ         -0.573052          1.1623        0.169425
LJ         0.0161581        -2.40474         1.07263
LJ         -0.274938         1.21974       -0.691262
LJ           1.66935         0.90239       -0.394937
LJ          -1.00397        -1.04544         1.72985
LJ          -2.02022         2.45996         1.37127
LJ          -1.47072          1.4931       -0.734344
LJ           -2.5048        0.387561          -1.231
LJ           1.26872        -1.03039         1.47854
LJ              -nan            -nan            -nan
LJ          -1.40253        -2.06928        -1.18746
LJ          -1.74681         1.83735        -1.20522
LJ          -2.23872         1.60544        -1.62273
LJ           1.55467       -0.170277       -0.915307
LJ           2.25917         1.87966        0.483832
LJ          -1.11935       -0.551357         1.71417
LJ          -2.14276        -2.12079         1.83531
LJ         -0.810472       -0.628193         1.83688
LJ           2.50806       -0.600871        -2.12554
LJ          -2.38182        0.196716         1.10475
LJ          0.474151        0.396745        -2.40838
LJ           2.24792        -0.42382        -1.63775
LJ          -2.55238       -0.409045       -0.589375
LJ          -1.61829         -2.5375       -0.924937
LJ          -1.88313       -0.684364        0.748114
LJ         -0.407037       -0.351008         1.78613
LJ          0.733179        0.873218         2.19633
LJ          0.948607          1.4861         1.08939
LJ          -1.30259         2.16834        -1.89082
LJ           1.57862         1.51989        0.168301
LJ         -0.992985        0.299452         1.90822
LJ         -0.572359         1.25641        0.946183
LJ              -nan            -nan            -nan
LJ          -0.34091        0.226952        -2.10719
LJ          0.656043        -2.21036         2.19231
LJ          -2.39675         2.06648        -2.55361
LJ         -0.446418       -0.581921       -0.758086
LJ          0.208888         2.08797         1.44621
LJ          0.802072        -2.04886       0.0233579
LJ           1.17243        -1.13511        0.903251
LJ          -1.46584        -1.49768        0.680909
LJ          -1.30593       -0.688343         1.52832
LJ         -0.817186        -1.21008        -2.35773
LJ          0.112221         1.55173        -1.54524
LJ           -1.6195         1.34646       -0.595284
LJ          0.358802        -2.05461         0.86342
LJ          -1.15044         1.89089       -0.592464
LJ           1.76677        -1.21975        0.554081
LJ           1.96598        -1.73317         2.51107
LJ              -nan            -nan            -nan
