108
#Comment!
LJ           2.29994        -1.47257        -2.50437
LJ          -1.01267        -1.52347        0.772623
LJ          -1.29577          2.4283         1.53033
LJ          0.820907         1.65992        0.774579
LJ          -2.14739       -0.384463        0.252204
LJ          -1.65313       -0.482159          -1.161
LJ          0.174453         2.11631        0.765832
LJ          -1.77329        -2.49374         1.31553
LJ           2.18594        -1.97648         -1.7843
LJ         -0.817432         2.53048        -1.86711
LJ         -0.580416        -2.12286        0.033745
LJ           1.11892         1.84207        -1.14428
LJ         0.0435344        -2.52381       -0.148234
LJ          -1.69558         1.50807        0.410367
LJ          -2.42547       0.0615122       0.0305429
LJ          -2.31676       -0.667906       -0.581193
LJ           1.82488         1.60262        -1.56265
LJ          -1.94503         1.26894        -2.18538
LJ          -1.32597        -2.08873        -2.55085
LJ         -0.435626         1.70947        0.341228
LJ          -1.79458        -1.46644        -1.23678
LJ          0.113182        -2.44718        -2.52494
LJ         0.0130151        -1.39225        -1.97065
LJ          -1.85475        -1.18054         2.48196
LJ           1.66152        0.385292        -1.12875
LJ            1.3987        -2.46514        -2.51594
LJ          0.571614        -1.93464        0.776405
LJ           2.49376       -0.968535         2.13075
LJ         -0.467351         1.20293         2.05508
LJ          0.614428        -1.56058        -1.88627
LJ           1.22778          -1.938        0.502004
LJ          0.728675          2.0885        -2.07635
LJ         -0.670115        -1.23456        -1.21529
LJ           2.20537         1.94959         -2.0769
LJ          -2.28373         1.16678         1.46606
LJ           2.17016         1.56317         1.92431
LJ         0.0130547         1.96971        0.783012
LJ         -0.814153         1.38522         2.13944
LJ         -0.892198         1.14255         1.03132
LJ          -1.22075        0.743695         2.26175
LJ          -2.50657         2.05864        0.057925
LJ          0.972349        -2.18307        0.106674
LJ           -1.9437        -1.72464         1.69845
LJ          0.307629        0.447356        0.792091
LJ        -0.0683079       -0.412154         1.38287
LJ       -0.00699123        -1.34776       -0.806645
LJ           2.47528         0.22812        -2.08884
LJ          -1.46999        -1.73865       -0.066567
LJ          -2.53553        -1.19829         -1.7762
LJ           -2.4244        -2.10618        0.500411
LJ         -0.162834        -1.69189         1.35506
LJ           1.33858         1.81108         1.71421
LJ         -0.278854        -1.28119        -1.55035
LJ         -0.709832        -1.97641       -0.800776
LJ          -1.65613        -2.05435        -1.64139
LJ           1.33336          1.3602        -1.21078
LJ          -0.26113        -2.17192         1.51572
LJ         -0.242833        -1.52726         1.16475
LJ          -2.21305         2.20976        -2.50573
LJ         -0.555013     0.000464234        0.738378
LJ         -0.491535       -0.407486        -1.68314
LJ           1.21426         1.91907         2.27916
LJ           1.59719        0.165254         1.04832
LJ          -2.19796         1.95575        -1.27434
LJ           1.54992       -0.476137        -1.49081
LJ          0.243901       -0.487927         2.42774
LJ          -1.19906         1.80291        -1.91318
LJ          -1.43938         -1.8605         1.62302
LJ         -0.496332         1.43996         1.46925
LJ         -0.352493         1.86772        -1.72375
LJ         -0.283064        -2.40281        -1.46653
LJ           1.42702        0.441732        -1.41967
LJ          -1.71291       -0.426083        -2.29819
LJ          -1.15612      -0.0661502        -1.43369
LJ           2.21131       -0.786016         1.22614
LJ         -0.296398         1.00154         1.07944
LJ          -1.93959         1.08716       -0.915564
LJ          0.675373        0.675181         -1.5914
LJ          -1.74752        -1.24574       -0.309625
LJ           1.40273        -2.54496          -2.027
LJ          -1.00979        0.864478        -2.29023
LJ           0.33616        -1.50304        -1.25194
LJ           2.16797        -2.24671        -2.05993
LJ         -0.572814        -0.12379         1.31892
LJ           -1.4064        0.523894        -1.56602
LJ         -0.440571       -0.280215        -1.21258
LJ          -2.36589        -0.34037         0.86729
LJ          -1.95516       -0.275269         2.44059
LJ           -1.1456       -0.698596        0.753944
LJ            2.3907        -1.02372        -2.25154
LJ          -2.56178       -0.785302        0.209201
LJ          -1.41322        0.832302        -1.78399
LJ          0.728809         2.12295        -2.09206
LJ          0.626898        0.504244       -0.215763
LJ           1.22426        0.812947       -0.606414
LJ         -0.308386        0.566676         2.47778
LJ           1.38972         1.97959        0.810381
LJ          0.923585       -0.848979         1.89395
LJ         -0.494017         2.29929       -0.190724
LJ          0.284291         0.42548         2.47761
LJ           1.86295        0.653348        0.818364
LJ         -0.438609        0.414056       0.0759168
LJ          0.857329         2.09611        -2.22327
LJ        -0.0389404        0.577893        0.747663
LJ         -0.813001         1.52246        -1.81743
LJ          0.378944       -0.956923         1.99596
LJ            1.4229       -0.626782         1.75058
LJ          0.976614         2.02649        -1.43885
