108
#Comment!
LJ         -0.212212         1.57544        -1.47678
LJ          -1.33414         1.89292       -0.502141
LJ           1.91735        0.666219       -0.516005
LJ           2.18705        -1.51376       -0.432703
LJ         -0.611252         1.08119        -2.02024
LJ         -0.916028         1.73387        -1.49294
LJ          -2.29189           1.677        -1.68368
LJ           2.08163         2.34999         2.21065
LJ          0.755569         1.71419      -0.0151266
LJ           1.57614         2.31324         1.24717
LJ              -nan            -nan            -nan
LJ         -0.979403        -2.47587        0.984273
LJ           1.58417         2.42623        -1.71822
LJ           2.17523        -1.67526       -0.721309
LJ         -0.164375         1.64745        -1.17425
LJ           2.20792        0.316385       -0.709302
LJ          -1.33087        -1.86227       -0.216802
LJ         -0.309184        0.565804        0.970222
LJ          0.800283         1.23068       -0.345963
LJ         -0.552246         2.12927        0.307897
LJ         -0.616067        -1.28261        -2.55442
LJ            1.1702       -0.729037          1.8775
LJ         0.0294458        -2.46988       -0.174443
LJ          -1.99382       -0.491904        -1.25451
LJ          -2.38454         2.30386         2.20082
LJ           2.32537        0.571979        0.349119
LJ           1.46748        0.539538         1.51015
LJ          -1.78439        -2.38882        -2.02887
LJ          -2.40251        -1.50829        0.185123
LJ          -2.40519         2.49496         2.30281
LJ          -2.45225        0.622325          1.9961
LJ       -0.00254079         1.14718         -1.6727
LJ              -nan            -nan            -nan
LJ          -1.72918        -1.12092         1.52889
LJ              -nan            -nan            -nan
LJ           1.77039         2.11573        -1.14984
LJ          0.680068        -1.23496       0.0818804
LJ          -1.54891          1.0073       -0.692367
LJ          0.844703       -0.305806         2.21958
LJ          -1.47354         -1.1932         2.47957
LJ          -1.02422       -0.185116         2.32609
LJ            1.6487         2.15929        -1.51056
LJ         -0.578829         2.07258        -1.56152
LJ           1.10448        0.461403         1.87444
LJ          -2.15138         1.79515         0.62293
LJ           1.65811        -1.82213        0.350013
LJ          -1.62877        -2.48253         0.93238
LJ          0.271912         1.56068         0.33712
LJ           1.86727        0.758936        -1.21557
LJ         -0.810323         1.89354         1.30809
LJ           2.46357     -0.00565924         2.12328
LJ          -1.38229        -0.62641         2.16559
LJ          0.419356        0.159325      -0.0377433
LJ          -1.85934         1.56174        -1.86668
LJ           1.57589         1.06262         0.96916
LJ         -0.968367         1.78001         1.78789
LJ          -1.96846        -1.76311        -1.87626
LJ           1.87854        -1.10122          1.5314
LJ           1.38133         1.85715         1.87417
LJ          0.936565       -0.922495        0.786772
LJ           1.47402          2.0729         1.13187
LJ         -0.795801        -2.18229        0.852185
LJ         -0.815267       -0.335925        0.554711
LJ          -1.18272        -1.20912        -1.55579
LJ           2.18953        -1.02208        -1.77746
LJ          -1.95946         2.33623        -1.30214
LJ          -2.53223        -1.97297        0.621124
LJ              -nan            -nan            -nan
LJ          0.346339        0.668925        0.356822
LJ          0.450083       -0.976044        -1.97442
LJ          -2.34543        -1.16119        -0.19807
LJ           1.95384       -0.140655         1.63693
LJ           1.44304       -0.160769        -0.85214
LJ         -0.177844        -1.66776       -0.339319
LJ           2.52428        -1.20794          2.1509
LJ           1.42499        -1.84306        -0.72151
LJ         0.0184856        -1.41131       -0.835277
LJ           1.18291        -0.77287       -0.190807
LJ         -0.855234         2.53364      -0.0307089
LJ         -0.679417       -0.964818     -0.00199043
LJ         -0.694432          2.3516         -1.9342
LJ         0.0329291         2.45691         1.76998
LJ           -1.0967         -2.4669        -2.14985
LJ           2.43621        -1.54429        0.535535
LJ         -0.463058        0.771438        0.470029
LJ          -1.30547        -2.23743       -0.463139
LJ           2.28327        -2.18799     -0.00343418
LJ          -1.84017       -0.126992       -0.116966
LJ          0.756975       -0.432368        -1.11219
LJ          -1.21081        -1.59473         1.88246
LJ          -1.62363        -1.65598        -1.49855
LJ          0.488707        -1.05123        -0.67677
LJ          -1.76428       -0.416817         -2.5472
LJ           1.44504        -1.18482        -2.41283
LJ            1.1524        -2.46534        -2.49491
LJ           1.99153       -0.232588         -1.6632
LJ           1.49841          1.9518        -1.83034
LJ           1.67588        0.108657       -0.422365
LJ           2.22614        -1.38671         1.45161
LJ          -1.09681         1.83308       -0.648858
LJ          -1.86644         2.54068        -1.54138
LJ         -0.477212        -2.10063        0.998054
LJ         -0.222024         2.35657        -2.12119
LJ          0.138842        0.762849       -0.465217
LJ          0.420783         1.37223         0.22664
LJ           1.74001         1.94764        0.116012
LJ          -0.65141        -2.14433        0.524729
LJ         -0.165985       -0.937663          0.1721
