108
#Comment!
LJ          -1.63067      -0.0809112        0.953942
LJ           2.04531        0.308481         0.48974
LJ          -2.20142        0.534949       -0.231191
LJ          0.980174      -0.0956038        0.339325
LJ           -1.9951       -0.536566        0.331993
LJ         0.0390181        -2.17698       -0.360656
LJ           2.41367         -2.3034         1.46225
LJ         -0.300077        -2.35725       0.0198803
LJ           1.32815       -0.539391         0.19776
LJ         -0.858227        -2.35498        -2.05126
LJ              -nan            -nan            -nan
LJ          -1.03118        -0.19526        -1.67482
LJ           2.56139          -1.089         1.61494
LJ              -nan            -nan            -nan
LJ          -2.44621       -0.363311       -0.186576
LJ              -nan            -nan            -nan
LJ              -nan            -nan            -nan
LJ              -nan            -nan            -nan
LJ          -1.37171         1.57581         1.73189
LJ              -nan            -nan            -nan
LJ           0.33059         2.04106         1.20315
LJ           1.14319        -1.03987         -1.0125
LJ           2.52305        0.737379        -2.41695
LJ          -1.39873         0.76436        0.939958
LJ          0.649475         1.16635        -2.06028
LJ         -0.247679         2.25873        0.515696
LJ          -1.72931         1.64369       -0.174334
LJ           1.50199         2.19159        -1.63212
LJ          -2.53721         1.44705       -0.095818
LJ         -0.121097       -0.616293        -2.33662
LJ          -2.49711         2.11138         2.09512
LJ           2.24349        -1.73523        -1.19353
LJ              -nan            -nan            -nan
LJ           1.44425         1.90734        0.262104
LJ              -nan            -nan            -nan
LJ           1.57974        0.322553         2.07715
LJ          -2.05654        0.935816        -2.00363
LJ         -0.616494         -1.8613         1.92298
LJ          -1.34009         2.53046        -1.13895
LJ          -1.53488        0.312559       -0.769169
LJ           2.23969        0.608148         2.05797
LJ            2.2666        0.579537        0.866363
LJ          -1.00387       -0.401066        0.234313
LJ           1.67637        -2.42358          1.9528
LJ          0.943778         1.49624        -1.31907
LJ         -0.168179        0.747784         1.49083
LJ           1.42387        -2.32266         2.46342
LJ         -0.494967        0.970342         2.08004
LJ           2.22875         -1.4225       -0.376646
LJ          -2.06859          1.1777         0.68019
LJ         0.0291757        -1.93319      -0.0162367
LJ          -2.37264        -1.57789        -1.34476
LJ              -nan            -nan            -nan
LJ          -1.60625       -0.835829        -1.49464
LJ           1.81611       0.0507662         2.10675
LJ        -0.0597568        0.331067        -2.56201
LJ         -0.798315       -0.861668         1.06378
LJ           2.43776         2.48851          0.4196
LJ           1.72921        -2.28414       -0.272595
LJ            2.4545        -1.20596        -2.06986
LJ          0.783988       -0.188023       0.0605254
LJ         -0.538602       -0.019296         1.56884
LJ          -1.83893        0.164475        0.599607
LJ          0.264191         1.63069       -0.309035
LJ          -2.17555        -1.12297        0.928164
LJ          -1.28517         1.74855         1.69771
LJ           1.98537        -1.28641        -1.47535
LJ              -nan            -nan            -nan
LJ           1.01123        -2.22136        -1.50302
LJ           2.15355          -0.293        -2.09911
LJ          0.638561        0.505717       -0.875774
LJ         -0.322902         1.74776        -1.06505
LJ          0.679339      0.00857436       -0.533295
LJ          -1.77308        0.773952          1.4399
LJ         -0.735687         1.38329       -0.128202
LJ          0.130372          2.2051        0.943656
LJ          -1.24292          2.4252       0.0474934
LJ          -1.43118        -1.81742        -0.74984
LJ         -0.801834        0.804135        -1.67454
LJ           1.10021        -1.43155        -1.05621
LJ         -0.908783       -0.113361        0.672002
LJ           0.13966         2.46495       -0.524098
LJ          -1.07801        -2.38134         2.09875
LJ           -1.5549         2.44237       0.0800562
LJ           1.41709        0.196745       -0.648558
LJ          -1.75972        -1.92298       -0.169663
LJ           -1.9125        -2.49562          2.5358
LJ           1.46866         1.75697       -0.786699
LJ           1.61479       -0.679646        0.503214
LJ           2.06023        -1.77659         1.50154
LJ              -nan            -nan            -nan
LJ          0.398135         1.04935         -1.8557
LJ          -1.67457        -1.88188        -2.14838
LJ          -1.70897         1.66739        -2.13944
LJ          -1.81192         2.24222          2.3083
LJ           1.46461       -0.801954        -0.52789
LJ          -2.17582        -0.17255       -0.227588
LJ           1.13483        -2.27214        0.809134
LJ              -nan            -nan            -nan
LJ           -0.9453         1.32395        -1.98917
LJ           1.10845         2.34234        -2.43829
LJ          -1.54257      -0.0331762         1.86631
LJ          -1.72073       -0.715302       -0.182612
LJ          -2.46798       -0.229747         2.32077
LJ              -nan            -nan            -nan
LJ          -2.33964         2.35606       -0.756793
LJ          0.509928       -0.191418         0.77072
LJ              -nan            -nan            -nan
