108
#Comment!
LJ          0.598514        -1.83928         -1.6595
LJ          0.338846         1.00178         1.88565
LJ           1.50147         1.90689        0.776177
LJ          -1.35515        -1.57103        0.121126
LJ           2.55715         1.81327       -0.816425
LJ           -1.2242        -1.12881        0.928511
LJ          0.447416         2.28209        0.907419
LJ         -0.265506         1.54096        -2.01604
LJ           1.68985          1.3365       -0.301379
LJ           0.69584         -1.4907        0.216576
LJ              -nan            -nan            -nan
LJ        -0.0373194         2.42838        0.108682
LJ          -2.55041        -1.20751       0.0248898
LJ         -0.342053        -1.10489         1.20157
LJ          -1.58228        -2.22249        -2.13421
LJ          0.675899         1.20848        -1.56874
LJ          -1.17386         2.18958         2.56132
LJ          -1.45668         1.55064        -2.55008
LJ          -2.40087        -1.47783         2.24778
LJ           1.38332         1.98037       -0.610273
LJ          -1.62177        -2.21021        -1.83367
LJ           1.87071       -0.329316        0.916471
LJ          -0.77864        -1.66571        -1.48562
LJ           2.29619       -0.546053        -1.45831
LJ          -1.59877        -2.56246         1.54279
LJ          -1.24686        -2.40204        -2.53743
LJ         -0.596772        -1.50749        -1.08355
LJ          -1.30972        -2.17968       0.0962175
LJ           1.04082       0.0244905          2.0089
LJ           1.28149         1.27462        -2.13722
LJ         -0.341351        -1.82919        -2.24838
LJ          0.878168         1.87004         1.19013
LJ              -nan            -nan            -nan
LJ        -0.0788998        0.169463       0.0342853
LJ         -0.822569         1.91518         2.18541
LJ          0.148222         0.69018         2.21268
LJ          0.667541        -1.42883         1.97396
LJ         0.0242237     -0.00174489        -2.35435
LJ          -2.19139        -1.79877        -0.88811
LJ          -1.28723        0.556285        -0.54885
LJ           2.26353         1.33757         1.96857
LJ          0.543494        0.720689        -2.53653
LJ         -0.691027        -0.57145       0.0564496
LJ          -1.24689        -2.35878        -2.11166
LJ           1.78401        -1.56838        0.147908
LJ          -2.35522         2.54862         -2.3574
LJ         -0.435945      -0.0698208         -1.8848
LJ            1.8651        -1.96823        -1.74413
LJ          -1.96158         1.87374        -1.29247
LJ          0.672764         2.17618        0.838105
LJ          0.231037        0.680872        -1.45781
LJ           2.54613        0.614678       -0.342817
LJ           -1.3557         0.48676       -0.178386
LJ          0.012301        0.266032         2.42345
LJ           1.96831       -0.224244       -0.881133
LJ          -1.48056         1.50487         2.26285
LJ          -1.46732         1.55562        0.271105
LJ          0.637309        -2.17835        -1.53992
LJ          -1.62768       -0.264026         2.42974
LJ          0.530424       -0.686698        0.970623
LJ           2.54972        -2.25059        -1.43897
LJ          -1.82272       0.0216402       -0.631176
LJ         -0.611497       -0.811521         1.07359
LJ         -0.829858         2.05509         1.93284
LJ         -0.567779        -2.38196        0.308322
LJ         -0.439472        0.750664         2.27459
LJ          -2.43579        -1.42611        -1.02139
LJ         -0.193707         1.46652        -2.51662
LJ          -1.19163         2.04355        -1.41577
LJ          -1.49558        -2.48319         0.67451
LJ          -2.32097        -1.92901       -0.784571
LJ        -0.0265388        0.230331        -1.57796
LJ           2.55702        0.998287       -0.727361
LJ           -1.6602        -1.81446         1.63326
LJ          0.794742         1.95331         1.17711
LJ           1.02254       -0.853294       -0.192876
LJ          -2.15241       -0.916411         1.62884
LJ           0.67942       -0.989504          1.4652
LJ          -1.91086         1.91328         1.52994
LJ          0.785657        -2.56105        -2.49191
LJ          -1.54402        0.485329         1.74371
LJ         -0.315436        0.748448         1.53973
LJ           2.54471        0.867512         1.58154
LJ          -0.46436         1.01941         1.17018
LJ           2.31792        -0.27911        -1.55055
LJ        -0.0764813          2.2022         1.98065
LJ          -1.89905       -0.805029        0.784022
LJ         -0.118254      -0.0991289      -0.0694526
LJ            -1.045        -1.26563         1.47847
LJ           1.09859        0.861745        0.821369
LJ           1.78452        -2.50784        0.250331
LJ          -1.81779        0.123092         1.91592
LJ          0.949838       -0.946138       -0.892053
LJ          0.874112       -0.230085        -2.24837
LJ           1.46571       -0.884334        -2.46905
LJ          -0.13674        -2.53793        -1.88502
LJ           2.19441        -2.11423        -1.34636
LJ          -2.07239       -0.193216        -1.69404
LJ         -0.203792        -1.90702        -2.42294
LJ         -0.608785        0.325878        -2.08808
LJ          -1.77527        0.563397        -1.28116
LJ         -0.635554       -0.580987        0.809598
LJ           2.26621       -0.657825         -2.3723
LJ            1.4567         1.52881         1.12248
LJ          0.675772        -1.56181         2.37595
LJ         -0.724153         1.12188        -2.42256
LJ          -1.92043         1.76388       -0.262798
LJ          -1.43275         1.48044         0.83788
