108
#Comment!
LJ           1.32221      -0.0665356        -1.11906
LJ           1.31043        -1.49511         1.15784
LJ          -2.04405        -1.01035         2.01929
LJ         -0.145114        -1.55955         2.22667
LJ           1.65417       -0.387792      -0.0216288
LJ         -0.560578       -0.840888        -1.32217
LJ          -1.85212       -0.851926        -1.90696
LJ          0.648856         2.22305         1.72879
LJ          -2.46623        -2.54626         1.64281
LJ           1.29423         1.13113         2.24917
LJ              -nan            -nan            -nan
LJ           1.53234        -0.47385         1.45819
LJ         -0.790316       -0.516978        -1.92987
LJ          -1.90381        -2.08633       -0.857788
LJ          -1.79191        0.759313       0.0654895
LJ              -nan            -nan            -nan
LJ              -nan            -nan            -nan
LJ              -nan            -nan            -nan
LJ          -2.00042        -1.60514        0.527985
LJ              -nan            -nan            -nan
LJ          -1.40771        -1.16338         1.07791
LJ         -0.887579        -2.06966        -2.51535
LJ           1.52305        -2.46435       -0.946808
LJ          -1.19126         1.68847         1.46298
LJ           -2.4111          2.4505       -0.873347
LJ         -0.460685         1.21585         1.03323
LJ          -2.37105         2.01588        -1.63824
LJ         -0.830343       -0.736855          2.3266
LJ           1.35375        -2.07697         1.59229
LJ           1.11829         2.14084        0.680166
LJ           2.19707        -1.92887        -1.66427
LJ           0.44532        -1.15881         2.31612
LJ              -nan            -nan            -nan
LJ          -1.25333         1.89324         1.57994
LJ              -nan            -nan            -nan
LJ         -0.137766         2.14086         1.32444
LJ          -1.61473        -1.92521        -1.04498
LJ          -2.42491       -0.825311        0.826587
LJ         -0.417935        -2.26297       -0.670588
LJ          0.839485        0.612351       -0.291885
LJ         -0.941968        0.619906        0.604868
LJ          -1.86996       -0.649749        0.579949
LJ          0.795886        -1.31987         1.22926
LJ          0.197998         1.70875       -0.975868
LJ         -0.737809         2.42555        -1.64284
LJ         -0.212032         2.46024        0.501303
LJ           2.12876       -0.691865        -1.33279
LJ           2.35893       -0.354636        0.706915
LJ         -0.764286        -0.24228       -0.684444
LJ         -0.577451        0.502916         1.23869
LJ          -1.17286         1.95022         2.42563
LJ          -2.42986        -1.68104        0.545372
LJ              -nan            -nan            -nan
LJ          -1.77733        -1.34019        -1.90258
LJ           0.85619         -1.3624         2.52109
LJ          -1.52141        0.934769        0.309055
LJ           1.50577         1.93462        -1.81094
LJ          -2.00234         1.86833        -1.19037
LJ          -1.95214        -1.23322       -0.403984
LJ          -1.74224         2.35282        -1.33586
LJ          -1.80371         -2.3022         2.50778
LJ           2.38585         1.04073          1.2394
LJ           2.07242         1.20935        -1.00275
LJ           1.60779         2.42226       -0.730656
LJ        -0.0318032          1.8273        -1.60173
LJ         -0.822755        0.402262        -2.33057
LJ           2.48988        -0.58221        0.562564
LJ              -nan            -nan            -nan
LJ          -2.48607        -2.29951        -1.58911
LJ           1.49854        -1.92451        -1.90305
LJ          -2.07769        -2.21113         -1.5711
LJ           1.35694         1.67557         1.96732
LJ            2.2577        -2.50247         0.20849
LJ          0.281646        -1.84594        -1.70301
LJ          0.923329         2.49613         2.36292
LJ            1.5901         1.37322         2.08482
LJ          -1.88147         2.43304        -2.00978
LJ           1.51979         1.50163        -1.12838
LJ          -1.12483        -1.64062        -1.49624
LJ           1.59213       -0.866701         1.47724
LJ           1.29443      -0.0407353       -0.161991
LJ         -0.916403        -1.33242       -0.406013
LJ          0.839922        -1.92722       -0.273858
LJ          0.693215       -0.389067        -1.49098
LJ          0.560688         2.09978         1.05308
LJ           1.64058        -2.14452       0.0650172
LJ          0.554596            1.64        -1.03794
LJ          0.816523        -2.39965        -1.01389
LJ          0.204128      -0.0654274        -1.05202
LJ          0.068977        -1.22869        -1.95378
LJ              -nan            -nan            -nan
LJ          0.167126        -1.22448        -1.91867
LJ          -1.44511        0.932636       0.0484038
LJ           2.08634        0.450093       -0.676442
LJ          -1.51632        -2.35441         2.28354
LJ           -2.4825        -2.41104       -0.439586
LJ          -1.26671         2.27147        -1.42003
LJ          0.959884        0.966269         2.46719
LJ              -nan            -nan            -nan
LJ          -2.33904         1.44425        -1.66497
LJ          0.545608         2.17406        -2.20368
LJ          -1.53029        -1.47727        -1.05195
LJ           1.06878       -0.830246         1.43124
LJ           2.54086         1.31635        0.790937
LJ         -0.165534        -2.49849        0.343403
LJ           0.30747          1.7382        -1.90695
LJ           1.90844        0.273674        -1.84187
LJ              -nan            -nan            -nan
