108
#Comment!
LJ           1.73088       -0.730826        -1.86564
LJ         0.0117334        0.284882       0.0132587
LJ           2.39097        -2.11411         2.35337
LJ          0.829167          2.0312        -2.52144
LJ        -0.0600757         2.35576       -0.800682
LJ            1.6146       0.0758885         1.82751
LJ          -1.00294        -2.51849          -1.229
LJ          -2.19144       -0.406417        0.925312
LJ         -0.292253         1.62465        -1.35858
LJ          0.437365         1.79193         2.31148
LJ              -nan            -nan            -nan
LJ           1.43037        0.533665        -1.10252
LJ          -1.71671       0.0887449         1.89244
LJ           1.44415       -0.835559       -0.748077
LJ          -2.50275       -0.327762         1.98455
LJ              -nan            -nan            -nan
LJ              -nan            -nan            -nan
LJ              -nan            -nan            -nan
LJ         -0.840909       -0.741913       -0.529323
LJ              -nan            -nan            -nan
LJ           1.41051         1.12258       -0.460163
LJ         -0.868559         1.81763        0.711097
LJ          0.364716        0.568511         1.03792
LJ         -0.150377        -2.37778        -1.83346
LJ           1.24258        0.308827          -2.546
LJ         -0.539322       -0.386325       -0.832692
LJ            1.4271       -0.915103       -0.183828
LJ           -1.1347        -1.22131        0.789245
LJ          0.518543       -0.954298        -1.74021
LJ           1.56378         1.46512        0.228179
LJ          -2.36372         1.44609         2.56071
LJ          0.708805       -0.116478       -0.332549
LJ              -nan            -nan            -nan
LJ          -1.96325         1.93572        -1.94689
LJ              -nan            -nan            -nan
LJ          -1.19042        -1.46053        0.205472
LJ           1.94868         2.14611        -1.79182
LJ          -0.70041        -1.41985        -1.98757
LJ         -0.121892       -0.988112        -1.01887
LJ           1.37799        -2.37251       -0.628166
LJ           1.83755        -2.02235         2.42699
LJ           1.33513        -1.50395        -1.44142
LJ         -0.294383        -2.05463        -1.90416
LJ         -0.501855         2.40976        0.127065
LJ         -0.455907         1.73345        -2.00075
LJ          0.799137        -1.86788        -1.47594
LJ         -0.654805         1.36997          0.5536
LJ          -2.04352        -2.46751        -2.16103
LJ          -1.99234        -1.95831        -1.51087
LJ            1.1553       -0.692124         1.98426
LJ          -1.96333        0.652145        -0.46953
LJ          0.216464       -0.627015        0.721645
LJ              -nan            -nan            -nan
LJ          -2.43479       0.0392787          1.7919
LJ          0.416826        -2.09299        -1.12452
LJ           1.53535        0.597008         1.19197
LJ         -0.393452        0.343834        -2.14114
LJ           1.96783     -0.00140878        0.791355
LJ          -2.08624        -1.27009         1.87714
LJ         -0.626161        -1.23113        0.954517
LJ          0.463457         1.95204      -0.0790271
LJ          0.261349         1.86741         -1.7574
LJ           2.04813         1.18401         1.59407
LJ         -0.061912        -0.28901         -1.3801
LJ          -2.28848        -1.16037        -1.66989
LJ           0.59553        -1.73153         1.76401
LJ           1.11404        -1.71661      -0.0741428
LJ              -nan            -nan            -nan
LJ           1.77766        -1.29244        -1.47191
LJ          0.252661        -1.55059        -2.29296
LJ            2.5446        -1.96872        0.198958
LJ         -0.105971       -0.610068      -0.0720618
LJ           2.10414      -0.0594795           1.819
LJ         0.0457272        0.801263        0.380946
LJ           1.65584        -2.52956        -2.39252
LJ          -0.66705        0.466776       -0.881696
LJ           1.35068        -2.12467        0.588135
LJ           1.93209         1.05692         1.72723
LJ          -1.99688        -1.44889         1.29648
LJ          0.379861       -0.828206        0.926345
LJ           2.23783         1.65878       -0.601715
LJ           2.40676         1.21693      -0.0667415
LJ           1.21242        0.740055        0.517591
LJ          -1.90748         2.06439      -0.0400567
LJ          -2.23548        0.549486       -0.366471
LJ          -1.04927         2.38884        -2.28891
LJ           1.58262       -0.947192        0.938714
LJ          -1.18799        0.966963       -0.771199
LJ         -0.782162         1.70811        -1.76021
LJ          0.072693       -0.925958         1.84174
LJ              -nan            -nan            -nan
LJ           2.10345         2.36119          2.1799
LJ           -2.4911        -2.53044         1.42787
LJ          -1.75296         -2.2588        -1.27118
LJ           2.29183         1.32977         1.21183
LJ           -1.7473        -1.85041     -0.00265637
LJ          -1.33413        -2.05902        -2.16535
LJ          -1.41412       -0.278101         2.53226
LJ              -nan            -nan            -nan
LJ           2.31182       0.0583404       -0.114405
LJ           2.09776       -0.438801         1.24912
LJ          -0.96059        -2.23551       0.0647697
LJ          -1.93347        -1.40227         1.36131
LJ         -0.121564        -1.57504        -2.28534
LJ          0.475148         2.26856         1.22534
LJ         0.0528832         2.15114        -0.14029
LJ          -2.34826        0.429401        -1.25312
LJ              -nan            -nan            -nan
