108
#Comment!
LJ         -0.665755         1.10569         0.79762
LJ         -0.139641         0.10109            -2.4
LJ           2.40514        -1.97484         -2.1065
LJ          -1.91067       0.0109392        -2.19369
LJ          -1.56022         1.62554         1.70903
LJ         -0.317276       -0.276436       -0.284602
LJ           1.36367         1.68914       -0.599852
LJ           1.82478        0.620238        -2.38114
LJ         -0.675203        -1.67738       -0.914487
LJ           1.87095       -0.367454        -2.22702
LJ              -nan            -nan            -nan
LJ         0.0375491         1.09039        0.141488
LJ          0.928183       -0.921017         1.80923
LJ              -nan            -nan            -nan
LJ          -2.01454       -0.539969      -0.0827615
LJ              -nan            -nan            -nan
LJ              -nan            -nan            -nan
LJ              -nan            -nan            -nan
LJ          -1.63169        0.459757          2.3933
LJ              -nan            -nan            -nan
LJ           2.14256         2.25907        0.265596
LJ          -0.65935        0.831671         2.48824
LJ           1.10578          -2.414       -0.280332
LJ              -nan            -nan            -nan
LJ          0.552429         2.24402         2.25978
LJ           1.68325       -0.169205        0.189405
LJ           0.11714        0.936308       -0.405946
LJ           1.60069        0.670134        0.383584
LJ          0.719682          -1.108         2.43697
LJ         -0.451359       -0.626006         2.46122
LJ              -nan            -nan            -nan
LJ           1.70548         1.64824         0.74548
LJ              -nan            -nan            -nan
LJ          -1.04306         1.23736        -2.48448
LJ              -nan            -nan            -nan
LJ           2.47212        -1.97942       -0.388034
LJ           2.06509         -2.5614         1.84397
LJ          -1.49496        -1.68622        -0.84728
LJ         -0.159262        -1.25848         2.40883
LJ          -1.42942          1.3899         -0.7406
LJ           2.17015         2.49723          2.2945
LJ          0.350992       -0.705436        -1.15109
LJ           1.96577       -0.783891        -2.33209
LJ           1.75586       -0.283067        -0.25158
LJ         -0.426107         1.33666         1.14088
LJ          0.829695        -2.01923        -1.00131
LJ         -0.432115         1.50325        0.304213
LJ           2.00782        -1.21756        0.812134
LJ          0.823074       -0.154491        -1.05535
LJ           2.47748        0.432704         1.50029
LJ          -1.34363         1.90428       -0.648144
LJ           -2.5582        -1.15283         0.87128
LJ              -nan            -nan            -nan
LJ           2.55692         2.48244       -0.515266
LJ          -2.20834         0.29144        0.587012
LJ          -1.64961        -2.26296       -0.789355
LJ            1.9797         1.80832       -0.552025
LJ          -2.10179       -0.353761         1.10705
LJ            2.2609       -0.899817        -2.12895
LJ             1.906        0.468453         2.29792
LJ          0.180501        0.691247         1.20065
LJ            2.1738        0.687408         1.63588
LJ         -0.637394        -1.12714          1.3239
LJ              -nan            -nan            -nan
LJ              -nan            -nan            -nan
LJ          -2.21259        0.202305         1.55106
LJ            1.9616        0.900969      -0.0731639
LJ              -nan            -nan            -nan
LJ            1.1984        -1.15994        -2.49452
LJ           1.55516        0.489191         2.16332
LJ           1.62785         2.28781         1.57871
LJ         -0.810105       -0.799249        0.734701
LJ          -2.38648       -0.233253         1.52237
LJ          0.864235        0.724355         1.16513
LJ          0.250321        0.975472        0.205981
LJ        -0.0776228         1.41604        0.207909
LJ          0.676561       -0.847984         2.33458
LJ          -2.46682        0.560727       -0.736561
LJ          -1.96572        -1.09804       -0.463021
LJ          -1.54502         1.52705       0.0785855
LJ          0.827179        -2.03046         1.17776
LJ          -1.63995        -0.51069        -0.68636
LJ        -0.0804153       -0.542334         1.14644
LJ            1.7271        0.136176         2.34011
LJ        -0.0731901       -0.237445        -1.88455
LJ          -2.49992        -1.16877       0.0664407
LJ         -0.233032        -1.34245         2.03602
LJ          0.430316        0.917632          1.6376
LJ          0.746358        -2.48989         1.23347
LJ           1.17041         0.58867       -0.115518
LJ              -nan            -nan            -nan
LJ           0.39596        -1.52806       -0.725337
LJ           1.18664        -1.52389         1.49549
LJ          -1.11961      -0.0671742        -0.70212
LJ           2.54874        -1.33663         -2.0486
LJ          -1.76642        -1.75047        -1.03416
LJ           2.28985        -1.21815       -0.610241
LJ           2.27986        -2.21456        -1.84718
LJ              -nan            -nan            -nan
LJ           2.20473        -1.57044        -1.52697
LJ         -0.602603        -1.24184       -0.491198
LJ          -1.50776        -1.55351        -1.19334
LJ           2.27147        -1.02184         1.88191
LJ           1.06991       -0.528744         1.24087
LJ              -nan            -nan            -nan
LJ           -1.1033        -2.33997       -0.662187
LJ           2.05936         2.53983        0.651034
LJ              -nan            -nan            -nan
