108
#Comment!
LJ           2.56459         1.95995       -0.487182
LJ          0.152399        -1.67727         -1.2986
LJ          0.159462        -2.10712        -2.17722
LJ         -0.694869        -1.50432         -1.9774
LJ           -1.1438        0.166771         1.80779
LJ           1.46569         1.75368       -0.370968
LJ         -0.874913        -0.60725         -2.2593
LJ           1.47295        -2.34078          1.9236
LJ          0.788504      -0.0686672        0.158574
LJ           0.58678        0.256957        0.577687
LJ              -nan            -nan            -nan
LJ          -1.14899         1.79878        -1.87001
LJ          0.915253         -2.3271       -0.801713
LJ              -nan            -nan            -nan
LJ          -2.36312      -0.0452424        0.325493
LJ              -nan            -nan            -nan
LJ              -nan            -nan            -nan
LJ              -nan            -nan            -nan
LJ           2.47005        -1.49139        -2.55223
LJ              -nan            -nan            -nan
LJ            2.0678       -0.701549         2.54668
LJ          -1.44227         -1.3758          1.6651
LJ          -2.03045         2.53328         1.39966
LJ           1.56016         2.53024        -2.26932
LJ           -2.4802         1.65326       -0.103953
LJ          -2.45903        0.572464         2.14505
LJ          0.316561        -1.45018        -2.26008
LJ          0.183804       -0.126946      -0.0518545
LJ          -1.41815        -1.80844       -0.216353
LJ          0.891795        -1.85672        -2.21312
LJ              -nan            -nan            -nan
LJ           1.58298         1.89623        -1.34957
LJ              -nan            -nan            -nan
LJ          0.308865        -1.78189        0.241063
LJ              -nan            -nan            -nan
LJ         -0.942939        -1.44437        -2.04644
LJ          -1.49641        -2.42698        -2.26484
LJ          -1.08635          2.3661        0.638975
LJ          -1.70397       -0.493252        -0.34009
LJ           2.04525         2.32159       -0.244806
LJ          -2.54239        -1.99738       -0.238129
LJ          0.861586        0.991896         1.76095
LJ           2.17276         -1.9829        -1.98119
LJ         -0.965283        0.552201        -2.49054
LJ           1.57497        -0.59124        -2.39498
LJ          0.199312        -1.20789       -0.891511
LJ           1.19917        -0.31289        -1.36711
LJ          -1.94662       -0.889769        -2.53031
LJ           1.03056         1.81012        -1.19571
LJ           1.57728         2.04448          2.5036
LJ          0.479649        0.810703        -1.26687
LJ          0.066031        -2.25346          -2.064
LJ              -nan            -nan            -nan
LJ           1.46435         2.39447        -2.31017
LJ          -1.53561        0.914224         1.06465
LJ          0.238475         1.63498         2.43671
LJ          0.386472         2.47206        -2.18025
LJ          0.491618        0.822099         1.55621
LJ          0.978453          1.3533        0.422382
LJ         -0.833563        0.347805       -0.481388
LJ          0.514973        -1.83446        0.208055
LJ         -0.930957        0.536753         2.04387
LJ          0.447677       -0.267802        0.716877
LJ          0.534503         1.28973        0.248108
LJ              -nan            -nan            -nan
LJ         -0.514219       -0.420704         1.19318
LJ          -2.03236        -1.23141         1.60772
LJ              -nan            -nan            -nan
LJ           1.98636        -1.73721         1.01539
LJ            1.9185         1.65771       -0.634511
LJ          0.827366        -2.02753       -0.503953
LJ           1.26972        0.356037       -0.279596
LJ          -2.32971         2.18305         1.83026
LJ         -0.952887         2.35561         1.48283
LJ          -2.11763        -1.62527        0.523517
LJ          -1.51513        0.554308         2.08686
LJ          0.298796        -1.03597         2.13441
LJ          -1.70899       -0.451333        -1.96549
LJ         -0.259904       0.0573209        -2.17876
LJ         -0.837917        -1.43962       -0.607623
LJ          0.821414         -0.2201       -0.859891
LJ           1.44126        0.356969         1.26462
LJ           1.22318       -0.212538        0.551903
LJ           2.45872         2.13494       -0.527271
LJ          -2.48584         1.48724        0.225147
LJ           1.08576       -0.166414         -2.4535
LJ          0.942052        -2.18468        -1.58156
LJ         -0.842499       -0.752208        0.278776
LJ         -0.431516         -1.6573        0.351827
LJ           1.70012         2.36098         0.49303
LJ              -nan            -nan            -nan
LJ          0.175136         1.75062        0.873809
LJ         -0.840697        0.529316        0.805635
LJ          -1.86706         2.04807        -1.71695
LJ           1.47884        -1.26652      -0.0879782
LJ           2.11763         2.27662         2.52707
LJ         -0.906959        -1.10283        -1.38103
LJ         -0.357254        0.308394         -2.2231
LJ              -nan            -nan            -nan
LJ           2.49951        -2.16615        0.784057
LJ          0.388858         1.75655        -1.49757
LJ          -2.03168       -0.719566       -0.447797
LJ           -1.7462         1.80073        0.462732
LJ          -1.48298         1.52244       -0.652883
LJ              -nan            -nan            -nan
LJ           2.41725        -1.78363        0.999651
LJ         -0.840958        0.722312        -0.01172
LJ              -nan            -nan            -nan
