108
#Comment!
LJ          -1.72346       -0.838837        0.211116
LJ         -0.235314         1.62125        -1.25081
LJ          -2.52156         1.01217         2.42719
LJ          0.338246       -0.955682         1.18759
LJ          -1.53102        -1.24215         0.32049
LJ          -2.19703        -2.23735        -1.02392
LJ          0.222911      -0.0928332        0.812801
LJ         -0.988448         2.44172         2.18509
LJ          0.950732       -0.683603        -1.77781
LJ           1.41938         1.50012        0.635018
LJ              -nan            -nan            -nan
LJ           2.55287          1.8209         -1.6183
LJ          0.638016      -0.0806604         1.26535
LJ          0.667202        -1.42775         1.51584
LJ          -0.11861         1.92768        -2.33683
LJ         -0.329941         2.15963       -0.852829
LJ              -nan            -nan            -nan
LJ              -nan            -nan            -nan
LJ           2.52985       0.0696856        -2.15943
LJ              -nan            -nan            -nan
LJ          0.373562        -1.45699       -0.572831
LJ           1.21241       -0.499558         2.51859
LJ         -0.344999        -1.02069         -1.3076
LJ           0.47403         1.09379       0.0635544
LJ           2.30368        -1.14557        -0.68899
LJ          0.869201        -1.05729         1.16035
LJ            1.3069       0.0378789        0.590442
LJ           0.13954        -2.39673         2.55856
LJ          -1.51829        -1.57089        -1.46692
LJ          -2.51818        0.953954        -1.61128
LJ         -0.158846        -2.10877         1.00336
LJ            1.9371       -0.639508        -2.25125
LJ              -nan            -nan            -nan
LJ          -2.24167        -2.27395        -1.93752
LJ              -nan            -nan            -nan
LJ         -0.604778         1.12596       -0.675916
LJ          -1.23452         1.13815        -0.41161
LJ          0.567159       -0.726297        -2.46713
LJ          -1.46763       -0.118897         1.28789
LJ           2.18305        -1.53552        -1.61597
LJ           2.47281        -2.39282        -2.39712
LJ          -1.15707         2.05396         1.95217
LJ         -0.492331        -0.58882        -0.43531
LJ          0.172203        -1.53649        -2.37459
LJ         -0.099244       -0.294728         1.57194
LJ          -2.27716        -1.22032        -1.10736
LJ          0.526066        -2.17633         0.40863
LJ         -0.946913         1.89754         -2.4058
LJ           1.07822       -0.674428       -0.895023
LJ          0.814923         1.37405         2.07916
LJ          -0.25549         1.57006         2.19298
LJ           1.73355       -0.836896         2.45202
LJ              -nan            -nan            -nan
LJ           1.14278        -1.49961        -1.66899
LJ          -1.50944         1.59151       -0.891393
LJ            1.8305          2.1641        -0.84798
LJ           2.21335        -1.94551        -2.03069
LJ          0.514447        0.324226         2.07601
LJ           1.88745       -0.775779         1.54687
LJ          0.300098         1.78325        -1.41947
LJ          -1.40981        -1.97762         1.11035
LJ           1.79032        -1.62914        -2.03412
LJ           1.75831       -0.680177        0.232371
LJ         -0.476444        -2.02331          2.3746
LJ           2.19616        0.469394       -0.657553
LJ          -1.42769         2.24417        -1.72212
LJ         -0.847225        -1.85731       -0.880557
LJ              -nan            -nan            -nan
LJ           -1.1303       -0.343461       -0.896494
LJ          -1.50673        -1.78244       -0.980238
LJ           -1.2191         1.69711        -2.06007
LJ           1.48758        -1.21827         2.03448
LJ          0.340421       -0.649822         2.23199
LJ          -2.29524        0.448467        -2.19838
LJ         -0.959277        -0.23988       -0.261999
LJ           1.50291        0.703032        -1.23797
LJ           1.60677         -2.0486         1.25536
LJ          -1.39928        0.579104       0.0152946
LJ           2.17774         -1.4522         2.02621
LJ           -1.9088        -2.13687        0.882248
LJ          0.389059       -0.139364        -1.36482
LJ           -2.3244         1.87611       -0.174197
LJ          -1.32116        -2.07365        -1.35259
LJ           -1.2353         2.44922        -2.45252
LJ          0.396694         1.75977        -1.73914
LJ           1.65829        0.409563      -0.0349883
LJ          -1.47118        -1.01728        -1.17655
LJ            1.0188          1.3364       -0.237574
LJ         -0.546231        -1.39115         2.01713
LJ           2.23112        -1.55287        -2.35193
LJ              -nan            -nan            -nan
LJ           1.52566         2.27527         -1.0129
LJ          -1.80071         2.11871        -1.96428
LJ         -0.619012      -0.0846024        -1.64198
LJ          0.409585      -0.0613465       -0.837531
LJ         -0.322835          -1.933      -0.0644096
LJ         -0.254226        0.627103         2.42976
LJ           1.92111        -1.41983        0.507093
LJ          0.412012         2.11728        -1.18942
LJ           2.47007        0.169279         1.93758
LJ         -0.123968        -2.49232       -0.850699
LJ            1.3201        0.602952         2.08662
LJ           2.10575       -0.572073        0.868796
LJ          -2.42524        -1.82377       0.0273486
LJ          0.124643        -1.90212        -2.18065
LJ           1.32723         -1.6457        -1.88508
LJ           1.31196        -2.03108       0.0286002
LJ              -nan            -nan            -nan
