108
#Comment!
LJ           1.19131        -1.48309        -1.75578
LJ           2.30444       -0.411437         1.16162
LJ          -2.53147        -2.21301        -2.41547
LJ          0.139471         2.11083        -1.71305
LJ          -1.04679         1.33781        -1.95667
LJ          0.342977        -2.51206        0.166912
LJ          0.856619         1.17329         -1.2788
LJ           1.04282         2.15411         2.20021
LJ        -0.0211772         2.01946        -1.12389
LJ           -1.6354         1.35928        0.956221
LJ              -nan            -nan            -nan
LJ          -2.38636       -0.645154       -0.289494
LJ           1.28125         1.71399        0.492172
LJ              -nan            -nan            -nan
LJ           2.38196        -1.88549        -2.31522
LJ              -nan            -nan            -nan
LJ              -nan            -nan            -nan
LJ              -nan            -nan            -nan
LJ          -1.03095        0.487288         1.89411
LJ              -nan            -nan            -nan
LJ          -2.54709        -2.10097        -1.01237
LJ           0.30623         1.90276          1.0615
LJ          0.225301       -0.222177       -0.239378
LJ              -nan            -nan            -nan
LJ           1.55614        -0.18338        -2.47261
LJ           0.75193         1.17434         1.70345
LJ          0.515275       -0.162288         1.52455
LJ           1.31843       -0.767126         1.94905
LJ          -1.62903        -2.14243         1.62607
LJ           -1.1913       0.0726135       -0.799482
LJ              -nan            -nan            -nan
LJ          -0.63033        0.102547        0.511299
LJ              -nan            -nan            -nan
LJ           2.41132       -0.527318        0.395706
LJ              -nan            -nan            -nan
LJ          -2.43328         1.63608       -0.551569
LJ          0.187136       -0.972394         0.98355
LJ        -0.0184793         1.53381         2.40455
LJ          0.620308       -0.732668       -0.796129
LJ          -2.47173       -0.431934        0.862295
LJ          -2.52023       -0.457677         -1.1403
LJ           1.80568       -0.534717      -0.0224882
LJ          -1.63868        -1.21581       -0.525324
LJ          -1.06277         -1.0799          1.2984
LJ         -0.073297        -2.39225        -2.17846
LJ           1.52169       -0.450408         2.25423
LJ          -2.19957        -1.21813        -0.21826
LJ         -0.917718         2.27851          1.9395
LJ         -0.854638        -1.43297        0.509271
LJ         -0.844958         1.63154        0.515671
LJ         -0.590287        -2.23068         2.08156
LJ           1.59449        0.863712        -1.23839
LJ              -nan            -nan            -nan
LJ          -1.69317        0.483596        -2.11292
LJ         -0.526475        0.937516         2.13767
LJ         -0.562793       -0.803029        -2.50605
LJ           2.00299        0.979056       -0.618449
LJ           1.63423         -0.8351        -1.19912
LJ          0.191876         2.26679          1.0196
LJ          0.632466        0.276557        -1.90566
LJ          0.947027         2.32458         1.38187
LJ          -1.83469      -0.0057623      0.00651417
LJ          -1.84529        -1.73633         1.97409
LJ              -nan            -nan            -nan
LJ              -nan            -nan            -nan
LJ         -0.629289        0.558452        -2.22248
LJ          -1.47275       -0.581234        -1.53539
LJ              -nan            -nan            -nan
LJ         -0.920556        -1.68998         0.63312
LJ           2.23927        -2.54456        0.517357
LJ          0.272886         2.40402        -1.21677
LJ          -1.91565        0.839708        0.373564
LJ          0.196356         -1.1016       -0.385793
LJ           1.71463         1.93476       -0.205713
LJ          -1.57793       -0.401242        -2.31614
LJ           1.67216         -1.9197         1.21629
LJ           0.27623        0.688833         -2.3748
LJ          -1.27806         0.54178        -1.29409
LJ          0.753049         -1.0177         1.03797
LJ           2.47219        -2.21013        0.663056
LJ         -0.851591         1.01942         2.00784
LJ           1.10844       -0.778711       -0.599646
LJ         0.0737737         2.16753        -1.97341
LJ          -1.26663        -1.67902         2.37866
LJ          -2.21789        -1.14444          -2.347
LJ          0.833579        -1.86641       -0.836316
LJ           2.26954        -1.01041     -0.00989772
LJ           2.44914        -1.21888         2.47944
LJ           1.23287        -2.05557         1.08601
LJ          -2.43093         2.12009        0.584775
LJ              -nan            -nan            -nan
LJ           -2.2778        0.583717       -0.957763
LJ          -2.36817       -0.179738         1.81759
LJ           1.51491       -0.583343       -0.315488
LJ            1.6187        -2.45612       0.0356684
LJ         -0.614374         2.19975        -1.66762
LJ         -0.115895        -2.30603        -2.44511
LJ         -0.685451        -2.56367        0.993145
LJ              -nan            -nan            -nan
LJ          -1.10486       0.0723822        0.444663
LJ          -2.10265        -2.54655        0.599955
LJ          -1.33353        0.498551        -1.21599
LJ          0.911669        -1.39563        -1.34838
LJ           2.12959          0.5007        0.411328
LJ              -nan            -nan            -nan
LJ          0.383809         1.78354        0.426934
LJ           0.52269        0.265168       -0.661527
LJ              -nan            -nan            -nan
