108
#Comment!
LJ         -0.534781       -0.390471         1.97349
LJ         -0.751482        0.149998       -0.773912
LJ          -2.22737         1.87512         1.30199
LJ          -2.08282        -1.66209        0.867003
LJ          -2.48029         2.40208        0.956844
LJ          -1.16796        -1.91655        -1.96585
LJ           2.50265         -1.8189        -1.57027
LJ           1.18478        -1.95971        0.576843
LJ          -2.52192       -0.468112        -2.30169
LJ           0.91529        -1.86839        -1.31219
LJ              -nan            -nan            -nan
LJ           -1.8248         1.14393         2.06621
LJ          0.415376         2.12926         0.90842
LJ              -nan            -nan            -nan
LJ          -1.49506         2.13949         2.26405
LJ              -nan            -nan            -nan
LJ              -nan            -nan            -nan
LJ              -nan            -nan            -nan
LJ            2.1598        -0.74373        -2.06397
LJ              -nan            -nan            -nan
LJ           1.49731         1.07787        0.881621
LJ           0.53588           1.565        -1.45085
LJ          -1.04955        -1.52715         2.23848
LJ              -nan            -nan            -nan
LJ         -0.963483       -0.569846       -0.296415
LJ          -0.43301        -2.22399        -1.19262
LJ           1.45863       -0.933811          2.5517
LJ        -0.0267855        -2.51748        0.564319
LJ          -0.77988         2.49416       -0.839423
LJ          0.742466         2.39093       -0.745642
LJ              -nan            -nan            -nan
LJ          0.296972        -1.04166        -1.37249
LJ              -nan            -nan            -nan
LJ          -1.68952        -2.27284        -0.96573
LJ              -nan            -nan            -nan
LJ           1.34924        -1.61029       -0.476939
LJ           1.58008       -0.493492        0.371694
LJ          -1.67443         1.45238      -0.0830986
LJ           -1.1331          1.8021        -2.11929
LJ          -1.09101       -0.901836        -1.96238
LJ          0.151966         1.88735        -1.87928
LJ           -1.3655        -0.91953        0.870446
LJ           1.18413       -0.247714       -0.263186
LJ           1.22169         1.20107       -0.521857
LJ          0.201032         1.62383        -1.33331
LJ           2.19539        -1.28996         -1.7988
LJ          0.653433         1.80291        -1.31074
LJ          -2.11421         2.38243        0.378584
LJ         -0.811583        0.497514        -0.84133
LJ          -1.44163        0.881673          1.4814
LJ           -1.9675        -1.13056        0.681337
LJ           2.49122        -2.46379        0.898963
LJ              -nan            -nan            -nan
LJ          -2.19779         1.75292         1.72667
LJ          0.538422         2.13361         1.30801
LJ          0.798672        0.762929        -1.21629
LJ           1.94315         1.49216        0.974443
LJ           1.07666        0.812303          2.3746
LJ         -0.508899        -1.28381         1.70188
LJ          -2.44116        -2.52462        -1.83461
LJ          -1.23585        0.635497        -2.55166
LJ         -0.193635       -0.219294        0.210807
LJ            2.1247        -1.02497        -1.00062
LJ              -nan            -nan            -nan
LJ              -nan            -nan            -nan
LJ          0.929684     0.000350929         -1.8445
LJ         -0.306641        -1.87669        0.675343
LJ              -nan            -nan            -nan
LJ          -1.85851         2.02018        0.588507
LJ          0.205526        -1.32574         2.52536
LJ         -0.829297        0.754684         0.77683
LJ          -1.62306         1.04116        -1.34244
LJ           -2.3078          1.8566         0.15251
LJ        -0.0481722        -2.08111         1.50218
LJ          -1.89224         -2.1323      -0.0434559
LJ           2.17012       -0.632588         1.01061
LJ           2.25079        -1.67635        -1.99498
LJ            1.4218        0.970789        -2.45885
LJ          0.574202        -0.73339        -1.68927
LJ          -1.84686         1.46944         -1.0347
LJ          -1.19957         2.23682         -1.1247
LJ          -1.53317        0.408837        -1.32677
LJ          0.499993        -2.40123       -0.257545
LJ           -2.0703         1.36237       -0.180095
LJ          -2.33842        0.861006        -0.91591
LJ          0.331955       -0.554973        -2.08227
LJ          -1.45838        0.344924        -1.68248
LJ         -0.806811         2.50674        -2.42967
LJ          -1.07947         1.63453        -1.59675
LJ           1.67903         2.46693        -2.43983
LJ              -nan            -nan            -nan
LJ         -0.676351       -0.669255        -1.20787
LJ          0.705641        -2.46898         1.86836
LJ           1.33067       -0.403332        -1.62208
LJ          -2.37442         1.66292         1.79995
LJ          -2.20762        -1.71631         0.72636
LJ          -1.32841         1.78345         1.45084
LJ           1.08753        0.261217         1.25121
LJ              -nan            -nan            -nan
LJ          0.586054         2.00602       -0.815692
LJ           2.54629        -1.96415        -1.76828
LJ           1.14586         1.00873        0.534644
LJ        -0.0213454       -0.284142        -1.87496
LJ           2.17215        0.991549        -2.02078
LJ              -nan            -nan            -nan
LJ           2.19576         1.12366         1.86375
LJ           1.32484        0.990727         1.05158
LJ              -nan            -nan            -nan
