108
#Comment!
LJ          -2.04094        -1.93629       0.0330697
LJ          -2.43873        -1.03323       -0.780399
LJ         0.0798858        0.168614       -0.330992
LJ          -1.08088        -2.37234        -2.42041
LJ           2.29906       -0.897881        -1.42558
LJ          -2.20339         -2.1678       -0.320311
LJ          0.692056         2.51759         1.47919
LJ          -1.73297        -1.29388       -0.840173
LJ           1.66016       -0.249876        -1.84735
LJ            1.2399        -2.37046        -1.44336
LJ              -nan            -nan            -nan
LJ          -1.81883        -1.98668        -2.46104
LJ           2.46296         2.15328        -0.80952
LJ           0.37799          2.3205        -1.56718
LJ          -2.26061        -2.22117        -1.99801
LJ         -0.777483        0.932007         2.13036
LJ              -nan            -nan            -nan
LJ              -nan            -nan            -nan
LJ          -1.65932        0.658209        0.106379
LJ              -nan            -nan            -nan
LJ           1.52577         1.30268        0.724539
LJ           1.13632        0.157375         1.49897
LJ         -0.212918         2.31407        -0.85068
LJ           2.55435        -2.55718         2.01528
LJ           -2.4215       -0.531492          1.6856
LJ         -0.834558        -1.12915          0.6233
LJ          0.640741        -1.94438        0.864258
LJ           1.57539       -0.875725        -1.91714
LJ          -1.46095        -1.91639        0.248021
LJ           1.80778         2.01109        -1.60935
LJ           2.06688         2.42627          2.1541
LJ           2.21391        -2.33222         2.13657
LJ              -nan            -nan            -nan
LJ           2.18199        0.473067        0.514793
LJ              -nan            -nan            -nan
LJ         -0.245608       -0.360447         1.21419
LJ           2.25752        0.703923         2.01334
LJ           1.69512      0.00607598        0.882228
LJ           1.11383        -2.38855        0.937858
LJ           -2.3851        -2.40345        -2.24935
LJ          0.325155         0.66838        -2.38033
LJ         -0.425977       -0.874304        0.493202
LJ          0.820546       -0.423254       -0.749387
LJ          -2.02821       -0.399384        -2.00111
LJ          -1.56291         1.00839        -2.15365
LJ         -0.369566         1.97029         0.47569
LJ          -1.53344        -1.52611         2.51685
LJ          0.419131        0.607426        0.265592
LJ            2.3469        0.822797        0.548212
LJ          -1.41448         2.33847        0.753592
LJ         -0.192811       0.0373504        -1.35511
LJ          -1.56072        0.702059         1.33711
LJ              -nan            -nan            -nan
LJ          -1.45592        -2.35778         1.56931
LJ          0.118774        -1.42823       -0.911296
LJ          0.296575         1.44999        -1.63814
LJ           2.11358         1.48589          1.5807
LJ          -1.69413        -2.32821         2.54106
LJ         -0.617256        -1.51131         2.02582
LJ           2.25835        0.587746         1.65425
LJ          -1.73926        0.797771         2.07658
LJ           -1.1627        0.168323       -0.223097
LJ          -1.58368        0.215299       -0.991364
LJ           1.40855        -0.40376        -1.48929
LJ           -2.3609        0.731864       -0.963209
LJ            1.4305         2.06352         0.53198
LJ           2.41092         1.76322        0.795424
LJ              -nan            -nan            -nan
LJ           2.03044        0.926426       -0.297765
LJ          -1.18947        -2.28739        -1.20179
LJ            2.1789         1.71681         1.21384
LJ          -1.87769        -2.11654        -1.19604
LJ          -2.11673          1.7996       -0.134003
LJ         -0.857364        0.144417        0.526394
LJ          -2.27936          1.8823         1.69423
LJ           2.17303        -1.85972       -0.853315
LJ           -0.9946         1.42156        0.220395
LJ        0.00336443         1.99954         2.07495
LJ          -1.10671         1.89867         2.25092
LJ          -2.02534        0.402238        -2.43765
LJ            1.4728        0.713993        -1.25734
LJ          0.810555         1.29977        0.201675
LJ           -2.2903       -0.282864       0.0391999
LJ          0.912978        -1.67576         1.79948
LJ         -0.418109       -0.768329        0.420516
LJ        -0.0321218        -1.17577        0.985356
LJ           1.08018         1.78058        -1.53341
LJ           2.08965        -1.44319         1.25287
LJ           2.46034        0.373147        0.802978
LJ            -1.108        0.578044       -0.102301
LJ              -nan            -nan            -nan
LJ          0.692618         -2.3867        0.084542
LJ         -0.785497         1.37645        -2.18115
LJ           2.31207        0.697848        -1.07147
LJ          -2.43737         -2.3652       -0.211948
LJ          0.537988        -2.27193         -1.7019
LJ          -1.11384        -1.36008       -0.970628
LJ         -0.503126        -2.45626        -1.59551
LJ          -1.56295        0.845639         1.71611
LJ            -2.473       -0.782764        -2.44977
LJ           1.56171         0.17426       -0.702581
LJ           2.38529         2.24168         1.64552
LJ           1.19399         2.07666          2.4107
LJ           2.50381        0.779432         2.49558
LJ            2.4471        0.520969       -0.944602
LJ           2.05379        -1.86407         1.46708
LJ          -2.11635         1.02232        -1.33466
LJ              -nan            -nan            -nan
