108
#Comment!
LJ          -2.26666         2.49299        0.916348
LJ           2.25585        -1.06673        -2.14734
LJ           1.17922         1.30251         1.17481
LJ            2.0396        -1.36374       -0.947601
LJ         -0.607897       -0.858663       0.0181037
LJ          0.909831        -2.40614       -0.341547
LJ          -1.76715         2.23604         1.06068
LJ          0.873309         1.24285           2.134
LJ           1.35191         2.04234        -1.30704
LJ         -0.569824        -1.99334        -2.44131
LJ              -nan            -nan            -nan
LJ           -1.0817        -2.38918        -2.08198
LJ            2.0909        -1.77413         1.60089
LJ              -nan            -nan            -nan
LJ         -0.905477        0.145624         1.24701
LJ              -nan            -nan            -nan
LJ              -nan            -nan            -nan
LJ              -nan            -nan            -nan
LJ          -2.05988         1.38562         1.71506
LJ              -nan            -nan            -nan
LJ         0.0784129         1.89966         1.25429
LJ         -0.798484       -0.533884       -0.416799
LJ           1.60891        -1.29677       -0.477393
LJ          -1.26677        0.853978        0.674108
LJ            1.0751         1.70191        -1.10256
LJ         -0.199453         1.31595        -1.10113
LJ         -0.923648         1.04453        0.248953
LJ         0.0292033        0.710009        0.880523
LJ           2.25048        -2.32696       -0.445907
LJ          -1.59601        0.486708        0.167013
LJ              -nan            -nan            -nan
LJ         -0.453416         1.35506         1.37168
LJ              -nan            -nan            -nan
LJ          -2.25921      -0.0104612        -1.54896
LJ              -nan            -nan            -nan
LJ          0.356005        -2.03618        0.133953
LJ          0.945223         -2.4402       -0.477854
LJ          -1.68057         1.97636         1.50387
LJ         -0.740264       -0.548023        0.308886
LJ           2.47786        -2.52991         1.79523
LJ           2.34099        -0.55406        0.890878
LJ          -1.97357        -2.12448         1.73023
LJ           2.49599       -0.948986        0.766979
LJ          0.263312        0.904649         1.22736
LJ          -1.53183        -2.16287         2.40389
LJ         -0.796588         2.25188        -1.70349
LJ         -0.838112         1.85936       -0.763612
LJ         -0.514236         -1.4235         -2.4083
LJ          -1.50565      -0.0387241        0.771063
LJ          0.023106         -1.0941        0.944308
LJ         -0.370526        -1.40331        -2.41379
LJ           1.30244         1.24372        -1.45289
LJ              -nan            -nan            -nan
LJ         -0.948914        -2.21182       -0.261059
LJ          0.756882        0.162606         1.80731
LJ           1.07541        -1.84512       -0.825937
LJ          -2.19116         1.51865         -1.2985
LJ          -1.07718        -2.45653        -2.16228
LJ           1.71659       -0.800158       -0.750301
LJ          -2.25992        0.355737       -0.430109
LJ           1.60936         1.33366        0.263365
LJ          -1.75279        0.432839        0.231158
LJ           2.12057        -1.98271        -1.42514
LJ         -0.821012        -2.32891        -2.15072
LJ              -nan            -nan            -nan
LJ         -0.999314        -2.45479        0.520285
LJ          -1.64137        -2.40432        -2.12647
LJ              -nan            -nan            -nan
LJ         -0.521971       -0.937067         1.14124
LJ              1.81        -2.50285         1.31638
LJ           1.59944         2.13713       -0.941408
LJ         -0.831814         2.31834        -1.48917
LJ          -1.89828        0.148574         1.77132
LJ          -1.93259        -1.88855        -1.51503
LJ           2.48318         1.97051       -0.350718
LJ           1.88393       -0.889696          1.7062
LJ           1.48741       -0.452478        -1.26555
LJ           1.12685       -0.389395        0.731004
LJ          0.854889         1.32231         1.96742
LJ          -2.32147         1.27489       -0.201269
LJ          -2.27355       -0.778619        0.190418
LJ         -0.517555        -1.32197        0.593456
LJ           1.09765         1.17696       0.0567752
LJ           2.37707         1.75744        -1.65059
LJ          -2.06833        -1.05985         1.25403
LJ          -1.41815        -0.18839        0.592197
LJ          0.506496         1.74575        -2.21486
LJ           1.96969        -1.96629         2.03042
LJ           2.45533        -1.00844       -0.988042
LJ         0.0356851       -0.840593       -0.461396
LJ              -nan            -nan            -nan
LJ         -0.930064         0.62676         1.74488
LJ          0.235035        -1.37113         1.88863
LJ           1.71382       -0.292108         2.43415
LJ           2.14881        -2.21302        0.584172
LJ         -0.645182       -0.505893        -2.11472
LJ           2.49611         1.98999        -1.89653
LJ         -0.940171       -0.876462         1.09053
LJ              -nan            -nan            -nan
LJ           2.47124       -0.697507       -0.684082
LJ         -0.441427         2.18266         1.86805
LJ           2.04183          2.0166        -0.89665
LJ          0.443229       -0.652436        0.632867
LJ           1.43423        0.778389         2.10544
LJ              -nan            -nan            -nan
LJ           1.36964       -0.494956        -1.64558
LJ           1.11228        -1.28126         1.99071
LJ              -nan            -nan            -nan
