108
#Comment!
LJ          -2.13015        -1.80947        0.349919
LJ          -2.26145        -2.31463         1.20049
LJ           1.28204        -1.83894        0.533252
LJ           2.32205      -0.0375776         2.15209
LJ           1.19978       -0.433708       -0.957839
LJ           1.70553        0.950207         2.45668
LJ           1.91037         1.84965       -0.567018
LJ           1.19015         -1.6431         2.17633
LJ            2.5311       -0.207697         -1.9548
LJ         -0.766669        0.191458       -0.903152
LJ              -nan            -nan            -nan
LJ          -2.38792         2.11743         2.06385
LJ          0.819528        0.418158         1.12408
LJ          -2.08451       -0.375138        -2.06238
LJ         -0.714752         1.60421        0.759999
LJ         -0.769729         1.97441        -1.03154
LJ          -1.55471        0.242521        0.902775
LJ          0.938706        -2.28838         2.43958
LJ        -0.0334092         1.86082         1.99121
LJ           2.34746         2.30778        -1.42174
LJ          -1.69759        0.829222        -1.90109
LJ           1.45277         1.70114        0.978817
LJ          -2.01666        0.714019        -2.46866
LJ          -1.84682         1.85886         2.12687
LJ           1.29597        -1.08989        -1.88484
LJ         -0.742324         2.32235        -1.16061
LJ          -1.28222        -1.13221         -0.8007
LJ          -1.59002        -1.44822        -2.52552
LJ            1.7376        -2.44677         2.18954
LJ          -1.32949         -1.0809         1.57059
LJ          0.864354        -2.46812        -2.15363
LJ          -1.92485         1.05419        -1.28932
LJ              -nan            -nan            -nan
LJ          0.468412        0.548467        0.456141
LJ          0.707682       -0.222747         1.88367
LJ           1.49009         0.42496         1.06176
LJ          -2.44189        -1.25559         2.30644
LJ           0.31552       -0.125455         1.20623
LJ           2.10156        -2.39609         1.73065
LJ         -0.241272         0.74866        -1.92469
LJ           2.18134        0.264951        -2.30851
LJ           2.50936        0.354678        -2.32732
LJ           1.96921         0.91355       -0.955966
LJ          -1.38941        0.821966         1.80497
LJ           1.09829         1.22128         2.28809
LJ          -1.72091       -0.505533       -0.333871
LJ           1.10573         2.09823         1.71397
LJ          -2.06293        -1.62497        -1.44423
LJ          -1.40278        -1.49671        -1.46666
LJ        -0.0601125      -0.0294724        -2.36396
LJ        -0.0743958         1.94317        -2.49509
LJ          -1.94196        0.602418         1.89289
LJ         -0.920707         -0.3971         0.62933
LJ         -0.481922       -0.949577         1.33533
LJ           1.80399         1.91641         1.64424
LJ          -0.20513        0.861222        -2.37639
LJ           0.18982         1.22207          2.5321
LJ          0.445191       -0.498673         1.56942
LJ          0.404198         2.47267         -1.3928
LJ          0.691064       0.0497255        -1.59381
LJ           1.24621         1.80829          1.8088
LJ          -1.36321        -2.20139        -2.44968
LJ           0.60062        -1.93597        -2.49121
LJ          -1.03204        -1.88623         2.44782
LJ          0.373288        -2.37642        -1.05143
LJ          0.560354       -0.745491        -2.30092
LJ          -1.18397         2.13017        -1.67745
LJ        -0.0433493       0.0984194          1.5482
LJ          -2.45909         1.47016       -0.858488
LJ          0.994958        -1.99101        -1.09337
LJ          -2.41043         1.54061        -2.12733
LJ          -2.17353         2.10536        -2.42079
LJ          -1.68836        -1.78493        0.482277
LJ           1.60617         2.11917      -0.0528475
LJ          0.503459         2.25168       -0.171665
LJ          0.480392        -2.41726         -1.6192
LJ           2.47609       -0.274383        0.848505
LJ           1.26308         1.41554       -0.758472
LJ          -1.89468         2.56297        -1.04235
LJ           2.31296         1.71112         -1.9676
LJ          -1.20988          1.2596         1.52657
LJ           2.13402       -0.185305        -0.19789
LJ          -1.95545         -1.3313        -2.39363
LJ          -1.97553         1.62242       -0.591214
LJ            1.1856        0.940071        0.959442
LJ          -2.36786        -1.59379         0.89116
LJ           2.03027         1.09361       -0.741326
LJ          0.854664        -0.97097         2.44709
LJ          0.228458        -2.43594         1.13585
LJ          -2.08181         2.52932       -0.318797
LJ           2.35453         2.13252         2.31927
LJ            1.4881         1.75332        -2.07588
LJ         -0.731692         1.71429        -1.46328
LJ          -2.50176         1.17804        -1.33686
LJ          -1.36665       0.0113066         2.29237
LJ         -0.585246         2.47567         1.59093
LJ            2.1078       -0.624293        -1.29894
LJ           -1.3493        0.382838        -1.55347
LJ          0.380076         2.04584        -1.00563
LJ          -1.46159        -2.20289        -2.01113
LJ           1.15941       -0.162733      -0.0645142
LJ         -0.849499         1.33912        -1.83059
LJ        0.00665933          -1.713      -0.0851409
LJ           -0.4467         -2.5246         1.97658
LJ           2.46286        -2.50545         1.93043
LJ         -0.565088        0.197354      -0.0619362
LJ          0.196157         1.96894        0.984696
LJ           1.24027         1.51809        -1.51371
