108
#Comment!
LJ          0.608707         -1.1312        -1.67607
LJ          -2.07735         2.53004        -1.59433
LJ         -0.439676         1.51686         1.33531
LJ          -0.22813       -0.485014       -0.933293
LJ           1.68041          1.0595         2.35026
LJ          0.268351       -0.462746         2.31839
LJ           1.22051        0.912791        -1.14234
LJ         -0.481409         0.84351        -1.92452
LJ          0.866419         1.83021         -1.3584
LJ          -1.23761         1.06227       -0.836343
LJ              -nan            -nan            -nan
LJ         -0.695902       -0.135334        -1.17897
LJ           2.12777         1.43574         1.78117
LJ         -0.682229          2.1138         -2.0679
LJ          0.286849        -1.71082        -1.90182
LJ              -nan            -nan            -nan
LJ              -nan            -nan            -nan
LJ              -nan            -nan            -nan
LJ           2.20556        0.675709        0.681696
LJ              -nan            -nan            -nan
LJ          -1.59956        -1.02775        -1.49588
LJ         -0.689384         2.00118          2.4433
LJ        -0.0545282       -0.856209         1.14999
LJ          -1.53075       -0.168632         0.35925
LJ          0.207889        0.294307       -0.702733
LJ           -2.2485       0.0433875        -1.36507
LJ         -0.842318       -0.463913         1.49264
LJ           1.07435         2.11624       -0.605776
LJ         -0.805452       -0.354905       -0.879363
LJ          -1.40659        0.599547        0.690442
LJ          0.366326        -1.69004       -0.688057
LJ          0.425537         2.24086         2.38199
LJ              -nan            -nan            -nan
LJ         -0.875874         2.04341         2.27042
LJ              -nan            -nan            -nan
LJ           2.20866        -2.47511          1.8931
LJ           1.48452        0.249973        -1.99896
LJ          0.463422        0.954233       -0.767168
LJ          -1.10034         2.42551       -0.789313
LJ          -1.03677        -1.35739         1.51814
LJ         -0.341732        0.577587         1.20342
LJ          -1.43539        -1.32707           1.373
LJ           2.17885       -0.145224         1.04123
LJ           2.32041        -1.59529        -2.42296
LJ           2.51876        -1.55992        -2.19648
LJ         -0.269837         1.50849        0.355159
LJ           1.56198        0.117384       0.0285152
LJ          -1.78952         1.12234         2.33848
LJ        -0.0594802          1.4065       -0.824153
LJ           -1.7783         2.34487         1.93041
LJ           1.65719        -2.02152          2.5397
LJ         -0.629894         2.56077         1.90442
LJ              -nan            -nan            -nan
LJ          -1.78683        0.141337        -1.10605
LJ          -1.02277        0.295028        0.651389
LJ           2.45199        -1.43507        0.489592
LJ          -2.14936         1.31443        -1.80633
LJ           1.34036         2.24965         1.28281
LJ          0.765583        0.651368       -0.270964
LJ          0.995004        0.119073         1.72415
LJ          -1.91575        0.513444         2.26324
LJ           1.03899        -2.35871         1.55804
LJ           2.36815         2.29926         -1.4686
LJ          0.906847        -2.35223        -1.09965
LJ         -0.664769          1.2991       -0.611457
LJ          -1.78187        0.715804          1.3082
LJ          -2.29064        -2.47147        0.113755
LJ              -nan            -nan            -nan
LJ           1.12687        -2.43821         1.53347
LJ           1.20592       -0.267932        0.887189
LJ           2.09996        -2.46665        -1.14206
LJ          0.198987         1.04842         -1.7935
LJ           1.07742        0.422847        -1.41579
LJ       -0.00509361        0.194556        -1.31871
LJ          -2.44826          1.2175       -0.931194
LJ           -1.6177         2.37845        -0.53589
LJ        -0.0751399       -0.111484        -1.96353
LJ         -0.151473        -2.09384        -1.22296
LJ          0.289636       -0.592669          1.2729
LJ          -1.71134         1.37943         2.30716
LJ           1.79295        -1.75041        -1.01773
LJ          -2.11556         2.20706         -2.2912
LJ          -0.65128         -1.6557        -2.20665
LJ          -1.97798        -1.37234        0.826927
LJ           2.44911         1.99908        0.455895
LJ          0.658059       0.0454196         2.05157
LJ           1.06884         2.11059         2.14124
LJ          -1.63174        -2.52586        -1.82986
LJ           -2.2302        -1.49451       -0.874924
LJ          0.867756        0.323195       -0.812511
LJ              -nan            -nan            -nan
LJ         -0.975485        -0.90967       -0.397322
LJ          -1.25492        -2.07625        -2.08878
LJ           -1.2373        -1.33263        -1.16012
LJ           1.28672        -2.49015         2.19107
LJ          -1.96039        0.732541       -0.414936
LJ           1.75587         1.26436        0.153202
LJ           2.00975        -2.33499         1.80884
LJ              -nan            -nan            -nan
LJ           1.38487         1.31295       -0.913019
LJ           -2.0645        -0.10993         2.31256
LJ         -0.238817         1.44506        -2.03915
LJ           1.52993        0.831908        -2.00551
LJ          0.657085         0.61807        -1.48276
LJ          -1.77269       -0.195912      0.00730936
LJ          -0.96093         1.39812         1.29384
LJ         -0.191585         1.17615        -1.77239
LJ              -nan            -nan            -nan
