108
#Comment!
LJ            1.4695         1.56089         1.07074
LJ          0.696893         1.81172        -1.38084
LJ          -2.29849         2.43001         1.80594
LJ          -2.20655        -1.82274        0.835329
LJ           1.40558        0.346524       -0.939494
LJ          0.171638        -2.56237          1.8549
LJ          -1.16315          1.2041          -1.763
LJ           1.54496        -2.47733        0.304169
LJ         -0.653554         -2.0851         1.41442
LJ          -2.26483         1.27956         1.05467
LJ              -nan            -nan            -nan
LJ          0.879335        0.110827        -1.88955
LJ            1.6487        -2.13589         1.67321
LJ              -nan            -nan            -nan
LJ           1.21008         1.92275        -2.20196
LJ              -nan            -nan            -nan
LJ              -nan            -nan            -nan
LJ              -nan            -nan            -nan
LJ          0.271555       -0.815787         -0.4348
LJ              -nan            -nan            -nan
LJ          -1.35465        0.526657        0.499049
LJ            2.3037        0.184549        0.372051
LJ           2.22055         1.91628         1.06658
LJ              -nan            -nan            -nan
LJ           1.43981         1.72533        -1.06239
LJ          -2.33924        -1.60541        -2.00505
LJ         -0.662953         1.54409         1.27928
LJ           2.55925        0.605148        -2.48721
LJ          -1.95283      -0.0927825       -0.784299
LJ          -0.61258         2.04395       -0.362744
LJ              -nan            -nan            -nan
LJ           1.80363         1.98516         2.27167
LJ              -nan            -nan            -nan
LJ          -1.52849        -1.01111        -2.30948
LJ              -nan            -nan            -nan
LJ          0.557351        0.679087         1.19303
LJ          -1.20647         1.33556        -1.06428
LJ           1.71246        0.386389         0.81906
LJ          -1.60641        0.741169          2.2743
LJ          -1.29157        -1.65243       -0.332809
LJ          -2.56486         2.19317         1.06115
LJ           1.82849          1.5763        0.637304
LJ           1.25057        -1.49317        -1.56665
LJ           -2.3501         -1.4845        -2.24724
LJ         -0.335864         1.28863         1.33042
LJ            2.1701          1.1671        0.170591
LJ           2.33184        -2.24224        0.343688
LJ           1.77758         2.06019        -1.35265
LJ          -2.33893       -0.879587        -1.18096
LJ           2.34208       -0.064054        -1.27023
LJ           1.48635        0.441329        -0.29066
LJ          -2.50459        0.248894         1.23875
LJ              -nan            -nan            -nan
LJ         -0.239422        0.847644       -0.438166
LJ            1.0378        -2.09223         2.25756
LJ          0.723262        0.690486         2.14118
LJ         -0.481314        -1.74663       0.0907189
LJ         -0.663324       -0.154842        -0.11189
LJ          0.505441        -1.77733         1.07748
LJ           2.10942       -0.459413         1.01928
LJ           1.03427        -2.33138        0.269977
LJ           1.67504         1.55276        -1.64556
LJ          -2.39136        -1.45713         2.06775
LJ              -nan            -nan            -nan
LJ              -nan            -nan            -nan
LJ        -0.0221507        -1.51786         2.10849
LJ          -1.25119       -0.488382       -0.905178
LJ              -nan            -nan            -nan
LJ          -2.24146        -1.71558        -1.95505
LJ           1.79997       -0.270388        -1.30883
LJ         -0.100778       -0.192113        -1.52444
LJ          -2.37434        -1.17736         2.37985
LJ         -0.668094         1.88345       -0.023433
LJ           1.70503         1.91888         2.20613
LJ         0.0460035         2.41589        0.528069
LJ           -1.1242         1.36073       -0.783417
LJ          -1.48105         1.63116          1.2655
LJ          -1.20591        0.533991        -1.85849
LJ          0.910676        -1.99554        -1.07259
LJ          -2.12182         2.44837        -1.91122
LJ          0.300739        0.940445        0.845202
LJ          -1.96137        -1.05725         2.33825
LJ         -0.744944       -0.500742       -0.208819
LJ          -2.17866        -1.96103        0.788019
LJ          -1.54329        -2.34218         1.48781
LJ           2.27607        -2.49163         1.36541
LJ          0.482467        0.410848         1.79432
LJ         -0.869695        -2.27921        -1.57812
LJ         -0.308866         1.30483        -1.81519
LJ          -1.06944         2.32024        0.825996
LJ              -nan            -nan            -nan
LJ           1.37084         1.54267         -2.3904
LJ           2.23364         2.25576        -1.50635
LJ          -1.70162        -1.56314       -0.931467
LJ           1.48976        -2.24229         2.31229
LJ          0.657125       -0.713771        -1.51437
LJ          0.624812         2.06087         2.40276
LJ           1.39775        0.498867        -1.93807
LJ              -nan            -nan            -nan
LJ           1.20915        -0.08548          1.8452
LJ          -1.76616       -0.302207     -0.00686085
LJ           1.86295        -2.11342         1.64092
LJ           0.79429        -2.53889        -1.13845
LJ          -1.73215        -2.00341         2.05412
LJ              -nan            -nan            -nan
LJ           1.17753         1.75386          2.0697
LJ          -2.24245         1.01866         1.05406
LJ              -nan            -nan            -nan
