108
#Comment!
LJ          0.321106        -1.19009        -1.78285
LJ           1.58583       -0.412617         2.39533
LJ          -2.00919       -0.864093          1.5436
LJ          -1.57119         2.09204        -1.00955
LJ          -1.66484        0.636099        0.135406
LJ           1.03553         1.32299         2.07734
LJ           2.44978       -0.316265         2.32798
LJ          0.368088        -2.36025        -1.61107
LJ           1.43819       -0.317768         1.86465
LJ           1.33929        0.850857       -0.810231
LJ              -nan            -nan            -nan
LJ          -2.08257         0.64841       -0.245331
LJ           1.52532        -1.52594        -2.08813
LJ         0.0836768          2.0537       -0.573229
LJ           0.91976       -0.283585         2.52167
LJ          0.560417        -2.14107         2.12932
LJ              -nan            -nan            -nan
LJ              -nan            -nan            -nan
LJ         -0.585783         1.99239        0.218117
LJ              -nan            -nan            -nan
LJ           1.55842        0.927637        -1.66981
LJ           2.29711          2.1314        -2.23707
LJ           1.77596        -2.37874         1.77372
LJ           2.25843        -2.43973        0.768334
LJ           1.13235        0.833169        -2.48523
LJ         -0.720715        -2.40394         -2.1551
LJ          -2.38215         1.56358        -1.27218
LJ          0.458441        -2.37894         1.60449
LJ          -1.97947         2.46512         2.33731
LJ          0.659858       -0.930193         0.12599
LJ          0.755693         0.44473        0.481954
LJ          0.748218        -2.02207        -2.38761
LJ              -nan            -nan            -nan
LJ          -1.19044         1.56798      -0.0588447
LJ              -nan            -nan            -nan
LJ           -1.0653       -0.675634         2.53029
LJ         -0.651387        0.935352         1.09896
LJ           1.07679        -2.27404        0.801933
LJ          -1.27501          1.0628        -1.77787
LJ         -0.107253        0.207935        -1.48253
LJ           -1.3154        -2.04284          1.3395
LJ           2.47503        0.248337        0.223342
LJ          -1.00919        0.214991         1.82625
LJ           1.55422        -1.51854        0.736916
LJ          -2.15989        0.413946         2.26636
LJ           2.32277        0.439694       -0.231417
LJ           1.12499       -0.896445       -0.217389
LJ           1.60107        0.623192       0.0455342
LJ         -0.705483       -0.971943      -0.0186432
LJ          -2.11854       -0.338828         1.88313
LJ          0.543645         1.71369        0.745896
LJ          -2.40426        -2.38249        0.271367
LJ              -nan            -nan            -nan
LJ         -0.455386          1.3281         2.44054
LJ          0.863393        0.338943         2.27468
LJ            2.3486       -0.552679        -2.19064
LJ          -1.11556         1.27798        -1.51908
LJ          -1.31846       -0.293164         1.71952
LJ        -0.0568362        0.151049       -0.969936
LJ          -1.52154          1.8177       -0.546865
LJ          0.649261        0.415001         2.54785
LJ          -2.42438        0.413924       -0.592822
LJ         -0.352993        -1.18038        -1.62259
LJ           2.46887        -2.50552         1.44494
LJ          -1.02217       0.0111833         2.38611
LJ         -0.856384         0.16996        0.143932
LJ          -2.30124        0.105769        -1.60122
LJ              -nan            -nan            -nan
LJ          -1.70276       -0.279341        0.599904
LJ         -0.531854          1.3162         1.29063
LJ           1.97896        0.781775        0.173874
LJ           2.22109         2.05111         1.58831
LJ          -1.06105         0.20652         -1.0866
LJ          0.320477        -2.14888        -0.40466
LJ           1.46627       -0.182119       -0.624911
LJ           2.27762        0.976705         1.11034
LJ            1.4613         2.33016         1.75561
LJ           2.51824        -1.26752        0.231172
LJ          -1.97912       -0.307574       0.0925408
LJ          0.273122         1.48835         1.84807
LJ          0.327751         2.04993         2.41637
LJ           2.39376       -0.497249         1.35354
LJ           1.51266        -0.29438         2.15232
LJ         -0.686843       -0.933565        0.860854
LJ          -1.09312         1.62122         2.15933
LJ          0.893275          -2.182         1.26125
LJ           2.31925         1.59003        -2.29421
LJ          -2.26835        0.138494        -1.35147
LJ          -1.73997        -2.44661       -0.869479
LJ           1.26309        -1.08865        -2.41548
LJ              -nan            -nan            -nan
LJ          0.603649        -1.73063         0.14898
LJ         -0.234141        -2.30745       -0.962594
LJ           1.42274         -2.2683       -0.933046
LJ          0.499554        -1.37012         1.35985
LJ          0.901094        -1.00234        0.819817
LJ          -0.20312        -1.40861        -1.04539
LJ          -1.21919         1.27785        -1.88728
LJ          -1.82795        -2.47641       -0.950146
LJ          0.759259        -1.87343         0.53961
LJ          -1.36867       -0.635039        -2.01558
LJ            1.9836       -0.686101        -1.29665
LJ          0.620925       -0.154014        -1.16342
LJ          0.572032         1.84609        -1.64843
LJ         -0.890114         1.61822         1.48647
LJ          0.150887        -1.43659         2.05747
LJ          -0.37611         2.00205        0.620944
LJ              -nan            -nan            -nan
