108
#Comment!
LJ          -1.36036         -2.5121        -2.17228
LJ          -1.67054        -1.39663        0.936237
LJ           2.01043         -1.5444      0.00152873
LJ           2.17931        -1.09627        0.952422
LJ         -0.379637         1.24868        -1.83341
LJ          -1.13128        0.270474        0.832607
LJ          -2.27675        -1.46942        -1.57642
LJ           2.35353         1.70977        0.554482
LJ          -2.05879         1.25607         2.52512
LJ           -2.5507        -2.05768        -1.05808
LJ              -nan            -nan            -nan
LJ           1.76302        0.222115        -2.50308
LJ         -0.653958         1.53077        -2.43149
LJ           2.00441       -0.596835       -0.352872
LJ          0.186622         1.43797        -2.16059
LJ          -1.18708        0.470236        -2.16913
LJ              -nan            -nan            -nan
LJ              -nan            -nan            -nan
LJ           1.78843          -1.473       -0.548078
LJ              -nan            -nan            -nan
LJ          -2.20069        -0.12371        -2.40831
LJ          0.482997         2.07908        -2.31525
LJ          -1.96304        -2.14645        -1.82951
LJ           1.92518         -2.4205         2.23015
LJ          -1.19808          2.2294         1.07442
LJ          -1.19736        0.550806        -2.11191
LJ          0.652621        0.352162        -1.18578
LJ          0.489743         2.35216         -2.0302
LJ          0.391585        -2.06223        -1.37508
LJ         -0.172667         1.37274         1.34977
LJ           1.31111        0.204803       0.0598049
LJ         -0.271811        -2.31879         1.65273
LJ              -nan            -nan            -nan
LJ         -0.119199        -2.54657        -1.56222
LJ              -nan            -nan            -nan
LJ          0.202959        -1.15663         2.03935
LJ         -0.469198         1.33177       -0.422638
LJ          -2.31426         1.15216        -2.08719
LJ          -0.44141        -2.19147        0.940949
LJ          -2.19813        0.623754         1.38604
LJ          -1.77829         0.10042        -1.50787
LJ          0.165877        -2.27661       -0.154103
LJ         -0.423847         2.52676      -0.0103015
LJ          -1.11024        -2.10624       -0.294898
LJ          -1.50439       -0.722092        -0.14804
LJ           2.07064        0.129374         2.25983
LJ           1.23271        -2.34234        -2.34567
LJ           1.75304        -2.47807       -0.870305
LJ         -0.652907       -0.971888       -0.695862
LJ           1.03075         1.80479        0.194832
LJ          -1.89485        -1.67402      -0.0950746
LJ           1.82391         1.49733         1.83998
LJ              -nan            -nan            -nan
LJ         -0.470359         1.26756        -1.50384
LJ           2.24897        -1.83005        0.648682
LJ           1.30067         2.32574        -1.41347
LJ          0.249593         2.49674       -0.393222
LJ         -0.774496        -1.95587        -1.29213
LJ           1.11052       -0.858767        -2.25369
LJ          -2.42336         0.36173        -0.68252
LJ         -0.202916        0.756878        0.116047
LJ          0.362137         1.20532         -1.2944
LJ          -1.84057        -2.04044        -2.21132
LJ          0.485223        0.247399        -2.39789
LJ          0.958567         1.14763        0.249281
LJ          -2.30393         2.08045          1.7664
LJ         -0.534079         1.21335        0.629795
LJ              -nan            -nan            -nan
LJ           1.60307        -0.41565         1.98725
LJ         -0.354744         1.72908       -0.361954
LJ          -1.71111        -1.91423       -0.378455
LJ          -1.38915        0.770084        -2.23502
LJ          0.661478         1.29952       -0.273397
LJ             2.381           -1.51        -2.20396
LJ           2.23416        -2.53479         2.42703
LJ          -1.39814         2.43031         1.50876
LJ          0.877861        -1.46664        -1.43904
LJ           -2.1811       -0.760171        -1.84999
LJ          -1.54661         1.06691         1.50313
LJ         0.0370183       -0.722046        -2.43064
LJ          0.754856         2.26192         2.37664
LJ         -0.129403        -1.43577         1.12855
LJ           1.39399        -2.19384       -0.694573
LJ          -1.25875         2.07763         2.48115
LJ          0.848962         1.50419        -0.81826
LJ           -1.9056      -0.0376759         2.16556
LJ           2.39181        -1.45832         2.04067
LJ           1.44795        -1.48349         1.92216
LJ          0.782074        -2.18396       -0.356512
LJ          -1.25977        -2.20201        -1.07074
LJ              -nan            -nan            -nan
LJ          -2.32668        -1.63334        0.756558
LJ          -1.80496       -0.504617       -0.404992
LJ          0.148966       -0.246717         -2.5458
LJ          0.229784        -1.83603        0.553496
LJ           2.27446        -1.33598        -2.08615
LJ         -0.912347        -1.91128       -0.147099
LJ           2.25231         2.41056        -1.50242
LJ          -1.01002       -0.804669         2.13018
LJ           0.56776       -0.990136       -0.839307
LJ           2.27524        0.550332         1.27462
LJ         -0.275915       -0.955943        -1.77364
LJ           2.24364         1.94121         2.11385
LJ          -1.23026        -1.72805         1.39778
LJ          0.950782         2.46584        -1.70686
LJ         -0.593929         2.34305         -0.2272
LJ          -1.80133          1.4656        0.628788
LJ              -nan            -nan            -nan
