108
#Comment!
LJ        -0.0992209        -2.36654       -0.472523
LJ           2.22432         2.47026       -0.147904
LJ           1.33017        -1.38347        -1.50379
LJ          0.606989        0.639756        -1.60584
LJ        -0.0737982       -0.869562        -1.87263
LJ         -0.651132         1.65878         2.53862
LJ          -0.90153        -1.07563       -0.768583
LJ          -1.70237        -2.21436       -0.737785
LJ          -1.89354        -2.18811         1.18194
LJ           2.51185       -0.561965        -2.26393
LJ              -nan            -nan            -nan
LJ          -1.60612         1.65879        -2.12816
LJ          -1.59027          2.3737        -2.51047
LJ              -nan            -nan            -nan
LJ          0.304866        -1.82512        0.448168
LJ              -nan            -nan            -nan
LJ              -nan            -nan            -nan
LJ              -nan            -nan            -nan
LJ           1.35098         0.84487       0.0496768
LJ              -nan            -nan            -nan
LJ          -1.39871         0.68467          2.5079
LJ           2.48726       -0.739053        0.985131
LJ          -1.15233         2.30852         1.12313
LJ         0.0597912         1.65546        0.817726
LJ          0.976935       -0.300432        -1.98796
LJ           -1.3226         -0.2844         1.85356
LJ           1.31196        0.216754        -1.14756
LJ          -0.31047        -1.67373        0.852579
LJ          -1.75784        -1.30012       -0.918509
LJ          -1.32008       -0.147157       -0.368751
LJ           0.55425         0.50782       -0.675964
LJ           2.22967         2.24928         1.53882
LJ              -nan            -nan            -nan
LJ          0.381682         2.26653         1.51177
LJ              -nan            -nan            -nan
LJ          -2.28673      -0.0403052        -1.06025
LJ            1.5031         1.45793        -1.21281
LJ          -1.62786        -1.12566        -1.40193
LJ         0.0959985         1.70965         1.33454
LJ          -1.25949        -1.38104         2.15456
LJ           1.07082        -1.60731        0.201498
LJ          -2.16442        0.105751        -2.08633
LJ           1.10376        -2.49131         1.37498
LJ           1.85817         1.72572        -2.33864
LJ          0.824941          2.2378         1.98574
LJ           1.17221        -1.50189         1.83466
LJ          -1.40213     -0.00403809          1.8596
LJ         -0.447909        0.609435         1.02221
LJ           1.88654        -1.90753        -1.14599
LJ           2.10025         1.80723         1.15248
LJ           1.19887        0.706084        -1.93326
LJ           2.21786        0.229403        -1.37591
LJ              -nan            -nan            -nan
LJ          0.269122         1.71812       -0.297692
LJ            1.7664         1.46249        -1.22102
LJ         -0.288946        -1.36829        0.349905
LJ           1.86402        0.141711         2.44752
LJ          -1.25261        -0.22549         1.46503
LJ            -2.538         -1.7093        0.769757
LJ           1.58679        -1.57273        -1.94016
LJ           1.82297        -1.49384         1.30811
LJ          -1.58468        -2.01936         1.74021
LJ          -2.53964         -1.2306       -0.524792
LJ          -2.26512        0.925779        0.481639
LJ           1.99366        -1.08937        -1.71395
LJ          -2.28522        0.527211        -1.42386
LJ          -1.24167       -0.841358        0.687353
LJ              -nan            -nan            -nan
LJ          -1.08733       -0.531274      -0.0314647
LJ          -2.25625        0.680897         1.65186
LJ          -2.37038         1.97757         1.58863
LJ         -0.312715        -1.42243         1.02411
LJ           1.38057          -1.253        0.513039
LJ           2.44664        0.203044        -1.17647
LJ            2.1476        0.601803         2.12789
LJ          -2.47096         1.51451       -0.764617
LJ       2.32638e-06       -0.791648        -2.32403
LJ           1.67131         1.87465         2.01704
LJ          0.684097         1.25087         2.10159
LJ         -0.123986        -2.56147         1.15067
LJ          -2.50451        -1.17028        -1.33874
LJ           1.56303        -1.38404         1.55471
LJ         -0.418907        -1.46289       -0.232582
LJ          -1.62404         1.76738       -0.337825
LJ          -2.52111        -1.55259        -1.87359
LJ           1.47255        -2.11249         2.38899
LJ          0.684331        -1.18346         0.54463
LJ          -1.22847        -0.25289        -1.16262
LJ          -1.53348       -0.514054       -0.262351
LJ           2.00277        -1.60736        -1.24055
LJ              -nan            -nan            -nan
LJ          0.610604       -0.458789        -1.41088
LJ          -1.49419        0.894903         1.04211
LJ           2.41321        -1.15334         1.36743
LJ           1.68577         1.16595         1.79536
LJ          -1.08531       -0.749404       -0.961703
LJ          -1.79344        0.519713        -1.32598
LJ          -1.70893        0.596507         1.35138
LJ              -nan            -nan            -nan
LJ         -0.456542         2.25217         2.48101
LJ          0.583781        0.478182        -1.38855
LJ          -1.94238       -0.597923        0.770388
LJ          -1.99908          1.9132         2.05579
LJ          0.746651         1.59776       -0.871673
LJ              -nan            -nan            -nan
LJ         -0.919547        -2.21936        0.309706
LJ           -1.4771        0.437943         1.16175
LJ              -nan            -nan            -nan
