108
#Comment!
LJ         -0.749099         1.67678         1.51285
LJ          0.478948        -0.80964        -2.51512
LJ          -2.32536      -0.0633365        -1.94473
LJ          -1.51864         1.38859        0.402997
LJ          0.736683      -0.0535787        -2.13644
LJ           2.01821       -0.588701         2.39713
LJ           1.55164        -2.51296        -1.92701
LJ          0.103176        -1.01083       -0.523897
LJ          -1.48191         1.70578         1.56029
LJ           1.95183         1.79028         2.09921
LJ              -nan            -nan            -nan
LJ           1.55981        -2.45016          1.9899
LJ          0.769316       -0.269895        0.564709
LJ          -2.19267        -2.05663        -1.38001
LJ          0.120496        -0.32018        -2.25552
LJ           -2.4208        -2.53941        -1.71025
LJ          0.525972         -1.6806          1.1084
LJ         -0.195837        -1.89719       -0.850587
LJ         -0.208483       -0.750923        -2.17726
LJ          -2.54704        -1.45539        -1.69855
LJ           2.39924          1.9095      -0.0465236
LJ          -1.98566          2.2449        -2.22331
LJ          -1.46179         2.48478        -1.47944
LJ          -2.14895        -2.45038         1.26804
LJ           -1.1297        -2.21316        0.316779
LJ           1.58412        -1.77956        -1.12272
LJ          -2.25321         2.20289       -0.913496
LJ         -0.377367        -1.91615       -0.444709
LJ           1.26519      -0.0530015       -0.502216
LJ          -2.55215        0.479215         1.73136
LJ          -2.10725        0.476959        -2.22954
LJ          0.505934        -1.37108        -1.96704
LJ              -nan            -nan            -nan
LJ           1.37594         2.14243        -2.16707
LJ              -nan            -nan            -nan
LJ          -1.65016         2.11443          1.9398
LJ          0.559068        -1.39187       -0.942088
LJ         -0.381299        0.810962        -2.54381
LJ           1.30988         2.15789       0.0606306
LJ         -0.397653        -1.85607       -0.550033
LJ          -2.40913         1.34648        -1.58131
LJ           1.80042        -1.36195        -1.31649
LJ         -0.519406         2.54807        0.195148
LJ        -0.0223959        0.985819       -0.829369
LJ          -2.40875        -1.65531        -1.44558
LJ         -0.462453        -2.17082         -1.1634
LJ           1.07112        -1.22648        0.952085
LJ           1.13065        -2.50135         -2.3478
LJ           1.76348        -1.44582        -1.95244
LJ           1.01172        -1.04592         0.51482
LJ         -0.135832         1.53787        0.681208
LJ           1.37292       -0.954859        -2.12558
LJ          -1.53531        -1.09517         2.25965
LJ          0.746203         1.38455        -2.11229
LJ          0.946182        -2.45677        0.303372
LJ           2.20465       -0.208674         2.24924
LJ           2.26891         -2.0922        -1.67787
LJ          0.788429         2.36209       -0.396736
LJ             2.419       -0.316299       -0.469629
LJ           2.52754        0.193508        -1.74874
LJ         -0.140132        -2.45515        -1.48223
LJ          -1.80494          2.5043        -2.35919
LJ           1.55085        -1.45633       -0.706202
LJ          0.466624        0.707638        -1.19362
LJ           1.36885         1.48975        -1.72318
LJ           2.31347         -1.0198        -2.03901
LJ          -2.17058        0.235381         1.44221
LJ              -nan            -nan            -nan
LJ         -0.141367         2.08858         2.32502
LJ          -1.01856        -2.48562       -0.091512
LJ           1.51391          1.9909         1.03948
LJ          -2.07693        0.770989        0.530472
LJ         -0.592524          1.5665         1.13038
LJ          -1.33815         2.01785        0.714527
LJ          -1.83125        -1.89955        0.859161
LJ          -1.32522        0.803974        0.440748
LJ           2.20997         1.69104         2.41617
LJ           1.13561         1.93961         2.31872
LJ          0.870087         2.20749         0.27988
LJ           1.88847        -1.59154            1.92
LJ          -1.26116         1.75383       -0.663743
LJ          -2.36223        -1.62856        -1.76238
LJ          -1.89916         2.37516        0.810453
LJ           -1.1784         -0.8267         -1.1591
LJ          -1.86337       -0.826664         1.64733
LJ          0.700344        -2.13787         2.11122
LJ         -0.431507        -1.43168        -2.00963
LJ           1.62527        -2.19293        -1.35515
LJ           1.22743         2.36001        -2.37737
LJ           -2.0761        -2.33511            1.28
LJ          0.876101       -0.303431        -1.88531
LJ          0.345706        -1.42659         1.23862
LJ           2.38974        -1.25592         1.48146
LJ        -0.0186907         2.31047       -0.530687
LJ          -1.86594       -0.558745       -0.260667
LJ          0.428969         1.96168         1.06027
LJ          -1.96264        0.415381          2.3501
LJ          -1.25793         2.21424        -1.40302
LJ           1.03415       -0.171883        -0.27873
LJ         -0.269725         2.07104        -2.33466
LJ          0.381341         0.72889          1.0418
LJ           2.07432        -1.88479         1.34885
LJ          0.314416         1.11303      -0.0850723
LJ          -2.12357           2.291        -2.44418
LJ           1.30229       -0.459996       -0.368265
LJ          -2.30025        -1.63877        -1.00255
LJ          0.959783         2.39263        -1.05284
LJ           -1.6777        -1.12217        -1.19023
