108
#Comment!
LJ          -1.48097       -0.455016         2.36173
LJ          0.983688        0.257511        0.950481
LJ          -0.95297       -0.417103         1.68541
LJ           1.06992        0.177153         2.21843
LJ           1.20285        -1.32692        -1.22795
LJ          -2.19255       -0.911526       -0.394252
LJ           1.04376       -0.938752        -2.40551
LJ           2.39378        -2.38747        -2.21578
LJ          -2.12224        -1.33419        0.622015
LJ           1.08312       -0.652966        -1.11285
LJ              -nan            -nan            -nan
LJ          -1.31652         1.98626      -0.0209947
LJ           1.13991         1.77094        -2.00253
LJ              -nan            -nan            -nan
LJ           1.58033        0.706797        0.350082
LJ              -nan            -nan            -nan
LJ              -nan            -nan            -nan
LJ              -nan            -nan            -nan
LJ          0.397049         0.71804          1.7546
LJ              -nan            -nan            -nan
LJ           1.32125        -1.22948        0.958216
LJ         -0.310184         1.60543         -2.2028
LJ         -0.465697       -0.680727        0.296384
LJ              -nan            -nan            -nan
LJ           1.95317          2.1422         -1.4582
LJ          -1.66286        -1.25952      -0.0550445
LJ         -0.359269        -1.00461        0.208275
LJ          0.894259       -0.669029        -2.36936
LJ          -1.59339         2.06605         2.45907
LJ           2.34464        -2.24672       -0.170991
LJ              -nan            -nan            -nan
LJ         -0.486079        -2.49768        -1.18503
LJ              -nan            -nan            -nan
LJ           -1.6944         1.17419       -0.319173
LJ              -nan            -nan            -nan
LJ          0.202751        -1.10202       -0.121912
LJ            1.4192        -1.67363         1.81136
LJ          -1.59077         1.59687        -2.46662
LJ           2.46198         1.99037         2.43163
LJ          -1.54625        -2.43408        0.807924
LJ           1.63962         2.04897        0.461891
LJ           2.40827        -1.36311        0.573957
LJ         -0.474756      -0.0694814         2.15209
LJ           1.89858        -1.72845         2.10849
LJ          -0.14131        0.479562        0.374127
LJ          -2.02463       -0.229112         2.10602
LJ           1.52058         2.50551       -0.427273
LJ           2.05489        -1.37469        -2.10079
LJ          0.874771        -1.06863        -2.19475
LJ          -1.26386       -0.865742        -1.51491
LJ         -0.544737        -2.49986         1.27735
LJ          0.785104        -1.49495        -2.41348
LJ              -nan            -nan            -nan
LJ          0.334288         1.26393       -0.550152
LJ           1.60225       0.0311913         2.56113
LJ            2.1379        -1.49634       -0.673189
LJ          0.485891        -2.23554         1.45192
LJ          0.836089        -1.99142        -1.72819
LJ           1.24284        -1.80358       0.0909408
LJ            2.5356        0.451448        0.487201
LJ          -2.16753        -1.60382        -1.89699
LJ          -1.60849         2.23499       -0.985322
LJ          0.503135        0.728537        -1.53228
LJ              -nan            -nan            -nan
LJ              -nan            -nan            -nan
LJ         -0.975863          1.8757        -2.30572
LJ          -2.27544       -0.973754        -2.22053
LJ              -nan            -nan            -nan
LJ          -2.49914        -1.60359        -1.19254
LJ           0.93454         1.82868        -1.65981
LJ           -2.0613         2.29285          1.4456
LJ           -1.6706         2.13526        0.464925
LJ         0.0139817        0.187275        -1.02601
LJ          0.320409        -1.19975         2.31285
LJ          -1.59206        -2.53077        0.267198
LJ          -1.93399         2.15848          1.9324
LJ           2.34661        -1.82977        0.752138
LJ          -2.11142         1.70964        -1.50962
LJ          -2.00917         1.99277         2.25028
LJ            2.3634       -0.789077         2.01044
LJ           2.24337         2.43678         1.14637
LJ          -2.32335        -1.71596        -1.45172
LJ          -1.71208       -0.360957           1.104
LJ         -0.706932      -0.0811069        0.220428
LJ         -0.147252         1.52827       -0.462034
LJ           0.39177       -0.326154        -1.07432
LJ           2.42001         2.52051        -1.69474
LJ          -1.03873        -1.43396        -1.36982
LJ        -0.0760588         1.78568        -2.00196
LJ           2.04872        -0.56278         2.52559
LJ              -nan            -nan            -nan
LJ           2.53385       0.0754246         1.36428
LJ         -0.315617        -1.79315        -0.75008
LJ          -1.60887         1.75487         -1.3025
LJ         -0.596012        0.344858         1.66805
LJ          0.199297         2.49581         1.04231
LJ          0.245329       -0.315649         1.71054
LJ          -2.22265        0.893799        0.500331
LJ              -nan            -nan            -nan
LJ          -1.15853      -0.0265762       -0.303487
LJ         -0.398288       -0.708229       -0.161594
LJ          -2.40791        -1.07473         1.81459
LJ          -1.10425         1.15701         1.22219
LJ          -2.00995         1.64255         -1.3137
LJ              -nan            -nan            -nan
LJ           1.76065         2.13516         1.95113
LJ           1.77062         -2.5184        -1.16506
LJ              -nan            -nan            -nan
