108
#Comment!
LJ           2.03583         1.40338        -2.20379
LJ         -0.864002        0.625546       -0.388074
LJ          -1.74911        -2.55633        -1.81397
LJ          -2.07956        0.432123         2.22747
LJ          0.876802       -0.864672      -0.0337982
LJ          -1.51846         2.43322         -1.8956
LJ          0.176102       -0.520226         2.11745
LJ          -1.86261        0.622557         1.39825
LJ           2.34997        -2.48234        0.339915
LJ          -1.07018        -2.44597        0.518032
LJ              -nan            -nan            -nan
LJ          0.327242         -1.5521        -1.86826
LJ          0.899365        -1.22342        -1.27545
LJ         -0.560112         -1.7469         -1.7425
LJ           2.15311         0.55479        0.094868
LJ         -0.936278       -0.730296         2.42901
LJ          -1.03746       -0.381656         -1.3796
LJ           1.00801         2.54329       -0.744338
LJ           1.71858        -2.09261        -1.18305
LJ          0.408168       -0.165501      -0.0792298
LJ           1.35622        -1.90717       -0.290333
LJ           2.55045        -2.24847         2.12565
LJ            2.3686         1.05111        0.431189
LJ         -0.248718        0.626245         0.45701
LJ           1.59775         1.72348         -1.3577
LJ           1.71307        -0.40084        0.188898
LJ          -1.85302          -2.409         1.76202
LJ         -0.682655        -1.19029       -0.484131
LJ         -0.705586         -1.0627        0.508865
LJ         0.0147143        0.763756         -1.9928
LJ           2.37393         2.55583        -1.08029
LJ          -2.00295         2.43167        0.380411
LJ              -nan            -nan            -nan
LJ           1.72984         0.77899       -0.907704
LJ           0.14416        0.108017        0.355582
LJ         -0.565649          1.7436         2.48998
LJ         -0.347583         1.04585        -1.18941
LJ           2.46094         1.30276       -0.708034
LJ           0.47958       -0.183131         2.40048
LJ           1.34153         1.99104        0.629597
LJ          0.774512        -1.24681        -1.51896
LJ           1.43554           2.124        0.479766
LJ           1.22073        0.935571         -1.1497
LJ           1.55103        -1.28015         1.77035
LJ         -0.236605        -1.45024        -1.75041
LJ           -2.2071         -2.1444        -1.59291
LJ          -1.50046       -0.459977        -1.68467
LJ           2.21439        0.324285         1.43991
LJ           2.55836         2.53082       -0.170482
LJ           2.34859         1.96693      -0.0835602
LJ           1.19888       -0.829528       -0.782845
LJ         -0.280862         1.01816         1.48742
LJ          -2.23691       0.0994918         1.31342
LJ           1.97718        -1.19785          1.2009
LJ           2.49793        -1.26882         0.60717
LJ           1.65494       -0.191693        0.773722
LJ           1.38147        0.692479         1.99854
LJ          0.760414        -2.07902         2.49117
LJ           1.26944        -2.20023        -2.42794
LJ          -2.21141          1.4976        -1.94979
LJ         -0.291771         1.22808        -1.99948
LJ          -1.08335       -0.354034         1.34287
LJ           1.96816        0.738265       -0.179701
LJ         -0.577358       -0.514921        -2.34025
LJ           1.65875       -0.293699        0.367336
LJ          -2.28876       -0.446581         1.34603
LJ           1.46355        0.472892         1.70805
LJ           1.22693         1.70098         2.38371
LJ         -0.184432        -1.39073        0.364852
LJ          -2.43391        0.504825         1.59625
LJ         -0.406585       -0.306684        0.227008
LJ          -1.93769        -1.32665        0.269107
LJ          -2.04435         2.00627        -1.63084
LJ         -0.199575        -2.41672       -0.303048
LJ           1.24273         1.91731        -2.46172
LJ           2.48995        -2.06004         2.30276
LJ          -2.19986       -0.518722       -0.168945
LJ           2.39312        0.340292        -1.95368
LJ          0.248246       -0.800928        -1.10157
LJ         -0.931854         -2.2722        -2.56469
LJ         -0.345579        -2.47338        -2.22093
LJ           2.28505         -1.2693         0.71991
LJ          -1.35262       0.0425538         1.20254
LJ         -0.451824        -1.96589         1.06462
LJ          -1.27487         2.38729       -0.589732
LJ            1.2653        0.554644         1.88386
LJ           -2.3365         1.86828         2.26127
LJ         -0.878889        0.372838        -1.98552
LJ           1.82459        0.171943         1.62606
LJ           0.42099         1.52166         1.90075
LJ           2.31309         1.56377        -1.41521
LJ           1.82445         1.88154       -0.141068
LJ          -2.27192        -1.53169         2.48719
LJ         -0.808455        0.554014       -0.287274
LJ           2.26414         0.61727         1.80797
LJ             2.144         1.87216        -2.34514
LJ          -1.44783        0.251385       -0.943745
LJ           1.36359         1.63378         2.16491
LJ         -0.264655        -2.23152       -0.172422
LJ          0.153996        -1.76449        0.749513
LJ          -1.03318        -1.56733        -2.55723
LJ           1.23493         2.03717        0.850403
LJ          -2.54473         1.27542        -1.02266
LJ          -1.82949       -0.520179        -1.88763
LJ          -1.24691          2.0056       -0.858432
LJ          0.467854        0.537223        -1.10643
LJ         -0.589641       -0.411174         1.75402
LJ           2.02812        -1.93594         1.19151
