108
#Comment!
LJ          -2.42456        0.452031        -1.25041
LJ          -1.28872        0.651926        -2.39585
LJ          -0.80567         2.15747        0.231889
LJ          -1.11993        -1.05749        -1.11668
LJ          -2.55436       -0.577924       -0.789204
LJ         -0.158829        -1.72425        -2.29786
LJ           0.64288        0.915199         2.07187
LJ          -2.54224       -0.301563        -2.36998
LJ         -0.757045         2.44818        -1.66979
LJ         -0.544806         -1.8727        0.996065
LJ              -nan            -nan            -nan
LJ         -0.311761         1.54292        0.768803
LJ           1.09273        -2.41177         -1.0715
LJ              -nan            -nan            -nan
LJ          -2.26783        -1.14072         1.01596
LJ              -nan            -nan            -nan
LJ              -nan            -nan            -nan
LJ              -nan            -nan            -nan
LJ         -0.401963         1.18375        -1.09112
LJ              -nan            -nan            -nan
LJ          -1.29695        -2.51236        -1.09444
LJ          -1.38641         1.97119         1.28915
LJ          -1.51175         1.99769        0.971936
LJ              -nan            -nan            -nan
LJ           0.85616        0.581449        -2.47439
LJ         -0.966631        -1.71157      -0.0842164
LJ           -1.6105        0.758271        0.650278
LJ         -0.220728        -2.07829       -0.936751
LJ          -1.33967         2.13511         2.32072
LJ          -0.52109         1.10132          2.5336
LJ              -nan            -nan            -nan
LJ          -1.45015        -1.79713        -1.52294
LJ              -nan            -nan            -nan
LJ           -1.7864      -0.0916603        -1.32558
LJ              -nan            -nan            -nan
LJ         -0.394854         2.44062      0.00894568
LJ          0.250832       -0.144714        -2.05702
LJ          -2.09444       -0.605553        -1.62207
LJ         -0.318513         1.44385        -2.47639
LJ           1.47882        -1.64441         1.33583
LJ           1.33069        -2.30353        -1.95692
LJ         0.0792687        0.576122        0.761434
LJ         -0.518533         -2.5076         1.09334
LJ           2.10211        -2.40119         1.20824
LJ          0.100697       -0.970547        0.068716
LJ          0.569859         2.55711       -0.642802
LJ           2.42324         1.32374        0.347781
LJ            1.7461        -2.55052        -2.30685
LJ          0.762712       -0.371237        -1.01236
LJ          0.846647        -1.82357        -1.35507
LJ          0.649564        -2.07968       -0.763211
LJ         -0.109615        0.638985         1.55896
LJ              -nan            -nan            -nan
LJ           1.68185         1.46342         2.53076
LJ          0.457539         1.91719         1.80271
LJ           1.75035        -2.44556        0.667878
LJ         -0.348909          1.2347         1.25443
LJ          -1.18464       -0.799052         1.55233
LJ           1.49238        -1.47091         1.63574
LJ         -0.312412        -1.41018        -1.14678
LJ          -1.39575        0.865635         2.06115
LJ           0.13226        -1.82747         1.02832
LJ           2.36132          0.7565       -0.578749
LJ              -nan            -nan            -nan
LJ              -nan            -nan            -nan
LJ          -2.09202       -0.567903          0.4531
LJ          0.140936        -1.05436         1.02203
LJ              -nan            -nan            -nan
LJ           1.63706       0.0799617       -0.804841
LJ           1.08996       -0.525711         2.35199
LJ           1.26484        -2.56189         1.50244
LJ          -1.92602         1.76229        0.676381
LJ           2.56124       -0.766991         1.96092
LJ           2.10139         2.00061         1.16287
LJ           1.63934        -0.29131        -1.08117
LJ            2.3134      -0.0686818        -1.84371
LJ          0.458422        -1.12619        0.908834
LJ         -0.932902         1.51878      -0.0487648
LJ         -0.404429        -1.88396        0.462695
LJ          0.825325        0.430101         1.75982
LJ           2.49744         2.28153      -0.0988216
LJ          0.884424        0.983636       -0.310474
LJ          -1.60197          1.2609       -0.611227
LJ           1.22789        -1.36935        -2.48488
LJ          -1.71689       -0.731066       -0.200898
LJ         -0.747189        -1.44596       -0.648139
LJ          -2.05769         1.58466         2.07408
LJ           0.87513        0.835313        0.269668
LJ          -2.15076         2.33601        -1.17021
LJ          -1.48938         2.28221         1.47451
LJ              -nan            -nan            -nan
LJ         -0.663612       -0.938476         1.22291
LJ          0.984906        0.698691         1.96009
LJ          -1.43149       -0.359184         1.65059
LJ            1.9408        0.947216      -0.0798246
LJ           2.07577        -2.08681       -0.159514
LJ          -0.68115        -2.12644         1.64423
LJ          0.681626         1.61643         2.50345
LJ              -nan            -nan            -nan
LJ          -2.47848       -0.423342         1.10496
LJ           1.93551        0.273076         1.84237
LJ           -1.3402         -2.4076        0.801464
LJ         -0.999836        0.216721        -1.88987
LJ           2.30486        -1.05669        -1.52662
LJ              -nan            -nan            -nan
LJ           1.40036        0.127257        -1.91791
LJ          -1.23119         -2.0566         2.03381
LJ              -nan            -nan            -nan
