108
#Comment!
LJ          0.908682        -1.85764        -2.26544
LJ          -1.56411        -1.39186         1.53706
LJ          -1.54421         1.75512       -0.499067
LJ           2.12574        -1.44354        -1.98953
LJ         -0.745491         0.48843       -0.539748
LJ          -1.37216       -0.475783         1.09187
LJ         -0.543112        -1.13812         1.78151
LJ          -2.07703         1.74366         1.46802
LJ           1.12558      -0.0556542         1.55364
LJ          -1.43398        0.853554          1.1961
LJ              -nan            -nan            -nan
LJ          -2.41863        0.478833         1.36521
LJ         -0.381127        -2.20423         2.41155
LJ          -1.70828         1.82388       0.0111263
LJ         0.0898065       -0.237574        -2.31322
LJ           2.47455       -0.895553        -2.12896
LJ          -1.40428         -1.0413        0.905346
LJ         -0.139767        0.377734       -0.460946
LJ           1.98938         1.15174        0.974268
LJ         -0.587131         1.28256        -1.57716
LJ        -0.0470297        0.716946       0.0427791
LJ           1.57535       -0.499826        0.483396
LJ           0.36557         1.79814        -2.21444
LJ           0.10393        -1.15643       -0.995452
LJ          -1.40939         1.47846       -0.403933
LJ          -1.86751         0.83804        -2.36585
LJ          -0.29711        -1.27101         1.13536
LJ         -0.965179        -1.81344        0.401179
LJ          -2.09155         1.94175        0.340901
LJ          0.629861         1.24747      -0.0927482
LJ          -1.73918       -0.992007         2.13478
LJ           2.06434         1.77855         1.04364
LJ              -nan            -nan            -nan
LJ          -2.46756        -2.32578        -1.73347
LJ          -1.99155        -1.57333         1.62231
LJ          0.526462         -1.0412        -2.30836
LJ          -1.82576        0.489148        0.883831
LJ          0.381072        0.541669         2.14969
LJ           1.86991        0.813156       0.0586947
LJ           1.54613        0.775257        0.441573
LJ           1.49245       -0.541821        0.395151
LJ           -1.3327         1.88824       -0.796568
LJ          -1.60694        -1.60703       -0.353951
LJ          0.954247        -1.07757       -0.834553
LJ           2.35052        0.668642        0.341285
LJ          0.929992         1.41139        -1.71129
LJ          -1.78034         1.33734        0.942495
LJ         -0.941768        -1.69744          -2.052
LJ          -1.33155          1.3007        -1.11608
LJ           2.23119         2.00563        -1.72204
LJ           1.75835     -0.00569493      -0.0989611
LJ         -0.903989        -2.03138        -1.47512
LJ           2.43103         2.42696        -1.31101
LJ          -2.07939       -0.379294        0.724721
LJ          -1.26877        -1.49827         -2.0153
LJ         -0.837082        -1.16131        0.459617
LJ           1.86266         1.06876         1.01342
LJ           1.94208         1.44514        0.959929
LJ          -1.34882        -1.16376         1.62669
LJ          -1.55259        -0.19213         -1.6054
LJ         -0.374004         1.25668       -0.470446
LJ           0.17887        -1.24234        -2.18877
LJ           1.04823        -1.97904         1.33936
LJ         -0.402425        0.779129         1.38251
LJ          -1.62918         1.40532        -1.56071
LJ           -1.1619        -2.49521         -2.1076
LJ           1.69033         1.97704       -0.540291
LJ         0.0293901       -0.825182         1.60696
LJ          -1.30832        -2.26509         1.85707
LJ          0.621852        -0.80822         2.23898
LJ           2.01874        -1.22075       -0.848945
LJ          0.808706        -2.27421        0.255645
LJ          -1.53409        0.232349         1.83759
LJ        -0.0348988       -0.300079        0.690029
LJ          -1.84906         1.80779        -2.16251
LJ         -0.393147         0.41755       -0.789333
LJ          -1.54641       -0.313929       -0.242741
LJ         -0.789559        0.365493        -1.31875
LJ          0.949703        -1.20045       -0.952084
LJ         -0.928452         1.96739         2.10364
LJ           2.25542      -0.0970634         0.31285
LJ         -0.554041        -1.24041        -1.82134
LJ         -0.451732         2.19501        -1.92421
LJ           1.15731        -1.34642       0.0784537
LJ            2.3932        -1.88265          2.4349
LJ          -2.26423        0.306118         2.52304
LJ           2.05112         0.87937         1.04882
LJ          0.707672       -0.621904       -0.950752
LJ          0.217376        -2.33487         1.24708
LJ           2.00372       -0.210617       -0.833222
LJ           -1.8566        -1.39201         1.34699
LJ        -0.0910641        0.757452        -2.17659
LJ            0.3331         -0.1176        -1.09872
LJ           1.84396         1.85055       -0.693178
LJ         -0.831582         -1.2958         1.35301
LJ           1.37627       -0.581015       -0.495193
LJ         -0.799881        -1.05229        -2.52778
LJ          -1.82323         1.18096         2.31972
LJ           1.07778         2.49148           1.973
LJ           2.53849        -1.65466         2.22758
LJ           1.26379         1.85947       -0.840222
LJ          -1.75945         1.91314         1.42844
LJ          -2.48038         1.16551        -1.34235
LJ         -0.452572         -1.7972         -2.3522
LJ          -1.14752        -1.58306       -0.232341
LJ         -0.748919        0.690488        -1.27706
LJ           1.42802       -0.663351       -0.352964
LJ          0.130493        -2.00306       -0.550295
