108
#Comment!
LJ          0.193632        -1.34696       0.0938794
LJ          0.664161       -0.877189         2.34482
LJ          -0.10444         -1.9807        0.750184
LJ           1.44958         -2.0301         1.61453
LJ          -1.00931          1.4884        -1.52418
LJ          -1.57999         2.53856       -0.432295
LJ            2.2475         1.82155       -0.977496
LJ           2.01063         1.77622       -0.375172
LJ         -0.805857         1.25433        -1.01061
LJ          -1.67866        0.515901         1.53349
LJ              -nan            -nan            -nan
LJ          -1.06485        -2.44424         1.94165
LJ        -0.0170442       -0.817005        0.387239
LJ         -0.209809        0.103553       -0.421793
LJ          0.371313         1.42075         -1.3017
LJ              -nan            -nan            -nan
LJ              -nan            -nan            -nan
LJ              -nan            -nan            -nan
LJ         0.0723715        -2.12636         1.36519
LJ              -nan            -nan            -nan
LJ         -0.501541       -0.510093       -0.303548
LJ          0.254627         2.47298         1.02491
LJ           1.30912         -1.4298        -1.40334
LJ          -2.51485        0.886297         2.51696
LJ          0.558027        0.330463        -1.20722
LJ         -0.511011         1.75721          2.4836
LJ           2.21221        0.548719         2.18556
LJ           2.47589         -2.1139        -2.22495
LJ          0.255709        -2.39199       -0.196471
LJ           1.52022        0.593133        -1.39512
LJ         -0.198359        -1.16713       -0.476533
LJ          0.988312         1.90199          1.5206
LJ              -nan            -nan            -nan
LJ          -1.13289         1.38684         1.61671
LJ              -nan            -nan            -nan
LJ          -2.03995        -1.57665       -0.236263
LJ          0.814213       -0.757199         -2.1884
LJ          0.305514        0.837901        0.618487
LJ           2.10823       -0.915281         2.00849
LJ          0.242819        -2.02487       -0.857405
LJ           1.31081       0.0787496        0.136864
LJ           1.50897         1.99918        -2.23112
LJ          0.351133          2.4033        -2.56144
LJ           1.81805         1.65078         1.68464
LJ           1.12827        -0.86303         2.31106
LJ          -1.13675         1.47472         1.10641
LJ           1.97307         2.00151       -0.230929
LJ          -1.63794        -1.18396         1.26307
LJ            2.4295        0.227548        0.989619
LJ           1.31704        -2.30355         1.13197
LJ           1.82703         0.73157         1.08074
LJ           1.94385       -0.190878         2.18908
LJ              -nan            -nan            -nan
LJ           1.87657        0.597552       -0.773468
LJ            2.0579        0.066433         2.20994
LJ          -1.55567        -1.99645        0.249143
LJ           1.74433        -1.43865         2.23993
LJ             2.274        -1.47761        0.355445
LJ          -1.57771          2.5604         -2.5177
LJ         -0.662598         2.33787         1.18627
LJ          0.514665        0.578634        -1.80521
LJ          -2.18355        0.280101        -2.53626
LJ          -2.35203       -0.179207        -2.35583
LJ           2.02797        -1.40433         0.80909
LJ         -0.877824        -2.38616        -2.35696
LJ          -2.33216         1.99366         -1.4003
LJ          -1.95278       -0.327255        0.339443
LJ              -nan            -nan            -nan
LJ           1.09205         -1.2697         2.26704
LJ          -2.18138        -1.49475       -0.606629
LJ          -1.52918        -1.66727        -1.74629
LJ           1.61326       -0.579154         2.02394
LJ           1.43538       -0.226704        -1.36662
LJ           1.75948        -1.58933         1.26616
LJ           1.75266        0.831971        -1.21305
LJ         0.0582939      -0.0325262         1.04153
LJ          0.699611        -1.23302       -0.868917
LJ            1.1795         -1.5245       -0.825513
LJ           1.80799        0.313789        -1.54228
LJ           1.71083       -0.498737        -1.02037
LJ           2.16889       -0.767186         1.07723
LJ          0.776135         2.21178          -2.532
LJ           1.60728        -2.19641        0.135324
LJ          -1.95727       -0.608924         1.73329
LJ          -1.44349          2.3282        -2.27678
LJ           1.52005         0.72487          1.0259
LJ           2.28341        0.321687        0.681341
LJ           1.67504       -0.519347       -0.870572
LJ        -0.0994038         1.02544        -1.73259
LJ         -0.657548          2.4115        -1.29093
LJ              -nan            -nan            -nan
LJ          -1.56149         1.51608       -0.120843
LJ         -0.981063         1.01587         -1.5528
LJ          -1.61056         2.27759         1.35355
LJ           1.05894        -1.80053         1.75968
LJ           2.43233     -0.00485888        0.618428
LJ           0.77708         0.33194         1.72976
LJ           2.22739          1.6229        -2.09215
LJ              -nan            -nan            -nan
LJ          -1.06313        0.628929        -1.81243
LJ          -2.18018         1.92105        0.386687
LJ           2.43747         1.57368        -1.18686
LJ          0.162653         1.80205         2.44358
LJ          -2.06237        0.803603        -0.10583
LJ          -1.92528         1.91864        -1.21841
LJ          0.977821         2.29244        -1.96674
LJ          -1.81162         2.42132         2.15609
LJ              -nan            -nan            -nan
