108
#Comment!
LJ          -1.92257     -0.00381835         1.11999
LJ          0.844345         1.28426        -1.48186
LJ           2.37347        0.244941        -2.30011
LJ         -0.082083         1.33424       -0.710764
LJ          -2.43292      -0.0142394        0.857184
LJ           1.90993        0.459122        0.714678
LJ         -0.916742        0.749018        -0.52471
LJ          -1.56097         1.14017        -2.14714
LJ          -1.26934         1.38737        -2.06639
LJ         0.0143336         2.10493       -0.280353
LJ              -nan            -nan            -nan
LJ          0.230932        0.652748        -1.86791
LJ           2.04162        0.672871         1.21418
LJ              -nan            -nan            -nan
LJ          -1.15707         1.78406        0.147637
LJ              -nan            -nan            -nan
LJ              -nan            -nan            -nan
LJ              -nan            -nan            -nan
LJ         -0.635522       -0.604363        0.678991
LJ              -nan            -nan            -nan
LJ         -0.326477         2.00358         2.27297
LJ           -1.1693         1.18115        -1.66603
LJ         -0.404291         2.43736          1.5391
LJ           1.31506         0.57134       -0.309001
LJ           2.23838       -0.374777       -0.466241
LJ          -0.22728         1.68885          1.1627
LJ          0.746613       0.0303648         2.08004
LJ           -2.0401          1.0212         1.67829
LJ          -2.04616        0.848755        -1.30132
LJ           2.21273        -1.58847         1.15476
LJ         -0.258126         1.50475         1.22768
LJ          -1.85189         -1.9743         1.03533
LJ              -nan            -nan            -nan
LJ          0.951654        -1.09716        -1.05058
LJ              -nan            -nan            -nan
LJ           1.27242         2.21226        -1.46853
LJ         -0.863771        -2.37414        0.741356
LJ          -2.12762       -0.533443         2.48461
LJ          -1.68501        -1.08853        -1.41563
LJ          -1.37165     5.31706e-05        -1.09333
LJ           1.79173         1.34012      -0.0365264
LJ          -2.21429        -1.83188        -1.35218
LJ          -1.72551        -1.44826      -0.0105874
LJ          -1.57156        0.950263         1.42152
LJ          -2.06682       -0.936051         2.48058
LJ          -2.12739       -0.038107         -1.2596
LJ          -1.29232        0.491367       -0.937296
LJ          -1.09952         1.57416         -1.6975
LJ            2.3148         2.29052         0.93826
LJ           1.10015         0.98389          2.4315
LJ          -1.24116        -1.68235         2.23891
LJ          -1.27859        -0.75734         1.60589
LJ              -nan            -nan            -nan
LJ         -0.536108        0.394651         1.31984
LJ            2.2326        -2.24296        -1.41736
LJ          0.194223        -1.05308        0.324118
LJ          0.866795         2.22331       0.0535159
LJ         -0.689317         1.27859        -2.43254
LJ           1.91231        -1.34952         2.37278
LJ           1.53582         1.42407       -0.338143
LJ          -1.34426        -1.53805       -0.252166
LJ           1.03137        -1.29048        0.375689
LJ           2.27458         2.51109       -0.438778
LJ          -1.24844         1.21566        0.824447
LJ         -0.892738         1.53394       -0.721675
LJ          -1.80127         1.31648        -1.35416
LJ        -0.0566074        0.128918        -2.43999
LJ              -nan            -nan            -nan
LJ          -2.09386         1.57202        0.338659
LJ          0.805653        -2.30184       -0.599185
LJ          -2.13669        0.942478        -1.31326
LJ         -0.825763         1.46361         1.49687
LJ          -2.24676        0.838633        -1.99191
LJ         -0.865705        -2.14522        -2.23991
LJ          -1.26615        -1.18838        -1.20731
LJ           2.31059          1.8797        0.816722
LJ           1.51698       -0.897443        -2.40562
LJ          -1.39456      -0.0728024        -1.83764
LJ         -0.444439       -0.524656        -2.12879
LJ         -0.320896        -2.26939        0.632404
LJ          0.936874        -1.20322         2.40919
LJ          -2.36382       -0.833803        -2.46199
LJ           1.70014         2.09612         -1.6021
LJ         -0.587061         1.38961         -1.2696
LJ          -2.48341        -0.33597         1.32079
LJ          0.791957         1.98958        0.773551
LJ          -2.43769       -0.353423        0.589387
LJ           1.14971        -1.48007         1.83339
LJ          -2.13584         -0.3422        -2.35381
LJ           2.28093        0.147202         1.17925
LJ              -nan            -nan            -nan
LJ          -1.11657      -0.0732254        -2.45549
LJ            2.0612          0.8412        -1.12291
LJ          -1.47077        -1.36957          1.7255
LJ          -1.36808        -1.15242         2.08482
LJ           1.62019        0.995826         1.63642
LJ          0.213489         2.12962         1.25978
LJ           1.65011       -0.116193         1.25208
LJ              -nan            -nan            -nan
LJ          -0.29992         1.74804        0.505774
LJ         -0.918791        0.894576         1.04402
LJ           1.87554        0.847044         2.49797
LJ          -1.03646        -1.65911         1.65944
LJ           2.51145         1.42331       -0.775145
LJ              -nan            -nan            -nan
LJ         -0.181529        0.533826       -0.421528
LJ           1.13068        -1.52704       -0.823428
LJ              -nan            -nan            -nan
