108
#Comment!
LJ          -2.14293         -0.4967         2.05336
LJ           0.95557       0.0505587        -2.32823
LJ           1.97003         2.06853         1.18517
LJ          -2.19724       -0.643272         1.03525
LJ          -2.47592       -0.592978        0.539307
LJ           2.16952         1.28184        0.524391
LJ          0.179655         1.10928        -1.89575
LJ           1.79189        0.342806         2.43126
LJ         -0.295219       -0.354078         -2.2042
LJ          -2.21726        -1.40728        0.166033
LJ              -nan            -nan            -nan
LJ          0.293124        0.915367        0.156703
LJ          0.759761        0.278794       0.0907819
LJ              -nan            -nan            -nan
LJ            2.1896         2.06049       -0.382128
LJ              -nan            -nan            -nan
LJ              -nan            -nan            -nan
LJ              -nan            -nan            -nan
LJ          -1.42866        -2.56071         1.76941
LJ              -nan            -nan            -nan
LJ           2.14191          1.5629          1.2135
LJ           2.50809        -1.93813        -1.73728
LJ         -0.583386       -0.335344         2.34332
LJ              -nan            -nan            -nan
LJ          -2.46029        -1.79587         1.05334
LJ           1.67545          2.4436        -2.35805
LJ         -0.171465        -1.67824        -1.55672
LJ         -0.799851        -1.34802       -0.900099
LJ          -1.55577        0.481182        -2.52099
LJ          -1.87554        -1.64644         1.71437
LJ              -nan            -nan            -nan
LJ           2.31476        0.641349         1.32309
LJ              -nan            -nan            -nan
LJ          -1.89615        -1.62861        0.309048
LJ              -nan            -nan            -nan
LJ           1.67498        0.461393         2.20374
LJ         -0.609466        0.305132         0.48412
LJ           1.83621        0.323426        0.785043
LJ           -2.3788       -0.778161        0.611523
LJ           1.18173        -1.58882       -0.320185
LJ         -0.253363        -1.32866        -2.26936
LJ          -2.27676        -2.41663       -0.042459
LJ           1.76834       -0.705189         2.36015
LJ         -0.679285        -1.79813        -1.33076
LJ          -2.31469       0.0544395         1.54608
LJ           2.45226         2.42963         1.28587
LJ           2.32678        0.653401         1.10279
LJ           0.99848        -2.11391        0.323227
LJ          -2.55656         1.04431        -1.44838
LJ          -1.36743         1.46705        -1.27781
LJ          -1.64699        -2.23705       -0.326423
LJ          0.120842        0.652579       -0.216906
LJ              -nan            -nan            -nan
LJ         -0.683389         1.82933       0.0255906
LJ          -2.34551        0.178365        -1.33454
LJ          -1.55247         2.43343        0.455158
LJ          0.301618        -2.22695       -0.340926
LJ          0.597849        0.815425         1.92133
LJ          0.854198        0.888612       0.0409216
LJ           1.04663        0.670443         -2.1496
LJ          -1.29006        0.301822        -1.40103
LJ           1.51581        0.976526        0.384906
LJ          0.136071         2.24171        0.201998
LJ              -nan            -nan            -nan
LJ              -nan            -nan            -nan
LJ         0.0992652        -1.09388        0.920719
LJ           1.71956         1.57639        0.941651
LJ              -nan            -nan            -nan
LJ          0.692281         1.67594        -1.80292
LJ           1.79372         -1.3304         2.05549
LJ           1.56641        -0.86667         1.21719
LJ          -2.29814         2.26675         0.27846
LJ           2.19625         2.54279        0.644102
LJ          -2.40469        -1.78023         1.42192
LJ           2.03556         2.06336         2.37028
LJ           1.28569         1.77684         -2.0057
LJ          -1.75354        -2.24213        0.123922
LJ           2.07931        -2.18061         2.53489
LJ          -1.69306        0.432998         1.74844
LJ          0.800587        0.635739        0.956628
LJ           2.27122       -0.213007         2.52948
LJ          -1.46565        0.190026       -0.585106
LJ         0.0991657        0.441166         2.06466
LJ          -1.37339        -2.50253        -1.56303
LJ           2.11507      0.00477456       -0.662398
LJ           1.83076         2.02597        -1.33569
LJ          0.296169       -0.743448        -1.81531
LJ          -1.61657         1.01867         2.41972
LJ           0.86873       -0.678859         1.46335
LJ           1.63097        -2.34032       -0.185665
LJ              -nan            -nan            -nan
LJ           1.77594         -1.9502         2.21509
LJ          -1.83169        -1.97519        -1.60345
LJ         -0.750376        0.301799         -1.7569
LJ           0.45047           1.528        -2.41152
LJ           2.36846        0.883281        -1.56786
LJ           2.22693        -1.23188        -1.99908
LJ           2.56008         1.12252        -1.99166
LJ              -nan            -nan            -nan
LJ         -0.978394        0.199117        0.402561
LJ          0.797284         1.35061       -0.641636
LJ           1.12896         1.47296        -1.02253
LJ           0.82011         1.89738        -1.23885
LJ         -0.316774         0.94042        -2.47772
LJ              -nan            -nan            -nan
LJ         -0.875575        -1.42346        -1.91637
LJ          0.840158        0.603015          2.5495
LJ              -nan            -nan            -nan
