108
#Comment!
LJ         -0.932833         1.15483         1.67313
LJ         0.0749957         0.69368       0.0391857
LJ         -0.405174         1.97043        -1.06618
LJ          -1.93381         1.60102       -0.248643
LJ            2.5314       -0.835326       -0.209449
LJ           1.06355         1.07774        -2.51647
LJ          -2.36033       -0.479799        -1.31338
LJ          0.361284         2.12831         1.08064
LJ         -0.815024        -1.18683        -1.85437
LJ          -2.00617         -2.5026         0.75639
LJ              -nan            -nan            -nan
LJ          -2.26608         1.65504         1.53398
LJ           1.13724        -2.28248        -1.64408
LJ            1.3232         1.40251         1.67986
LJ          -1.47766         2.15008         1.34243
LJ          -1.98066          1.9266        -2.11825
LJ              -nan            -nan            -nan
LJ              -nan            -nan            -nan
LJ          0.789122        -1.25697        -1.50995
LJ              -nan            -nan            -nan
LJ          -1.65029         1.64766        -1.43971
LJ          -1.99481         1.87307         1.22045
LJ          0.270433         1.53757        -1.69655
LJ           1.28136         1.63489         2.20804
LJ          0.245525       -0.693415       -0.714408
LJ          -2.49276         1.16789        -1.24438
LJ           2.28858       -0.676707         1.81402
LJ          -2.06931        0.965173        0.564714
LJ          0.885114         1.23542         1.00573
LJ          -2.34997         -1.5289        -2.06618
LJ          0.872961         1.79123          1.3799
LJ          0.675249        0.249731        -2.29589
LJ              -nan            -nan            -nan
LJ          -2.02489        -1.34314        0.300621
LJ              -nan            -nan            -nan
LJ           2.18897         2.46533       -0.510871
LJ            -1.579         2.43726       -0.819182
LJ          0.854687         2.33403        -2.34176
LJ         -0.605322        0.278863       -0.491806
LJ           1.63394        -2.54513        -2.20391
LJ          -1.88379         2.11247         1.06327
LJ           1.12773        -2.27348         2.29745
LJ         -0.654797        0.927303       -0.255794
LJ          -1.01504         1.14067        -2.04574
LJ          0.896952       -0.651688        -2.38121
LJ          -2.09393        -1.21925        -1.57174
LJ           1.13475       -0.553733       -0.783695
LJ         -0.682999        0.346596        -1.09201
LJ           1.11755        -1.12497       -0.878617
LJ          -1.79416         1.02483       -0.600686
LJ           2.54681        0.248025       -0.311582
LJ            1.4413         1.94716       -0.837815
LJ              -nan            -nan            -nan
LJ          0.693899       -0.239577        -0.69517
LJ          -1.59322        0.371062        0.371612
LJ          0.955031        0.792574       0.0759018
LJ           0.72793        0.359508        0.912087
LJ          -2.18159         1.61158        0.481628
LJ           0.55057       -0.204605        -1.23413
LJ          -1.01805       -0.037828      -0.0580225
LJ         -0.467855         1.85928        -1.64689
LJ          -1.30011       -0.770161        -2.10922
LJ           2.37315           1.107        0.681949
LJ             1.912         0.72319        -1.28405
LJ           1.38266         1.80035         1.21541
LJ          -1.80488        -2.32576         1.36061
LJ           1.97498          1.5162       -0.855761
LJ              -nan            -nan            -nan
LJ         -0.801821       0.0681577        -1.49064
LJ         -0.838361        0.705809       -0.576818
LJ           1.42698      -0.0414011         1.89231
LJ          0.359923          -0.737         -1.8157
LJ           1.33401       -0.370727         1.81661
LJ          -0.88773        -1.46334        0.473549
LJ          0.904844        0.715284         1.16973
LJ           -1.6429       -0.844919        0.749841
LJ          -1.52549         2.31847        -1.08649
LJ         -0.649906       -0.845363         1.00267
LJ           1.99353        0.609398       -0.874465
LJ          -2.40963        -1.19019         2.10491
LJ           1.51266       -0.656612         1.36506
LJ           1.39994         1.38379        -1.83747
LJ           1.39291         2.32828         1.94336
LJ          -1.58035        -2.11544         1.15132
LJ           -1.6471        0.653378        -2.52957
LJ           2.40907       -0.325398        0.997145
LJ         -0.716011        0.659122        -1.79327
LJ         -0.370245         2.02134       -0.577597
LJ           1.33184        -1.76669       -0.411758
LJ          -2.13929        -1.24269         1.94572
LJ              -nan            -nan            -nan
LJ         -0.783432        0.370153        0.316315
LJ          0.911998         2.22053         2.44757
LJ          -1.50794        -2.32904        -1.67384
LJ           2.38105         1.39918         1.04968
LJ           2.09389        -1.74487        0.526921
LJ           1.37792         1.80377       -0.561734
LJ           2.22657         1.17715        0.631416
LJ           1.69225       -0.277461         2.17718
LJ         -0.539812       0.0969641        -1.27732
LJ         0.0385607         -1.8614         2.19587
LJ           1.29445         2.14703        -1.85988
LJ         -0.406536        -2.55235           2.023
LJ          -1.40741       -0.681774         -2.3945
LJ          -1.81262          2.1768        -1.10919
LJ          0.499092        -1.37778          1.1055
LJ           0.80347         1.96673       -0.749968
LJ              -nan            -nan            -nan
