108
#Comment!
LJ           1.95614        0.863657        -1.93658
LJ          -0.58527        0.949723       -0.871352
LJ          -2.38518       -0.846223         1.59726
LJ          -1.20054        -1.80791         2.14762
LJ           2.22349         1.18562       -0.247923
LJ           2.51921         1.09912       -0.964211
LJ           0.73228         1.86682        0.883191
LJ          -1.36993        -1.59396        -2.39652
LJ           2.48101        -1.71147       -0.562087
LJ         -0.165054       -0.752009        -1.06619
LJ              -nan            -nan            -nan
LJ          -2.14765         1.24914         1.40986
LJ          -1.92126        0.151069        -2.00274
LJ           2.45942        0.626708        0.430749
LJ          -1.67497        0.427548        -1.42132
LJ          0.385144           1.182        -1.72895
LJ              -nan            -nan            -nan
LJ              -nan            -nan            -nan
LJ           2.18781      -0.0121651        -1.73653
LJ              -nan            -nan            -nan
LJ          -2.50398         2.09413         1.30745
LJ           2.10272         2.47352         1.60704
LJ           1.64679        0.319561        0.877676
LJ          -1.36626       -0.262682         1.92828
LJ         -0.225501         1.06728        -1.97308
LJ           2.31464         2.09043        -1.31421
LJ          -1.29929       -0.085694        -1.15379
LJ          -1.79565        0.862492         1.32678
LJ          -1.90044        0.950791       -0.937376
LJ          -1.81104        -1.64911         1.84286
LJ          -1.32198         1.49367        0.673568
LJ          -1.05175       -0.310749        0.453268
LJ              -nan            -nan            -nan
LJ          0.086538         2.07503       -0.931358
LJ              -nan            -nan            -nan
LJ          0.388156        -2.30755         2.53387
LJ         -0.777025        0.607278         1.44691
LJ           0.96737         1.57356      -0.0153285
LJ         -0.500545         1.60623         1.42739
LJ         -0.728488          1.0817         -2.0803
LJ           1.41422        0.964813          2.1911
LJ           1.47735        0.458534         1.07675
LJ         -0.201104         2.22839         2.18437
LJ           2.54099        0.273393         -1.0165
LJ           1.97182         2.44858         1.00744
LJ          0.594749        0.108515        -2.51937
LJ         -0.552963        -0.24319        -2.27839
LJ          0.629686       -0.302615         0.56686
LJ           1.45275        0.392765         1.04837
LJ         -0.350415       0.0177382        -2.41383
LJ          0.837553       0.0451739        -2.12012
LJ          -1.05448         1.66352        -2.48115
LJ              -nan            -nan            -nan
LJ            0.3573         1.04809        -1.32543
LJ          0.783188        -1.97776          2.4912
LJ        -0.0535928           1.462        0.973399
LJ          0.944314       -0.592074         1.80279
LJ          -2.01638        0.629837        -1.44881
LJ           2.54945        -1.28964       -0.229567
LJ          -2.38074         1.57356         1.08008
LJ          -0.20713       -0.834299        -1.35088
LJ           2.20994          0.2721         2.34625
LJ          -2.26468        -1.86583        0.252008
LJ           2.29167          -1.293         2.31669
LJ          -1.62002        0.616207        0.659877
LJ          0.758667         -1.5066         1.66918
LJ           1.62759         1.38685        -1.87652
LJ              -nan            -nan            -nan
LJ           -2.5271        -1.36553       -0.375285
LJ           2.31527        -1.23311       -0.379617
LJ         -0.622601        0.659709        -1.51925
LJ          -1.89502         1.68561       -0.304826
LJ           -1.2841        -1.22903         2.11378
LJ         -0.749882         1.99157        0.535878
LJ          0.503991        -2.14293         1.33873
LJ           1.89567        -1.63249         0.70862
LJ           1.25445       -0.943989        -1.22808
LJ         0.0758955        -1.61278        -1.97995
LJ         -0.191525         1.27414       -0.707236
LJ           1.70239        0.344632       -0.693255
LJ          -2.13405         1.29963       -0.470416
LJ          0.438627         2.18658         1.98274
LJ            2.0575         1.04322         1.79311
LJ          -2.48934         1.62704         1.05011
LJ          -1.99621         1.70351        0.393136
LJ          -1.44812        -1.10759        0.729361
LJ          -0.17466        0.489657       -0.830472
LJ           0.60757       -0.180884         1.72515
LJ           2.09608        -1.16339        -1.33526
LJ         -0.913001        -1.04134        -1.48562
LJ              -nan            -nan            -nan
LJ          -1.74105        -0.57303       -0.541914
LJ          -1.49765         1.74197        0.679094
LJ         -0.666766         1.55232        -1.42326
LJ          -1.95665        -1.60366         1.34556
LJ          -1.19218         1.94978        -2.05825
LJ           1.65354         1.22618        0.787193
LJ          -2.03937         1.75992         1.95279
LJ           1.09348        0.211545         -1.5654
LJ          -1.86765          1.7423         1.32616
LJ         -0.910284         1.80577        -1.48795
LJ          0.486882      -0.0478806      -0.0971643
LJ           2.36929        0.505931         1.61071
LJ          0.410509          -1.668         -1.3559
LJ           2.53776        0.685682        -1.61849
LJ          -2.42822         2.43013        -1.27185
LJ         -0.635605          1.0792       -0.222248
LJ              -nan            -nan            -nan
