108
#Comment!
LJ          -1.87808      -0.0766059        -1.69983
LJ            2.4945         2.28559         1.66663
LJ          -1.88469         1.36367         1.62035
LJ          -2.22102         1.04598           1.562
LJ           1.54988        -1.39267       -0.742906
LJ           1.67361         1.08585         0.20751
LJ           1.69668         1.67669         1.02399
LJ          0.817323         -1.4393       -0.871841
LJ          -2.13455        -1.81264        -2.15152
LJ          -2.01239         1.46916          1.2648
LJ           2.14726        0.677243       -0.832192
LJ          -1.85298         1.66776        -1.50639
LJ         -0.487993        -2.53271        -1.60814
LJ         -0.113956         2.23758         2.38096
LJ          -1.52667        -2.43561         0.34466
LJ           2.48493        0.633868        -2.16487
LJ           -1.5987         2.01393         1.01674
LJ          -2.06044        0.572489       0.0192996
LJ           1.70224        -2.40397        -1.73314
LJ           2.40576        -2.19548        -2.45277
LJ          0.721908        -2.24403         2.04836
LJ           1.19698         1.40109        -1.99283
LJ          -1.98682         1.97732        -2.08745
LJ          -1.36008         2.18169       -0.962392
LJ           1.19309         1.59673        0.783661
LJ          -1.45728        0.353989          1.5217
LJ          0.551267        -2.08419         1.69439
LJ          -1.33079        -1.71448        0.132238
LJ            2.0257        -0.22166         1.21493
LJ           1.37906       -0.896748       -0.987713
LJ          0.414055       -0.996665       -0.887727
LJ           2.04199        0.579022       -0.170413
LJ          -2.07214        0.361961         2.01007
LJ           2.13001        0.731027      -0.0261854
LJ          0.046371        -2.42605       -0.493389
LJ           2.52689       0.0966844         2.41684
LJ         -0.833857         2.23866        0.716851
LJ           1.90108         1.95025       0.0318966
LJ         -0.263987      -0.0545849        -2.32599
LJ          0.190569         1.96061        -1.13179
LJ           2.42194       0.0713535       -0.823035
LJ           2.53664         1.37189        -2.07892
LJ           2.25491         1.35828         0.68969
LJ          -2.00287        -0.22846         1.22076
LJ          -1.56789         2.19678        0.588163
LJ          -1.04502         -2.0633        -1.17189
LJ            2.5353         1.28217        0.595777
LJ          0.842953        -0.76552        0.173615
LJ           2.26904        0.196565       -0.715613
LJ          -1.29646         -1.8887         1.63255
LJ           2.27303       -0.250598         2.50473
LJ           2.30211         -1.8835         2.07306
LJ         0.0119265         2.52314        0.525381
LJ          -2.51349       -0.628369         1.68294
LJ          0.252486        -1.46121         1.60931
LJ         -0.508026       -0.965186        -2.50609
LJ          0.966473         -2.4766       -0.378414
LJ          0.373857        -1.80675       -0.263439
LJ          0.954872         0.23566         2.35954
LJ           1.34605       -0.683529         -2.5089
LJ          -2.04559        -1.76433          1.9267
LJ         -0.934249         1.51837        -1.23932
LJ          0.067793        -1.75253       0.0628986
LJ          -2.11512       -0.263067         1.67893
LJ           2.49664         1.89052        -1.99023
LJ         -0.904558         1.51526       -0.746734
LJ         -0.842389        -1.17466        -1.41371
LJ            1.9638         1.28521       -0.169766
LJ         -0.397836        -2.01767       0.0362046
LJ           1.53575        -1.75496       -0.422553
LJ           1.73689        -1.51119         2.27222
LJ            2.1462        -1.37096        -2.22007
LJ          -1.82173        0.725801        -1.44669
LJ          -2.10674        0.647324         0.22343
LJ          0.518252         1.25493          1.0644
LJ           2.45068        0.417777        -1.84505
LJ           1.25871        -1.48128         1.27956
LJ          0.961334        0.953853       0.0740323
LJ         -0.208183        -2.04746         1.12496
LJ         -0.931662       -0.796253       0.0685807
LJ           2.45546       -0.553496        -1.21532
LJ          0.773424         2.41742        0.314351
LJ           1.10384       -0.120763         1.26188
LJ          -1.80218        0.335004        0.542279
LJ          0.202976         1.84812        -1.61324
LJ         -0.938184        0.872249         2.06639
LJ         -0.839154         1.02874         2.56009
LJ           1.50669        -1.85275         1.45965
LJ         -0.934046        -1.86451         -1.2566
LJ          -1.87812        -1.97328      -0.0206127
LJ         -0.512082         2.55582        -1.44424
LJ           1.87191        -1.54338        -2.37943
LJ           -1.7343        -1.75593       -0.728658
LJ         -0.563764        0.475677         2.04488
LJ          -1.85514         1.70646        -1.85549
LJ         0.0159137        -2.20735        0.119811
LJ         -0.752101         1.29562         1.16085
LJ          -2.50063         1.17117         1.37107
LJ          0.256322        0.188613        -1.10265
LJ          -1.37243       -0.203386        0.518827
LJ           1.12355        0.849663         1.14081
LJ          -1.23544         2.10004       0.0617195
LJ          -1.41416        0.146027        -1.89309
LJ          -1.57157         1.09967          1.5745
LJ          -1.18365         1.80733        -2.35716
LJ           1.57755        -1.97337        0.559262
LJ          -2.06351         2.00344        0.899469
LJ           1.07222          1.6368        -2.16478
