108
#Comment!
LJ          0.889287        0.891325       -0.723201
LJ          0.384581        -1.57053        -1.67996
LJ         0.0449164        -2.14099       -0.463364
LJ          -1.86537          1.2722         2.29612
LJ          0.979468        0.441837        0.152467
LJ           -2.0857        -2.46155        -1.40862
LJ          0.410887         1.03345         1.96354
LJ          -2.12311        0.719404        -2.41665
LJ           2.27104         2.18677        0.275935
LJ          -2.03698        -2.14678         1.89316
LJ              -nan            -nan            -nan
LJ          -1.01876        0.560129          1.6417
LJ          -2.37686         1.97385        0.466158
LJ         -0.577135         -0.3957        -1.54915
LJ          -2.29498        -2.25117       -0.969876
LJ          -2.35928          1.4884        0.368718
LJ              -nan            -nan            -nan
LJ              -nan            -nan            -nan
LJ           2.13409         2.23091        -1.05201
LJ              -nan            -nan            -nan
LJ          -2.49459          2.3763        0.277987
LJ          0.488598        -2.14703        -1.43986
LJ           1.00701          -2.186        -1.52451
LJ           1.78434       -0.380103        -1.88424
LJ          0.308288        -1.95875         1.05937
LJ           1.65924         2.04304        -1.41064
LJ          0.443089        0.111239        -2.18046
LJ           1.19659         1.19199           1.821
LJ          -1.57731         1.47473         -2.1631
LJ          -1.02376        0.117978        0.688102
LJ           0.20839       -0.838688        0.918802
LJ         -0.164905         2.00527         1.10719
LJ              -nan            -nan            -nan
LJ           1.49268         1.94194         2.04268
LJ              -nan            -nan            -nan
LJ         -0.615641        -1.73127        -1.47708
LJ          0.264166         1.09448        0.223159
LJ           1.68117        -1.08637       -0.694198
LJ          -1.25639         2.11021        -1.11438
LJ           2.51306         1.85432        -1.45553
LJ         -0.372624         1.53408       -0.357261
LJ        0.00461591         1.05917       -0.914465
LJ           1.25413         2.40515        -1.75018
LJ          0.968436       -0.789184        -1.22092
LJ           2.44971         0.44312        -1.33028
LJ          -1.61191        -1.00795        -1.04961
LJ          -1.46607         -1.2794        -2.06562
LJ         -0.496689         1.45017         2.09733
LJ          -1.54546        -1.05183       -0.434073
LJ           2.28711         1.40895         2.16092
LJ          -2.32418      -0.0456013         1.17776
LJ          0.637476        -1.80553         1.60374
LJ              -nan            -nan            -nan
LJ          0.221001       -0.363024        -1.09309
LJ           2.07802       -0.467627       -0.734666
LJ        -0.0776922        -1.73125       -0.100281
LJ          -1.20601         1.51451       -0.175048
LJ        0.00937804        -1.95015        -1.93782
LJ          -0.77667       -0.643246        -1.21658
LJ              1.75          0.1875          0.8125
LJ           1.61013      -0.0260379          1.1682
LJ          -1.25154        -1.57196        -1.81597
LJ           2.42295        0.536451         1.01484
LJ         -0.375706         1.16765        -2.45555
LJ          0.242596       -0.391735        -2.29763
LJ          -0.22434        -1.09597        -0.41657
LJ         -0.820882        -1.32355         2.27253
LJ              -nan            -nan            -nan
LJ          -2.17392         1.79446       -0.941577
LJ          0.670448        -1.34566       0.0743171
LJ          0.868789        0.437653       -0.353286
LJ         0.0142028         1.02038         1.55436
LJ          -1.57982        -1.69576        -1.14767
LJ          -1.79527       -0.712048         0.28945
LJ          -2.31766       -0.842895        -2.30217
LJ           1.66653       -0.254143       -0.254402
LJ          -1.63584         1.96834        -1.27903
LJ           1.24009        -1.22483        -1.62447
LJ         -0.689536          2.0705        0.591694
LJ          -1.62833         -1.8109        -1.23811
LJ            2.3759       -0.970822        -1.68859
LJ           2.27472        -1.24248         -1.9275
LJ          -2.37847       -0.978602         2.00938
LJ          -1.85359        -1.27482         1.53942
LJ           1.13097         1.01439         2.05879
LJ          -2.55223        0.414757       -0.870592
LJ          -1.63969       -0.926784        -1.69804
LJ           1.09646         1.24433        0.736281
LJ         -0.657692        0.715923       -0.292519
LJ          -0.82952         1.95015       -0.766108
LJ              -nan            -nan            -nan
LJ          -2.08213         1.87607       -0.431946
LJ           1.79131        -1.39501        -1.28338
LJ        -0.0393982        0.737319          1.4287
LJ           1.02344               0         -0.1875
LJ         0.0402049        0.822008        -1.22182
LJ           1.46859       -0.077578        -2.28336
LJ          -1.60448        0.836462         1.57717
LJ          0.498577         2.04585        -2.28592
LJ           1.00531        0.278685        0.824324
LJ           1.05266         1.61073         1.59005
LJ          -1.68819        -2.03159          2.4769
LJ        -0.0710223         1.41347        0.792054
LJ         -0.692583        -2.21026        0.193025
LJ          -2.14194         1.06765       -0.354481
LJ         -0.595405       -0.189517         1.19591
LJ           -1.2474         2.47402       -0.312388
LJ              -nan            -nan            -nan
