108
#Comment!
LJ          -1.08521        0.897674        -2.00439
LJ           1.44305        -2.17973         2.47843
LJ          0.236131         1.22575        0.796808
LJ         -0.406579         1.13048         2.10111
LJ           1.43173       -0.990636         0.89023
LJ          0.951506         1.26806        -2.17614
LJ          -2.51434         1.49705         2.35024
LJ          0.177299        -1.65535       -0.643962
LJ          0.251583         1.47492       -0.324021
LJ          -1.37632         2.21444          2.3158
LJ              -nan            -nan            -nan
LJ          -1.71231        -1.57301        -2.16229
LJ          -2.22034        -2.50735        0.547043
LJ          0.159521        0.210711         0.73607
LJ           2.29161       -0.239344        0.228058
LJ           -2.1994         1.36994         0.86715
LJ        -0.0199567        0.479117        -2.26228
LJ          -1.99961         2.46297        0.376229
LJ          -2.15814           1.814           1.501
LJ        -0.0351796        -1.67137       -0.788381
LJ          -1.70367        0.508246         2.52326
LJ         -0.214788         1.11884        -1.81634
LJ          0.193324        0.440171         1.70016
LJ         -0.587893         1.19952         1.82795
LJ          -1.00991        -1.35404        -1.30714
LJ         0.0501874       -0.236892       -0.845116
LJ           1.54153         2.48003          1.1589
LJ          -1.86203          2.0855          1.8309
LJ          -1.83884       -0.858053        -1.75563
LJ          0.859012        -2.51215        -1.48984
LJ          -2.33318        -1.72995        -2.49516
LJ          -1.22407        0.301865         1.32198
LJ              -nan            -nan            -nan
LJ          -1.02551       -0.704819         2.51282
LJ              -nan            -nan            -nan
LJ           2.34296        -2.34157        -1.72637
LJ          0.894973         0.74943         -2.4174
LJ         -0.521563       -0.951873         2.12008
LJ             1.772        0.261603       -0.273897
LJ          0.370736         -0.6699         2.08746
LJ        -0.0673175    -0.000416464       -0.352252
LJ          0.977615        -1.64191        -2.28909
LJ         -0.418893         2.04387        -2.27422
LJ          -2.25582        -2.16874        -1.84766
LJ          -1.13387        0.227581        0.134909
LJ            2.0388         -1.5365         1.60823
LJ         -0.262735        0.300624         1.99671
LJ          -1.95498        -1.45976        0.176673
LJ          -1.36511        -0.52125         1.66395
LJ           1.80594       -0.494159        -1.51478
LJ          -1.95696         1.86155         1.64277
LJ          -1.23983       -0.216573       -0.660176
LJ          0.587858        -1.48237         1.99329
LJ          -1.55129       0.0791181          1.4993
LJ           2.24278       -0.806731        -2.48556
LJ           -2.1788         1.85962        0.179279
LJ          0.420582        -2.25336        -2.10203
LJ          -2.05747         1.84508        0.538472
LJ          -2.41501        -1.17343         1.06652
LJ           1.98011         1.39013       0.0117467
LJ           1.29718         1.25198       -0.350939
LJ           1.78624        -1.67499         1.06403
LJ           1.47989           2.242        -2.06049
LJ           0.48479        0.598943         1.13474
LJ           1.02354       -0.847677        0.301083
LJ         -0.962295         1.06513        -1.25813
LJ          -1.89708         -0.7658        -2.21953
LJ              -nan            -nan            -nan
LJ          -2.51986       -0.849966        -1.06297
LJ           2.09702         2.05671           2.507
LJ          -1.19447        -2.54263        0.544616
LJ          -2.55452        0.870508         1.62408
LJ            1.7068        -0.68542        0.851825
LJ          -1.76913        -2.16596        -1.95433
LJ           1.79858          1.7504         1.06425
LJ         -0.437949         2.26511        0.016443
LJ         -0.835449       -0.614449        -1.03512
LJ         -0.543304        0.761764         2.48682
LJ         -0.973576        -1.02543        0.934524
LJ           2.49885       -0.079777        -2.24295
LJ           2.26209          1.5665         1.44397
LJ            1.0785        -2.08465        -2.46205
LJ          0.691191        -1.11683        0.272201
LJ            2.4528      -0.0786328         2.41408
LJ           1.28501        -1.93746       -0.243009
LJ          -2.44495      -0.0902838        -1.72563
LJ          -1.91709        -1.59468       -0.977656
LJ         -0.982129          2.4033        0.668818
LJ         -0.496766         1.47172        -1.91641
LJ          -2.26763         0.13076        -1.60361
LJ         -0.836387        0.501831       -0.976137
LJ          0.426187         1.10881        -1.11257
LJ           2.44855         2.23115        0.501998
LJ          0.326621        0.821612        0.566427
LJ          -1.52181         1.07953       -0.235449
LJ          -2.42656         1.03967        0.486515
LJ          -2.22925        0.428622         2.45614
LJ           1.03411        -2.14109         2.13461
LJ           1.69821        -1.48713         1.00251
LJ      -0.000369803        -2.46855        -2.36889
LJ         -0.707776        0.515322        -1.16424
LJ           0.20293      -0.0198374        0.935543
LJ          -1.14064        -1.34161        -0.54925
LJ          0.467929         1.83909         1.43968
LJ          -2.24705        -2.50869        -1.22244
LJ          -2.15122        -1.65346          1.4457
LJ          -2.52901       -0.614146       -0.235475
LJ         -0.514375         2.07296          1.7006
