108
#Comment!
LJ           1.62189        -1.18713        -2.36304
LJ           2.09675         -1.4771        0.523208
LJ          -1.37527        -1.77778       -0.653713
LJ         -0.702516         -1.7986         1.83048
LJ           1.46003        0.256688          1.9726
LJ         -0.364218        -2.38282       -0.701113
LJ          -0.36787        0.300565         2.41891
LJ           1.86224        -2.28057        -2.21733
LJ          0.142769        -2.12596         1.26726
LJ           2.37043        -1.11033       -0.142663
LJ              -nan            -nan            -nan
LJ          0.319187       -0.787978       -0.524342
LJ          -1.12004        -1.49105        -2.47077
LJ           1.35151        -1.93661        -2.10846
LJ         -0.343308        -1.42194       -0.800715
LJ          -1.80616         1.75004          2.0791
LJ           2.32255        0.229121          1.3086
LJ         -0.251093        -1.37916         1.10215
LJ           1.41546         2.48187          -1.409
LJ           1.62581        -1.39219        -1.82159
LJ          -1.87609         1.05372        -1.17903
LJ           -1.0849        0.380955        -2.02556
LJ          -1.33118         1.72605        -2.40849
LJ         -0.131799         1.05249        0.983557
LJ           1.67633         -1.7383         2.00113
LJ          0.476672        -2.55282         2.12878
LJ         -0.829616         1.07386         2.50014
LJ           2.35738        -1.29006        -2.21101
LJ           1.26254        -0.55211         0.36154
LJ           2.46914         1.29559         1.44175
LJ         -0.237928       -0.802069        -2.37036
LJ          0.511841          1.0455       -0.672227
LJ              -nan            -nan            -nan
LJ            1.7051         1.78005         1.20072
LJ              -nan            -nan            -nan
LJ           1.81449        0.228579         2.43252
LJ           1.28155        0.325753        -1.91351
LJ         0.0758597       -0.288698         1.50731
LJ             -2.34       -0.518461       -0.237727
LJ          0.421204         2.40859        -1.16797
LJ          0.462721         1.34199       -0.821178
LJ          -1.08062       0.0309844         1.45988
LJ          0.360374       -0.435824         1.31702
LJ          0.401254        -2.30661         1.00082
LJ           1.02993        0.849482        -1.87868
LJ          -1.02685        -2.47454        -1.56579
LJ           -1.6197        0.324842         1.47581
LJ           1.82554        0.612643         1.13876
LJ          -2.54467         2.02247         -1.0647
LJ          0.648013        -1.14341        0.410708
LJ            2.5344        0.243722          1.2494
LJ         -0.269044         1.85737        -1.62633
LJ           -1.2903         1.28005         -2.1241
LJ          -1.46931        0.136066        0.711553
LJ           2.01518       -0.456634       -0.108555
LJ          0.285568        -1.05775         2.40401
LJ           2.40372        0.368825       0.0737579
LJ           1.84734         0.31912         1.83773
LJ         -0.716144        -2.27196         -1.7123
LJ           1.26835         1.13477         2.19594
LJ          -2.55407        -2.39697       -0.484054
LJ           1.10288         1.89893        -1.97296
LJ           1.83824        0.260999         -2.1399
LJ         -0.732008        0.790971        -0.41726
LJ           1.88924         2.07525        -1.99891
LJ           2.49835        -2.08165         1.88136
LJ           1.01042        -2.56335       -0.646636
LJ              -nan            -nan            -nan
LJ          0.790417        -1.79877        0.861037
LJ         0.0305934        -2.50661        -1.36237
LJ         -0.969707        0.106672       -0.836112
LJ         -0.695384         2.06436         1.27657
LJ          -1.16329       -0.449259       -0.109392
LJ          -1.60414        0.607518        0.723297
LJ           -2.3366        -1.59813       -0.666354
LJ           1.48416         -2.4345        0.394587
LJ          -1.09265          1.4974      -0.0509043
LJ           0.89401         1.29561       -0.177785
LJ          -1.28367          1.2176         1.49439
LJ           1.57604        -1.51789         2.13848
LJ          0.834423       -0.239176        -1.11451
LJ          -2.32698       -0.953569        0.140275
LJ          -1.49734        -1.46815        -1.24335
LJ           1.35256         2.17733       -0.515608
LJ         -0.854501         -1.9432         0.13562
LJ         -0.814931        -1.70787         1.28236
LJ           -1.8295        -1.71661         2.13653
LJ          0.534917        0.331722       -0.884838
LJ           2.46527        -2.27602       -0.808114
LJ          -1.67203         1.66751        -1.26652
LJ         -0.148561       -0.968162        -1.26036
LJ           1.33718         1.47274         -1.6468
LJ           2.26508         1.01954        0.837309
LJ         0.0767238       -0.323898        0.896384
LJ           0.26979        -1.61558        -2.41913
LJ          -1.70841         1.16473         2.01602
LJ          -1.17202        -0.11164        -1.91278
LJ          0.834399       -0.255145         2.38227
LJ          0.441867        -1.39033         1.16907
LJ          -1.67912        0.623613        -1.54933
LJ           1.50788        -1.10262       -0.328972
LJ           2.54387       -0.600198        -1.56311
LJ           1.01771        -0.66562        0.591352
LJ          0.464862         1.63418        -2.55155
LJ           1.69646         1.65588         1.95862
LJ          -2.07493        -1.53305         2.28019
LJ         -0.433216         1.43562        0.150945
LJ            2.3407        0.991373        -1.04547
