108
#Comment!
LJ         -0.190243         2.22115        -2.42278
LJ          -2.43388         2.30692        -2.40594
LJ         -0.140274        -1.10487       -0.143646
LJ           1.45503       -0.510614       -0.179444
LJ         -0.965279        0.796789         1.48087
LJ          -1.06095         1.73619         1.40016
LJ          0.780731         1.33607        -1.79013
LJ          0.581752         2.45078       -0.867617
LJ           1.09971         1.13792       -0.449048
LJ           2.44713         1.82824       -0.305903
LJ              -nan            -nan            -nan
LJ         -0.196381        0.290709         1.86181
LJ          -0.32984        -2.18385       -0.774857
LJ          0.776915        0.349143        -2.34452
LJ          -0.64168         1.91342        0.727332
LJ           2.25618        0.657832        0.246403
LJ           1.65974         0.82118        -1.08612
LJ          -1.29456         2.20243        -1.72431
LJ          -1.12478        0.388751         1.53837
LJ            1.7767          1.5948        -1.39045
LJ         -0.662727        0.134135       -0.407011
LJ         -0.820875        0.395429        -2.07994
LJ          -2.29119        -2.01281         -2.0996
LJ           1.08613         1.09555       -0.189615
LJ          -1.49775       -0.456147        0.476491
LJ         -0.712052       -0.274758        -1.85593
LJ          -1.72107        -1.37181        -1.22211
LJ          -1.87431         1.27267       -0.845761
LJ           2.05489       -0.229894       -0.474995
LJ          -2.47801       -0.422592        0.571932
LJ           -1.3959        0.584412        -1.74576
LJ          -2.42072        0.543572           1.488
LJ              -nan            -nan            -nan
LJ          -1.51452         -2.4603        0.740104
LJ         -0.604674       -0.768877        0.317757
LJ          -1.21396        -2.39736        -1.67982
LJ          -0.61871         2.26357       -0.714914
LJ         -0.679634        -0.61199       -0.917168
LJ           1.43349         1.05827         1.59215
LJ         -0.890308         2.50216        -2.06341
LJ           -1.9357         1.35639       -0.725513
LJ          -2.41304        -1.18188        0.730134
LJ         -0.175458         1.88389        -2.28064
LJ           1.71006       -0.360777        0.483327
LJ         -0.986848        -0.76186         2.12692
LJ           -1.3209        -2.50019         1.43013
LJ           2.54021         1.23983         2.07319
LJ          -2.44133        -2.00224        -1.93014
LJ          -1.21309       -0.682147         0.73455
LJ            1.1337         1.27131        0.017346
LJ           2.47722          1.4137        0.444129
LJ          -2.08282       -0.404432          -1.524
LJ          0.742498        0.378083        -2.43464
LJ           2.42587       -0.276767       -0.162624
LJ         -0.892167        -1.02834        -1.68655
LJ           1.58779         2.02583        -2.38932
LJ           2.55798       -0.497106        0.894349
LJ         -0.861402        -1.09056       -0.958195
LJ           1.26421       -0.274471         1.31259
LJ          0.575543         1.08937        -2.36148
LJ          -1.22065        0.511731        0.533035
LJ         -0.305196         2.24739        0.144937
LJ          -1.84187       -0.992951        0.216126
LJ          -1.89397       -0.587135       -0.858058
LJ           1.16591        -1.85435       -0.643097
LJ          -2.13788        -1.54071        0.234743
LJ         0.0458766        -1.28368        -1.61988
LJ          0.127123        -1.89282         -1.8541
LJ          0.375217         1.76665        0.927437
LJ         -0.879972        -1.53216        0.684248
LJ          -2.41377        0.666706        -2.02863
LJ          -1.90091         1.35889         1.44022
LJ          -1.20968        -1.14103         1.80296
LJ         -0.635179        -2.01859        0.512526
LJ          -1.40137         1.50497        0.630599
LJ           -2.4772         1.68839        0.893482
LJ          0.870435         1.75555        -1.65067
LJ          -2.49382        -1.22722        0.751103
LJ          -1.00281        0.793177        -1.28078
LJ          0.116533        -1.25017      -0.0437793
LJ          -1.50269        -2.31477        -2.19921
LJ            1.4554         1.33188       -0.347759
LJ          -2.49233         1.97144         1.35449
LJ         -0.719613         0.34689         1.22772
LJ           1.69536        -1.16656        -1.87915
LJ          -1.15799        0.452818        0.572806
LJ          -1.24792         1.11921       -0.500303
LJ           2.39121         1.52048        -1.95507
LJ           1.40871       -0.455072        -1.97201
LJ         -0.430084       -0.642798        -1.93783
LJ           1.37002         -2.4231        -0.22424
LJ          -0.65177        -2.46266        -2.01199
LJ           -1.4536         1.06686        0.766904
LJ          -2.09716        -2.44801         -1.4515
LJ           2.50376        -2.28149       -0.590437
LJ            2.4067        0.585027        0.998565
LJ         -0.583087         2.24848         1.34973
LJ         -0.499017       -0.461721       -0.301111
LJ       -0.00692669         -1.0934         1.93523
LJ          0.756596        -1.79375        0.676922
LJ           1.55474         1.39574         -1.1574
LJ          -2.33291        -1.74378       -0.491276
LJ          0.855561         1.46626        -1.31588
LJ          0.533624        -1.14998         -1.5627
LJ          -1.94993         2.40195       -0.603705
LJ         -0.973167        -2.24534         0.74063
LJ          0.741712       -0.793959        0.178499
LJ          -1.62074       0.0659899        -1.12112
