108
#Comment!
LJ          -2.14763        0.852283       -0.549387
LJ          -0.85214         2.48849       -0.679038
LJ           1.65042       0.0989626         1.13081
LJ          -2.03377       -0.202263       -0.249694
LJ          0.884803         1.60999         2.08313
LJ          0.823044          1.6298       -0.113421
LJ          0.621337        -1.35214        -1.92608
LJ        -0.0310498      -0.0849432        0.373012
LJ         -0.360082        -2.40635        0.907517
LJ          0.544339        -2.40876       -0.399992
LJ              -nan            -nan            -nan
LJ           1.67144         2.38882        0.198545
LJ        -0.0208418        0.308938      0.00334102
LJ              -nan            -nan            -nan
LJ          0.893552         2.07107        -2.35113
LJ              -nan            -nan            -nan
LJ              -nan            -nan            -nan
LJ              -nan            -nan            -nan
LJ          -2.56024        0.466771       -0.803696
LJ              -nan            -nan            -nan
LJ        -0.0546866        0.362109        0.351531
LJ         -0.583672       -0.807549        0.470325
LJ            1.8081         2.32358        -0.70862
LJ              -nan            -nan            -nan
LJ          -1.31192        0.821616        -2.01197
LJ         -0.106017        -1.82106        -2.51091
LJ          0.825616       -0.128698        0.713091
LJ           1.76637       -0.986297       -0.399827
LJ           1.19294        -1.20848         1.39688
LJ         -0.949196      -0.0399986       -0.103777
LJ              -nan            -nan            -nan
LJ          0.555586       -0.283848        0.326947
LJ              -nan            -nan            -nan
LJ          -1.55779           1.613         2.10578
LJ              -nan            -nan            -nan
LJ           1.69641        -2.03746        -1.75332
LJ           1.08383        -2.30483         2.02983
LJ         0.0187359        0.108038       -0.572842
LJ        -0.0891651        0.412336         1.91151
LJ         -0.584148        -1.32438         1.58494
LJ           2.02312        -2.38374        0.840073
LJ           2.23646       0.0675972       -0.760949
LJ           2.22482         2.05028          1.9753
LJ          0.816171        -1.23427       -0.756022
LJ          -1.14017       -0.838065       -0.739976
LJ           1.36935          1.6454        -1.90468
LJ          -2.34097        -1.37024         2.41023
LJ           1.79969         2.27358        -2.45902
LJ          0.237927        -2.42716         1.14819
LJ           1.48683         2.28087        0.637567
LJ           -2.1881         0.33716       -0.663028
LJ          -1.15975        -2.02655       -0.104195
LJ              -nan            -nan            -nan
LJ           2.31826         1.14165        -2.31851
LJ          -1.86868         -2.0311       -0.219124
LJ         0.0621234        -1.69299       -0.700645
LJ          0.955301       -0.411496         2.15278
LJ          0.208549        -2.21522        -2.32713
LJ           2.44517        -1.60175        0.256483
LJ          -2.19944        0.628887        -1.40981
LJ           1.25478        -1.02145        0.890547
LJ           1.77812       -0.204453         1.65772
LJ          0.305227       -0.299849        -1.38092
LJ              -nan            -nan            -nan
LJ              -nan            -nan            -nan
LJ          -1.55309        -1.25232         1.23139
LJ           1.18633        0.653019        0.341273
LJ              -nan            -nan            -nan
LJ          -1.20753       0.0825081        0.680844
LJ           1.60915        0.359316         2.51438
LJ          -1.54907        -1.82937        -1.99155
LJ         -0.810849        -1.36831          2.2502
LJ           1.47423         1.02755       -0.950894
LJ          -1.95421        -1.66039       -0.893923
LJ          -1.76846        -0.26441        0.998495
LJ           2.20478         -1.4609        -2.19028
LJ          -0.82045         1.75179        -1.98191
LJ           1.97801        0.477623        -1.93431
LJ           1.04451         1.81583        -0.54954
LJ          0.783301          1.9582        -1.65624
LJ          0.313626        -2.04229          1.4123
LJ          -2.43547       -0.903596          1.6407
LJ           0.38001         1.65208         2.15637
LJ          0.478907         1.64658         -2.5342
LJ           2.31024        -0.93879       -0.164945
LJ          -2.42228        0.678899        -1.12751
LJ           1.07697       -0.245482         2.45482
LJ          -2.51179       -0.941755       -0.334762
LJ           1.89322         2.01815         0.71419
LJ            1.8248         1.39684        -2.53599
LJ              -nan            -nan            -nan
LJ            1.7421         1.47601         1.03125
LJ           1.09348         1.33867          2.4222
LJ          0.478188        -2.32031         2.30823
LJ         -0.531901        0.804362         1.45693
LJ         -0.192666        -1.14381         1.23946
LJ         -0.968955       -0.420806         1.34886
LJ         -0.464219        -1.83557        -1.08639
LJ              -nan            -nan            -nan
LJ         -0.235353        -1.15882        0.876163
LJ           -2.4011        -1.32152        -1.34537
LJ          0.849363         1.58283        -2.48457
LJ         -0.297345       -0.460297        0.312734
LJ          -1.33452         2.27771        -2.37887
LJ              -nan            -nan            -nan
LJ          -1.85644        0.873904        -0.17308
LJ          0.633508         1.64922       -0.298437
LJ              -nan            -nan            -nan
