108
#Comment!
LJ          -1.08472        -2.24944        0.074648
LJ         0.0238551         1.62779         2.28231
LJ         -0.674156           1.667         1.09108
LJ          -2.19053        -2.31403        -2.22884
LJ          0.795649         2.45504       -0.159876
LJ           2.44561        0.555457        0.291919
LJ          0.163026        0.697843        0.364381
LJ             2.232        0.707396         -1.2982
LJ         -0.694026        0.421663          1.5881
LJ           2.48636        0.953775        -1.91419
LJ              -nan            -nan            -nan
LJ            2.1635        0.262362        -2.28568
LJ           2.02091         1.16589         1.15424
LJ              -nan            -nan            -nan
LJ           1.32349         2.26791         -2.3789
LJ              -nan            -nan            -nan
LJ              -nan            -nan            -nan
LJ              -nan            -nan            -nan
LJ           1.57392         1.20022         1.36841
LJ              -nan            -nan            -nan
LJ          -1.98595         -1.6647         1.36898
LJ         -0.220048        0.756732         -1.3892
LJ          -2.14977        -1.77212       0.0482249
LJ          -1.33559       -0.272464         1.85267
LJ         -0.559286         1.11025        -2.26127
LJ          0.778966        0.942053       -0.964722
LJ            0.8628        -1.90619         2.00875
LJ        -0.0348122         1.78853         1.55608
LJ          -1.43231        -1.00522        0.754649
LJ          0.374448        -1.38458        -1.84333
LJ              -nan            -nan            -nan
LJ          0.775111         2.12416         2.21866
LJ              -nan            -nan            -nan
LJ           0.29327          2.1062       -0.579745
LJ              -nan            -nan            -nan
LJ          -2.11146       -0.790248         1.21772
LJ           0.44437         1.26496          2.4807
LJ           1.37651         -1.5641          1.1934
LJ          0.664326         1.59746         1.79791
LJ           1.09921          1.3052        0.962297
LJ          -2.02167        -2.05766         1.89447
LJ            2.2782        -1.56671       -0.119657
LJ         -0.641936       -0.996934       -0.982166
LJ           1.51639      -0.0749973        0.982383
LJ           1.38866         2.23824         2.42355
LJ           2.06656       -0.391132       -0.836896
LJ          0.397702         1.26292         1.02931
LJ         -0.089125        -2.17815       -0.819844
LJ           2.04168       -0.145223         2.52177
LJ          0.812479        -1.83259        0.972676
LJ          0.636937       -0.701634        0.154204
LJ          -2.27937        -1.96458         1.64744
LJ              -nan            -nan            -nan
LJ           2.56279        -2.22999        0.349861
LJ           1.50407        -1.51418        -1.14574
LJ         -0.468955         2.40352       -0.252737
LJ          -2.45551        -1.83238       -0.123789
LJ           1.87421        -1.27066         1.37761
LJ          0.102333        0.114258        -2.29817
LJ          -0.81563         1.89662       -0.777516
LJ           1.25473       -0.457296        0.409321
LJ         -0.588413       -0.404622       -0.449955
LJ          -2.48177        -1.27992       -0.993869
LJ         -0.931408        -1.70017        -1.31994
LJ              -nan            -nan            -nan
LJ         -0.624131        -1.33111        -1.69269
LJ          -1.47127        -1.14423         0.37181
LJ              -nan            -nan            -nan
LJ           2.33413       -0.132188         2.40128
LJ          -1.15932        0.774037         1.82995
LJ           1.96244       -0.870026        0.883396
LJ          -1.48634        -1.59011         2.07667
LJ         -0.299531        -2.54311       -0.304567
LJ         -0.427345         -0.8837        -1.71529
LJ         -0.974686        -1.66499       -0.993242
LJ          -1.51519        0.474784        0.929355
LJ          -1.41847          1.1197        0.585727
LJ         -0.673025         1.16413         1.79617
LJ           1.48237        -1.26623         1.80011
LJ           1.38371        -1.02933        -2.26241
LJ          -1.12559        -1.54607        -1.36745
LJ           2.25333        -2.49045        -2.52915
LJ          -1.84969        0.644275        0.439928
LJ          -1.16126         1.82203       -0.496628
LJ          0.608334         1.04348        -1.06006
LJ           2.09622        -2.32968         1.47127
LJ          -2.21441         1.47769         1.35217
LJ           2.39671         2.38697        -2.28339
LJ          -2.15698         2.07497        -1.88019
LJ           1.37541        -1.48841         1.10334
LJ              -nan            -nan            -nan
LJ           1.71978        0.251518         1.06404
LJ           -1.2973         1.18094         1.55152
LJ         -0.307344       -0.577853        -1.90489
LJ           2.05675        -1.58477       -0.665704
LJ           1.47484       0.0819654        -1.56184
LJ          -1.92565       -0.942321        -1.90423
LJ          -1.24081        -1.98964       -0.924484
LJ              -nan            -nan            -nan
LJ           1.96119        0.245843        -1.95605
LJ          -1.63909         1.81506         2.42904
LJ          0.245172         1.20657         2.38435
LJ        -0.0493935        -1.33944       -0.640575
LJ          -1.48243       -0.707011        -1.83315
LJ              -nan            -nan            -nan
LJ        -0.0140411         1.85347         -2.3181
LJ         -0.692528       -0.435877        0.843195
LJ              -nan            -nan            -nan
