108
#Comment!
LJ          -1.84694          1.1499       -0.347473
LJ           2.04765        -1.67555         1.46186
LJ         -0.308886       0.0116772         2.13862
LJ          0.236847        0.319999         2.44133
LJ         -0.708184         1.90632         2.52004
LJ         -0.811818        0.833148        0.695794
LJ          -2.45491        0.952449        -2.29549
LJ          0.881096        -1.71944       0.0987802
LJ          -2.32515      -0.0954584       -0.495026
LJ            1.4452         1.58366       -0.676391
LJ              -nan            -nan            -nan
LJ          -2.49999        -2.21943         2.35157
LJ           1.03029        -1.31543        0.917271
LJ          -1.55428      -0.0417296        0.825622
LJ           1.73978         1.23856          1.4337
LJ              -nan            -nan            -nan
LJ              -nan            -nan            -nan
LJ              -nan            -nan            -nan
LJ          -2.54413        -2.03517      -0.0174264
LJ              -nan            -nan            -nan
LJ           2.38667        -2.45229          2.2484
LJ           1.31206        -1.27256        0.587806
LJ           2.19024         1.14476         2.44092
LJ         0.0280562        -1.39961         1.29894
LJ           1.50398        -1.19265       -0.909006
LJ          -1.14783        -2.43352       -0.519324
LJ           1.20691        -2.49759         1.56427
LJ          -1.42583        -2.39418         2.24148
LJ              1.55        -1.80499       -0.606708
LJ          -2.53377       -0.435539       -0.386373
LJ         -0.792655       -0.747677       -0.710892
LJ         0.0354947         2.47819        -1.81593
LJ              -nan            -nan            -nan
LJ          0.839523       -0.587369         1.87767
LJ              -nan            -nan            -nan
LJ          0.706985        -1.08585        0.195771
LJ           2.50695        0.456131        0.486853
LJ           2.31237       -0.522255         1.22595
LJ          -1.97003         2.34748         2.50581
LJ          -2.20864       0.0250976         2.39389
LJ            2.0902       -0.517694        0.834879
LJ          -1.95987       -0.365464        -1.31296
LJ          0.335825        -2.30304         -1.8977
LJ          -2.14958        0.495088         1.59787
LJ           1.46411       -0.291227         -2.1178
LJ           1.56777       -0.752001       -0.557838
LJ            0.1696        0.594757        -1.78925
LJ          0.375471         -1.3075        -1.06333
LJ           1.56902       -0.368811       -0.138636
LJ           2.46823       -0.331615       -0.993925
LJ            1.7651        0.824467        -1.67144
LJ          -2.56402        0.533904          1.5423
LJ              -nan            -nan            -nan
LJ           1.40451        -2.52179       -0.227851
LJ          0.389201       -0.943799       -0.708507
LJ          0.719234         1.46764         1.87744
LJ          0.232926        0.710846        -2.35492
LJ           1.75292         2.38552        -1.13461
LJ          0.854858         -2.2049        -2.55459
LJ           1.39851        -2.05678         1.84752
LJ         -0.133049         1.85093         2.05353
LJ           1.89587         2.46344        -0.88956
LJ         -0.288792         1.16559        0.491638
LJ          -1.56549       -0.230649         1.15314
LJ           1.44485        -2.17311        -2.27518
LJ          0.589761        -2.05437         1.28034
LJ          -1.17266         2.05721        -1.48718
LJ              -nan            -nan            -nan
LJ          0.520277         2.40271        -1.23967
LJ           0.43988       -0.981961         1.17371
LJ          -1.11893         -1.0688         1.39871
LJ           2.32586       -0.563151       -0.395583
LJ           1.47208        -2.41109         2.23881
LJ         -0.389097         1.07943       -0.341271
LJ          0.324342        -2.04077         2.45089
LJ         -0.311095        -1.00297         2.49621
LJ           2.21417       -0.534398       0.0510335
LJ          -2.49652         1.23764         1.24031
LJ          0.316378        -1.22603         2.19373
LJ           1.67594       -0.881243         -1.8659
LJ          0.669208         1.48812         1.34469
LJ          0.837163        0.354864        0.738568
LJ          0.512764       -0.668986        -0.36792
LJ           1.12368        0.664084        -0.61507
LJ          0.799776        0.598217        -2.51236
LJ         -0.567074         0.31124        -1.17217
LJ         -0.376987        -1.00606         1.90248
LJ          -1.36785        -2.08834         1.42635
LJ           1.92106         1.57534         2.00982
LJ          -1.37577        0.353484        -1.23314
LJ              -nan            -nan            -nan
LJ          -1.26177        -2.29249         1.22546
LJ         -0.526127          1.6448        -1.99508
LJ         -0.536227        -1.74014        -1.28364
LJ          -1.65075        -1.93925        -0.18992
LJ            2.4686        -1.17045        -2.20528
LJ           2.42709        -2.01505         2.15976
LJ          0.570025       -0.961743      -0.0206579
LJ              -nan            -nan            -nan
LJ          0.460651         1.77208       -0.795832
LJ            1.0204        0.191412        -1.79237
LJ           1.88325        -1.03515       -0.958211
LJ          0.685981       -0.469553        -1.85535
LJ           0.67917       -0.789441        0.627611
LJ           2.45227         2.32967        -1.42283
LJ           1.19227        -1.55537         2.06303
LJ           1.20593       -0.657692        0.162098
LJ              -nan            -nan            -nan
