108
#Comment!
LJ           -1.7091        -1.60375        0.621823
LJ            1.1957        0.242528        -0.50786
LJ          -1.85358         1.48368        -1.51476
LJ          -2.28211        -1.63149        0.299123
LJ         -0.890046       -0.982238         -0.6723
LJ         -0.754765        0.792894          1.9336
LJ          -1.96174         1.38656         2.53899
LJ           1.40388        0.400132        -1.21776
LJ            1.3957         2.50112       -0.438145
LJ         -0.653028         1.63117       -0.593921
LJ              -nan            -nan            -nan
LJ         -0.643185        -1.71214        0.821757
LJ          -1.40219        -1.09225       -0.648909
LJ              -nan            -nan            -nan
LJ          0.577819         2.30088        -2.05544
LJ              -nan            -nan            -nan
LJ              -nan            -nan            -nan
LJ              -nan            -nan            -nan
LJ          -2.42074        -2.53685       -0.500065
LJ              -nan            -nan            -nan
LJ          -1.64889       -0.160048       0.0477998
LJ          -1.71516         1.11915       -0.577588
LJ          0.965013        -1.32095        -2.33756
LJ              -nan            -nan            -nan
LJ          -1.48682        -1.62284          2.1992
LJ          -0.13619       -0.412302       -0.451353
LJ         -0.423157        -2.14503        0.965044
LJ           1.54012         1.43156         2.24193
LJ            1.0877         2.00438       -0.237452
LJ          0.282401        -2.54545      -0.0787601
LJ              -nan            -nan            -nan
LJ           1.00844          -1.213         1.19463
LJ              -nan            -nan            -nan
LJ          -1.56139         1.70273         1.46622
LJ              -nan            -nan            -nan
LJ            2.4266      -0.0300997        0.711702
LJ          -1.89382       -0.228065        0.731169
LJ           1.51599         1.23457        0.566719
LJ           1.66446        0.823833         2.21578
LJ           -1.6366        -1.42186         2.11023
LJ         -0.488855       -0.434558        0.329653
LJ          0.993164        0.926841        -2.24291
LJ          0.585221        -1.28251      -0.0771748
LJ         -0.556587         2.56396         1.62295
LJ          -2.04571        -1.24252        0.306921
LJ           2.53563        -0.57496         2.08812
LJ           1.72121         2.21373       -0.369827
LJ          0.338333        -2.53073        0.841299
LJ          -1.66065         1.50307        -2.42381
LJ           1.00239        -1.43175         1.38707
LJ           1.88221         1.10075         2.42235
LJ          0.295933        -1.85051         1.39463
LJ              -nan            -nan            -nan
LJ         0.0900606        -2.09218        -2.51635
LJ         -0.770784         2.01873        -1.59146
LJ           1.05931         2.03608         -2.0461
LJ          -2.16843        -2.52075       -0.443086
LJ          -2.04026        -2.05553       -0.704062
LJ          -1.66027         2.14222        -1.57979
LJ         -0.734607         1.95191         1.86672
LJ           -2.0615        -1.69111        -1.62372
LJ           1.13597         1.47612         1.28391
LJ          0.515346         2.22186         1.99464
LJ              -nan            -nan            -nan
LJ              -nan            -nan            -nan
LJ          -1.12776        -2.12679         1.03328
LJ         -0.387323        -1.42972         1.95973
LJ              -nan            -nan            -nan
LJ           1.87233        0.641521        0.736713
LJ          -1.76967        0.287861       -0.736109
LJ          0.601384        -1.52377       -0.814931
LJ          -1.28361        -1.55022         1.64295
LJ           1.55917        -1.58005         1.63358
LJ          -0.65883         2.12178        -2.44083
LJ         -0.681391         2.32444        -1.24673
LJ           1.85267         1.50769        -1.51247
LJ           2.55379         1.57741      -0.0882162
LJ         -0.790777         1.43452         -1.6225
LJ           1.79856       -0.671611         1.91482
LJ         -0.257211       -0.731555      -0.0181431
LJ           2.40687         1.06803        0.958889
LJ          -1.14255        -1.70557          1.9198
LJ          0.919794       -0.897762         1.69053
LJ          0.851224        -2.02229         -1.2605
LJ          0.482381       -0.654072         1.07935
LJ           2.05371          -1.972        0.367763
LJ          -1.68823        -1.93473       -0.544652
LJ          -1.31385         1.84085       -0.964961
LJ          0.697941       -0.572504         1.11034
LJ           1.23942        -2.38717         1.04166
LJ              -nan            -nan            -nan
LJ          0.681579        -2.15001         -1.0493
LJ            1.3035        0.401339        -1.94314
LJ         -0.385085        -1.89995         -2.0499
LJ          -1.66128         1.01044         1.79719
LJ          0.889043         2.05422         2.10971
LJ          -2.50561        0.165309       -0.631021
LJ           1.94891       -0.829632        0.536269
LJ              -nan            -nan            -nan
LJ             1.472       -0.389407         2.10656
LJ          -1.22979        -2.30582        0.420038
LJ         -0.881548        -1.41117        -1.02341
LJ           -2.2935         2.19061        0.889986
LJ          0.284078       -0.748721         1.26875
LJ              -nan            -nan            -nan
LJ         -0.253499       -0.583886         2.32411
LJ          -1.85502         2.25149         -1.7391
LJ              -nan            -nan            -nan
