108
#Comment!
LJ            1.2622       -0.120756        -2.24042
LJ          0.489477         1.01951        -1.59564
LJ          0.588858        -1.69994        -1.86018
LJ          0.337804         2.03155         2.13428
LJ         -0.975305        -2.55248         1.53774
LJ          -1.76007       -0.685498       -0.836467
LJ          -2.34011        -1.69341       -0.431872
LJ          0.962128        -0.59031        0.578111
LJ         -0.214237        -2.49084         2.40641
LJ           2.35636        0.412551       0.0482739
LJ              -nan            -nan            -nan
LJ         -0.368359      -0.0133679         1.93149
LJ       -0.00779952         1.60166        -1.09566
LJ           -2.0994         1.61709       -0.453812
LJ          -1.53833        0.116409         2.00785
LJ           2.09782       0.0424859          1.6696
LJ              -nan            -nan            -nan
LJ              -nan            -nan            -nan
LJ          -2.36029         1.48052         1.82422
LJ              -nan            -nan            -nan
LJ           2.50647        0.251236        -1.71612
LJ         -0.845061        0.286347        -1.68968
LJ         -0.161203        0.146401        0.813546
LJ           1.92972         1.08595        -1.50295
LJ           1.51855         2.23112        0.979153
LJ          -2.53105         1.57879        0.954267
LJ           0.33762        -2.14534       -0.953379
LJ          0.765528        -0.89571        0.963406
LJ            1.0149         1.49776         2.40918
LJ           1.87886       -0.985908        0.541895
LJ         -0.871055       -0.711704        -2.10127
LJ          0.113213         1.10604       -0.691844
LJ              -nan            -nan            -nan
LJ           1.57238         1.29009         1.32526
LJ              -nan            -nan            -nan
LJ         -0.263784         2.05982         2.43651
LJ          0.843274         1.89143        -1.07367
LJ           2.15848       -0.615817         1.60079
LJ          -2.18755         2.31843       -0.663839
LJ         -0.644173        -1.52276         -1.0422
LJ           1.45038         1.28469         1.14113
LJ          -1.70862         -2.1861       -0.552182
LJ         0.0139069         1.26693        -1.51599
LJ         -0.479142         1.35765          -1.124
LJ         -0.642397         1.71428        -2.34998
LJ           2.48834         -1.6392         1.89905
LJ          -1.54051         2.19226        0.481893
LJ          -2.45319        -1.27263        -1.96223
LJ           2.30422         -2.5479        0.438212
LJ           1.78115         0.72472         2.55454
LJ          -2.37084        -2.05396        -2.37158
LJ           2.55023       -0.572885        0.153395
LJ              -nan            -nan            -nan
LJ           2.20095       0.0716966        -1.69352
LJ          -2.00059       -0.345364        -0.24227
LJ          0.510156        -1.59092         1.51636
LJ          0.958979        -2.30138        -1.16929
LJ          -2.30601        -2.00725         1.55455
LJ          0.978229        -1.03314        -1.84543
LJ           1.86021        -2.13876         1.11334
LJ         -0.310001        -1.56818        0.355665
LJ          0.422654       -0.844489         2.23304
LJ           2.18159         2.29475        0.563325
LJ          0.736656         2.43718       -0.446451
LJ          -2.36712         2.21047         -1.4507
LJ           1.60425        -1.97583        -1.90882
LJ           0.30693        -2.36314         1.11064
LJ              -nan            -nan            -nan
LJ           1.78283         1.53953        -2.43892
LJ          -2.34826         -1.5203        -1.17957
LJ          -1.84681        -1.34209         2.06856
LJ          0.355042        0.965094        -1.19973
LJ           1.74765        -2.42556        -1.57439
LJ          -1.47281        -1.88242         1.90613
LJ          0.932634        0.461268       -0.180266
LJ          -2.13581        0.795832       -0.842236
LJ         -0.508913         2.33167         2.02412
LJ       -0.00346868        0.316436        -1.64062
LJ       -0.00834592       -0.939757        -2.36606
LJ           -2.3568        -2.06623        -2.25842
LJ           1.09269         1.45476        -1.11689
LJ          0.301338        -1.82649         2.55337
LJ        -0.0704517        -0.10894         1.90336
LJ          -1.47328        -1.65936         2.52252
LJ          -2.45679        -2.47354         1.85065
LJ          -1.50927        -1.60253         1.83001
LJ          -1.84536        -1.85201          2.1334
LJ          -1.38809         2.40349       -0.792704
LJ          -0.33385        -1.31844       -0.443919
LJ         -0.814187         1.55152         1.56587
LJ              -nan            -nan            -nan
LJ            1.9637        -2.11754         1.24443
LJ           1.99295       -0.224213        0.576621
LJ          -2.29643         0.40429        -1.93822
LJ          -0.05844        -2.50031         1.15507
LJ          -1.54067        0.801171       -0.759505
LJ        -0.0786076        0.714548        -2.21968
LJ          0.317441        -1.54523        0.536651
LJ             2.172         1.28027         2.23903
LJ         -0.719267         -2.5385       -0.558533
LJ           1.80635        0.682707        -1.82926
LJ          0.879981         1.22644         1.08349
LJ           1.74869          2.1956          1.6807
LJ          0.699065         -1.7842         1.87016
LJ           0.34562        -1.65298         1.05937
LJ           1.19531         1.67113        0.538888
LJ           2.35424        -1.64599        0.315292
LJ              -nan            -nan            -nan
