108
#Comment!
LJ          -2.01666         1.82746       -0.472496
LJ          -2.55914         1.84801        0.926279
LJ          0.916865        -0.87252          -1.774
LJ           2.46594        -1.56029        -2.45516
LJ          0.971609          1.4737        0.298115
LJ          0.486834        0.730485       -0.703404
LJ        0.00836327         1.80813          2.2894
LJ            1.0675        -2.03092       -0.164054
LJ          -0.92558       -0.408458        -0.79557
LJ          -1.89513         2.56182       -0.616062
LJ              -nan            -nan            -nan
LJ          -1.80063         2.31191        0.637378
LJ           1.89594         1.39445        -1.61632
LJ          -2.10821         2.46098        -0.38283
LJ          -2.53756         1.10754        -1.36109
LJ          0.761672        -1.32951         1.47613
LJ              -nan            -nan            -nan
LJ              -nan            -nan            -nan
LJ           1.48888         1.39268         1.38863
LJ              -nan            -nan            -nan
LJ         0.0909837         2.35997         1.18776
LJ         -0.674605        0.971671         1.80894
LJ         0.0870569        -0.73472        0.308448
LJ          0.110957        -1.51172         0.83752
LJ          -1.68311      -0.0651338         2.00233
LJ         -0.466335        -1.99207        0.837408
LJ         -0.138398        -1.02914        -1.45908
LJ          0.978898        -2.23923         2.42774
LJ           2.07569       -0.336196         1.68096
LJ          0.415797         1.97254          1.3977
LJ         -0.519114        -1.29001        -2.00148
LJ         -0.778631        -1.09451         1.79726
LJ              -nan            -nan            -nan
LJ          -1.04731         2.03228        -1.72326
LJ              -nan            -nan            -nan
LJ          0.734158         1.67404        -1.89951
LJ           1.43923        -1.73356       -0.765558
LJ         -0.187063         0.47267        -1.15055
LJ           1.31244        -1.12409         1.14378
LJ           2.35844         2.22622        0.694456
LJ          -1.20225        0.893078        -1.30669
LJ          -2.01878        -2.23075        -1.83697
LJ          -1.59087        -1.18775       -0.956214
LJ           2.23567       -0.225717         1.85256
LJ           -1.7864        -1.91725        -2.42854
LJ          -2.10103         1.63559         1.02377
LJ         -0.750921       -0.503115         1.04297
LJ          -1.39312        -2.06977       -0.529653
LJ          0.570697        -1.46454       0.0536097
LJ         -0.468588         -2.5005        -1.47895
LJ          -1.70549        0.938957        -1.22698
LJ         -0.482658       -0.440535       -0.446595
LJ              -nan            -nan            -nan
LJ          -1.97508         1.10733       -0.759853
LJ          -1.22641       -0.370138         1.40773
LJ           2.12317         2.37774       -0.398157
LJ          0.864327         1.64153         2.41227
LJ           1.50703       0.0780859       -0.338013
LJ         -0.750317         2.29038        -1.58797
LJ          -2.21035       -0.515822        0.689601
LJ          -1.32365       0.0719676         2.03779
LJ          -0.48251          1.6638       -0.485964
LJ         -0.254686        -2.05117        -1.52163
LJ           1.09252       -0.787836       -0.629691
LJ           1.38056        -1.94973       -0.851853
LJ          -1.79287        -2.29077         2.24594
LJ          -2.56481         1.38699         2.08529
LJ              -nan            -nan            -nan
LJ          -2.35739        -2.56206        0.923535
LJ           2.32216         -0.2812         2.33495
LJ          -2.41923        0.331425        0.963526
LJ         -0.243634       -0.749311         2.31383
LJ          -2.24607         1.77063         1.42486
LJ            2.2999       -0.976984        -1.18558
LJ         -0.185986        -1.79474         -1.9511
LJ          -2.02491        -2.19766         2.24432
LJ           0.23232       -0.913544         2.55139
LJ          -1.80887        -1.66908         0.98291
LJ         -0.530082         1.10564        0.612506
LJ          -2.29857        0.039968       -0.669031
LJ          -2.00449        0.579919        -1.06852
LJ         -0.510155        -1.67876       -0.612823
LJ           1.44072         1.56991      -0.0137466
LJ         0.0437074        -2.37934          1.8333
LJ          0.173669        0.601174         -1.6175
LJ           2.30644         2.13209        0.548656
LJ        -0.0129711         2.41069         1.75339
LJ          -1.65576        -2.20604         1.55498
LJ         -0.134641         1.43346         2.30356
LJ          0.568643         2.32557        -1.83699
LJ              -nan            -nan            -nan
LJ          -1.99609        -2.48394        -1.09582
LJ         -0.424241          2.1409        0.494176
LJ          0.896781         1.18481        -1.26173
LJ          -1.57183        -2.42896        -2.16864
LJ          0.506544        -1.79839       -0.383365
LJ         -0.243161       -0.908679         0.27228
LJ          0.199977         2.41238        0.419465
LJ         -0.947311      -0.0676212       -0.516476
LJ           -1.2477          1.8184        -1.94851
LJ           2.18183       -0.717283         2.02739
LJ            1.6424        0.669756        -1.75919
LJ           1.47966        0.995457       -0.436902
LJ         0.0870963       -0.627956        -1.97644
LJ          -2.31216        -2.23554       -0.477765
LJ          -1.35432       -0.860126        0.775809
LJ           1.98823        -1.83896         2.14908
LJ              -nan            -nan            -nan
