108
#Comment!
LJ          -1.70857       0.0413206        0.393409
LJ        -0.0458637         2.16511          2.0246
LJ         -0.697384        -1.31266        -1.28878
LJ           2.42502         1.51531        -2.22563
LJ         -0.966351         1.72861         1.20108
LJ           1.75685        -1.49922         1.34148
LJ          -2.41554        -1.44675        -1.44107
LJ         -0.340119         1.06426         2.47072
LJ          -1.71436        -1.43632        -2.35189
LJ          -2.05813        0.520433         2.55043
LJ              -nan            -nan            -nan
LJ           1.68864        0.816766        -1.25939
LJ           1.25104        -1.83486       -0.774222
LJ              -nan            -nan            -nan
LJ          0.768647        0.920536        -1.13405
LJ              -nan            -nan            -nan
LJ              -nan            -nan            -nan
LJ              -nan            -nan            -nan
LJ           1.73341         2.25714         1.91126
LJ              -nan            -nan            -nan
LJ          -1.39521        -2.45978        -2.39884
LJ           1.22348        -2.19862        -1.57882
LJ           -1.9142       -0.212059         0.93531
LJ              -nan            -nan            -nan
LJ           1.48471         2.05625        -2.17307
LJ          -1.65056        -1.32422       -0.832677
LJ           1.85448       -0.580195         2.13114
LJ          0.913573        -2.18193         1.62555
LJ          0.473838        0.792871        0.596991
LJ           2.07258        -1.07031          2.1465
LJ              -nan            -nan            -nan
LJ           1.95821       -0.324804        0.205617
LJ              -nan            -nan            -nan
LJ          0.919874         -1.4986         -1.3592
LJ              -nan            -nan            -nan
LJ           2.51096        0.800484       -0.163799
LJ           1.52622       -0.101128        0.750293
LJ           1.95701         1.60266          2.5027
LJ         -0.265087        -0.32282        0.304963
LJ           1.67785         2.07807       -0.559045
LJ           2.32948        0.538768         1.01837
LJ           1.31987         -1.8425        0.603685
LJ          -2.18609       -0.647792        -1.72733
LJ           1.63554         2.32454        0.537364
LJ          0.405266        -1.52867         1.76502
LJ          0.150865       -0.903852        -1.94153
LJ           2.02169         0.95394          1.5449
LJ          -1.89579         0.78689         2.02037
LJ          -1.87985        0.170579        0.935205
LJ           1.70373        0.989002        -1.63411
LJ          0.980845         1.22023       -0.945261
LJ           -2.0938        -0.24203        0.869959
LJ              -nan            -nan            -nan
LJ          -2.23804        -0.67794         1.27472
LJ          -1.15063        -2.25975         2.36104
LJ          -2.49881       -0.208292       -0.556779
LJ           1.26539        -2.23722         0.50184
LJ           2.53301        -1.59981        -0.38021
LJ           1.40795         2.42573        -2.49169
LJ         -0.787762       0.0108497         0.47056
LJ          -2.01438        -2.48866       -0.764798
LJ          -1.52259       -0.510275         1.40994
LJ          -2.50849         0.27646         1.54314
LJ              -nan            -nan            -nan
LJ              -nan            -nan            -nan
LJ          -2.53082        -1.69526        0.900429
LJ           1.75926         -1.4431         2.28087
LJ              -nan            -nan            -nan
LJ           2.08722        -1.27806        -1.61172
LJ            1.3261       -0.626007         1.08163
LJ           1.49792       -0.328727         1.30929
LJ            1.7548          0.6173         1.83584
LJ           2.15481        -1.45801        -2.08866
LJ         -0.879749      -0.0270432         2.39751
LJ         -0.766801        -0.31041       -0.821764
LJ         0.0489263        -1.90181        -1.05863
LJ           1.23704        0.950314        0.667268
LJ           1.68066       0.0107715         1.90226
LJ          -1.37961       -0.268842       -0.545385
LJ          -1.82419       -0.367915        -1.64528
LJ          -0.54134        -1.74138         1.50446
LJ          -1.68167        0.425705        -1.88309
LJ           1.27913        0.376533        -1.99178
LJ          0.133551       -0.955394        0.496056
LJ          0.784908        0.304562       -0.862928
LJ          -2.41101       -0.379412       -0.966046
LJ           0.35326         2.55175        0.528734
LJ           -2.1932        -1.63661        0.112902
LJ          -1.89503        0.772895        -1.86297
LJ          -2.33838        -2.19762         2.45195
LJ              -nan            -nan            -nan
LJ          -1.99389        -1.08918         1.41047
LJ          0.516603        -1.60092        -2.34282
LJ         -0.790965        -1.35562      -0.0278523
LJ          -1.19615        0.410409        -2.09483
LJ          -2.26755         -2.5242         -1.0147
LJ          0.102908        -2.03559       -0.715911
LJ          -1.16776       -0.557787        -1.30791
LJ              -nan            -nan            -nan
LJ         -0.456452        -1.99431        -1.49728
LJ          0.768162         1.96075       -0.729761
LJ           -1.1324         2.09554        -2.09648
LJ          0.908467         2.12196        -2.00902
LJ           1.40071          2.0506       -0.562845
LJ              -nan            -nan            -nan
LJ           2.16247        -2.40952       -0.732065
LJ           1.73893         2.20236        -1.91296
LJ              -nan            -nan            -nan
