108
#Comment!
LJ           1.75436        -2.00725       0.0204791
LJ           1.80272         1.84391         1.05047
LJ          -1.18315         1.32959         2.10201
LJ          -1.19678        -1.70703       -0.165295
LJ          -2.50611        -2.55166         1.87449
LJ           1.79651        -1.96391        0.447511
LJ          -1.46246         1.40104        -1.75482
LJ            1.8452         2.52253         1.68874
LJ          0.854439         2.02144         1.96287
LJ          -1.08932       -0.392619         2.09859
LJ              -nan            -nan            -nan
LJ          -1.14682        -2.51375        -2.45083
LJ           1.48244       -0.423041        0.467826
LJ          0.119734        0.711689         2.20164
LJ          -2.46669        -1.17837         1.74764
LJ          0.487583       -0.416717       -0.377265
LJ              -nan            -nan            -nan
LJ              -nan            -nan            -nan
LJ           2.02476         1.20012         1.88822
LJ              -nan            -nan            -nan
LJ          -1.04765       -0.749957        0.294552
LJ          0.452643         2.24271          1.1766
LJ         -0.724161         1.02989        -1.43458
LJ           2.02528       -0.173314        -1.69735
LJ         0.0256184         1.14867        -1.73279
LJ          -1.85021        -2.50204        -1.32817
LJ           2.06781         1.22412        -2.55214
LJ           1.51793        -1.62001         1.10286
LJ            1.3509         1.83437         0.79015
LJ           1.00979         2.07632        -2.55787
LJ           2.26827        -1.82545         1.88747
LJ        -0.0568189        0.974249         1.63921
LJ              -nan            -nan            -nan
LJ          0.130785        -2.33464         -2.1918
LJ              -nan            -nan            -nan
LJ         -0.734765         1.85978        -2.14249
LJ          -1.64652        -1.18167       -0.592418
LJ          -2.21774        0.616274        -1.78958
LJ           1.86875        0.254592        0.304222
LJ           1.93868         1.95427         -2.2631
LJ          -1.14684        -2.25259         1.51504
LJ           1.99165        -1.16262        0.600097
LJ         -0.149765         2.39277       -0.328678
LJ          -1.31684        0.324759       -0.813895
LJ          -2.29359          1.5486         1.70603
LJ          -2.29704         1.69927         1.28834
LJ         -0.958458        -2.30688        -1.01297
LJ          0.823544       -0.508324         0.97836
LJ            1.3354       -0.895324        -0.67501
LJ          0.836369        0.935306          0.9673
LJ          0.702956        -1.82866         1.93398
LJ           -2.2227         1.94527        -1.78681
LJ              -nan            -nan            -nan
LJ            1.8238         1.07561        -1.74598
LJ        -0.0900797         1.66575         1.37505
LJ          -0.57475        -1.28168       -0.267094
LJ         -0.880655        -2.26008           1.688
LJ           -1.9501        -1.75083          1.0836
LJ          -2.25418       -0.356572         -2.2858
LJ          0.175238       -0.423578        -2.50226
LJ           2.35227       -0.580994          -1.561
LJ        -0.0145678       -0.249749        -1.70925
LJ          -1.86041        -1.47526         2.34338
LJ           1.70789         1.39217        -2.08306
LJ         -0.499514        -1.75812      -0.0262994
LJ           1.80482       -0.940927        -1.09902
LJ          -1.36672        -2.13527         2.54383
LJ              -nan            -nan            -nan
LJ         -0.689302         1.41871        0.749986
LJ           1.47612        -2.34605        0.018815
LJ          -2.52953        -2.55694         1.90196
LJ         0.0341848        -1.39254       -0.423566
LJ          -1.50931        -1.62377       -0.200791
LJ         -0.837106         -1.8044         -1.5939
LJ          0.468412       -0.984779         1.98686
LJ         -0.709103        -1.86778       -0.467041
LJ          -2.23467        0.994726        0.749744
LJ         -0.779689         1.85885         1.06384
LJ          -2.07253         2.25542         2.26358
LJ         -0.554428        0.525628         2.24316
LJ           1.18327        0.904253         1.01554
LJ           1.79281         1.78946        0.114176
LJ          0.230078         2.24469         2.16241
LJ          0.725839        -1.21105       -0.585418
LJ         -0.866637       -0.763438        -2.40071
LJ          -1.01093         0.56524         1.66724
LJ          0.743872        0.690089       -0.951835
LJ        -0.0766865        -0.49441       -0.266852
LJ          0.926798         2.01954         1.83242
LJ           0.81495         -1.2211       -0.283592
LJ              -nan            -nan            -nan
LJ           1.23859         1.95398        0.335903
LJ          0.778368       -0.819853        0.450325
LJ           1.84263        0.125238        -1.03414
LJ          -2.29819       -0.952012         1.34477
LJ          -0.68921         1.57659        -2.33746
LJ          0.058004         1.15922         2.10914
LJ           -2.0924         1.45097        -0.99933
LJ         -0.182507        -2.33544         1.70941
LJ           1.96363         1.13721        0.755586
LJ          0.680644          1.0049          0.8035
LJ          -2.06285         -1.7742          1.5298
LJ         -0.547424      -0.0725226       -0.254474
LJ          -2.15085        -1.95732        -2.35575
LJ          0.267189       -0.411913        0.293256
LJ           2.31221         1.46304       -0.643621
LJ           1.53208       -0.131199        -1.47356
LJ              -nan            -nan            -nan
