108
#Comment!
LJ           -2.4314       -0.253228        -1.52581
LJ         -0.263314        0.771502         2.04627
LJ          -1.28668       -0.496489       -0.719973
LJ          0.231901         2.06224        -1.00427
LJ        -0.0969674       -0.827015       -0.867903
LJ          -1.42147        0.744257       -0.968732
LJ          0.623299        -2.16122         1.75006
LJ          -1.62429        -1.28095       -0.624951
LJ          -1.97049        -1.51549        -2.36721
LJ          0.824223        -1.11963        -2.04513
LJ              -nan            -nan            -nan
LJ          -1.39154         2.45059        0.732016
LJ         -0.696947       -0.579595         2.28888
LJ              -nan            -nan            -nan
LJ          -2.49533        -1.67668        -1.67054
LJ              -nan            -nan            -nan
LJ              -nan            -nan            -nan
LJ              -nan            -nan            -nan
LJ           2.47833        -1.34493        -0.77336
LJ              -nan            -nan            -nan
LJ           2.23811       0.0570251        -2.55852
LJ          -1.67712         2.42425         1.64962
LJ         -0.062164        -1.60796         1.62168
LJ              -nan            -nan            -nan
LJ           2.08286         -1.4739         1.88859
LJ          -2.46548        0.197021        -1.06269
LJ           1.71587        0.929229        -2.22037
LJ           1.95984        -2.43583          1.9839
LJ           -1.7691        0.376255         2.34079
LJ          0.582179        0.665767        0.194954
LJ              -nan            -nan            -nan
LJ          0.506327       0.0881614        -2.33288
LJ              -nan            -nan            -nan
LJ         -0.327931         1.95002        -2.51741
LJ              -nan            -nan            -nan
LJ          -0.08822         1.86908        -2.40908
LJ          0.421549         1.23692       0.0246725
LJ         -0.286525       -0.932519         2.21986
LJ          -2.30059        0.594658         2.41036
LJ          -0.41362        -1.46913        -1.55687
LJ         -0.289518         1.03048        -0.57153
LJ          -1.99907       -0.086723          1.0948
LJ          -1.89243         2.03895         2.07415
LJ         -0.964947         1.09638       -0.411388
LJ         -0.602696       -0.195922        -2.07795
LJ          0.933959        0.829375       -0.178709
LJ          0.318584        0.188139        -1.90737
LJ          -2.03549        0.598284      -0.0443499
LJ          -1.88726       0.0386657        -2.26481
LJ          0.904873        0.325803         1.25189
LJ           0.58964       -0.195863        -0.83966
LJ          -1.40204        0.893172       -0.523279
LJ              -nan            -nan            -nan
LJ          -2.08091        0.138021        -1.18599
LJ           -1.3479         2.09502        0.287108
LJ          -1.79234        0.305695       -0.462999
LJ          -1.09871         2.19698       0.0544626
LJ         -0.352798        0.560765          2.0076
LJ          -1.83555       -0.202912        0.931565
LJ         -0.948667         2.41823        -1.04578
LJ         -0.979206         1.80806         2.16394
LJ          -0.44327        -2.35649        0.921315
LJ           1.60156       -0.376626         2.12463
LJ              -nan            -nan            -nan
LJ              -nan            -nan            -nan
LJ         -0.355545        -1.98937        0.898266
LJ          -1.30885        0.463562         1.92384
LJ              -nan            -nan            -nan
LJ          0.529341         1.64882         2.27537
LJ          -1.35531       -0.385554        -2.27813
LJ             1.961         1.37917         2.42387
LJ          -1.70534        -1.34646        -1.86647
LJ          0.199952        0.351447          -2.484
LJ          -1.60865       -0.299745       -0.482008
LJ          0.492773        -2.49666        0.165277
LJ         -0.597977        -1.01529         2.19748
LJ           2.30776        0.655924        -1.89891
LJ            1.6272         2.08389         2.54018
LJ          -1.55571        0.384708         1.39138
LJ         0.0229974         1.56514         1.38047
LJ          0.890758           1.337         1.00419
LJ         -0.589243        0.198291        -1.79578
LJ          -2.41435         1.44071       -0.476706
LJ          -1.00924      -0.0197546         2.40044
LJ         -0.468992         1.24392        0.786011
LJ          -2.01733       0.0243375         1.64525
LJ          -2.51131        0.744316       -0.653232
LJ           1.84631        -1.89274        -1.42618
LJ          -2.50303        -1.30905         2.11495
LJ          -1.66431        0.192121        -0.42408
LJ              -nan            -nan            -nan
LJ          -1.06968        0.451344         0.35357
LJ           2.22736        0.974508       -0.295594
LJ           -1.4389       -0.928708      -0.0462497
LJ         -0.953297         2.03409        -1.25517
LJ          -2.18283        0.532325        -2.13929
LJ         -0.452588        -1.99424        -1.10027
LJ           1.97515       -0.731884          1.0533
LJ              -nan            -nan            -nan
LJ           2.06621       -0.915308        0.176407
LJ          -1.74538        0.508715        -2.55649
LJ           1.48608       -0.419023       -0.910057
LJ            1.9301        0.644014        0.993971
LJ           1.41953        0.686865         1.85465
LJ              -nan            -nan            -nan
LJ           1.94275      0.00370464         -1.4049
LJ           2.01158         2.04895         1.82537
LJ              -nan            -nan            -nan
