108
#Comment!
LJ          -2.01925        -2.25014      -0.0766872
LJ          -1.96378        -1.47569        0.254775
LJ         -0.931547        -0.54695         1.30271
LJ           1.27791         1.35547        0.927728
LJ           2.27251       -0.139886        -2.06993
LJ            2.2239        0.263316         2.31146
LJ         0.0754399       -0.920738        0.556777
LJ          -2.08153         1.42226       -0.523648
LJ          -1.07269         1.17419         2.26846
LJ            2.3844         1.83322        -1.14927
LJ              -nan            -nan            -nan
LJ          -2.09032        -2.31889        -1.87528
LJ          0.417867        0.113817       -0.540557
LJ            1.5087         -0.9571         1.77109
LJ         -0.574397       -0.129319         1.59202
LJ              -nan            -nan            -nan
LJ              -nan            -nan            -nan
LJ              -nan            -nan            -nan
LJ          -1.62002        -2.25054         -1.6608
LJ              -nan            -nan            -nan
LJ          -1.24107       -0.646593       -0.292234
LJ          -1.90106        -1.70899        -1.98674
LJ           1.33047        0.114227         2.39799
LJ           1.27607        -1.64032       -0.230303
LJ          0.946623         -1.6581        0.709641
LJ         -0.117688       -0.661897        -2.15802
LJ          0.870996        0.229838        -0.86464
LJ          -1.51285        -2.14578       -0.882729
LJ         -0.688116       -0.111957       -0.195845
LJ           2.31085         1.21886      -0.0721926
LJ          -1.26314         2.11789        0.481622
LJ          0.468024        -0.77034         2.02366
LJ              -nan            -nan            -nan
LJ          -1.39546        0.468785         2.02145
LJ              -nan            -nan            -nan
LJ           2.00118        -2.17784         2.39096
LJ           1.49712       -0.368147         2.26814
LJ          0.927904       -0.785029         1.98626
LJ          -1.86026        0.369547       -0.695357
LJ          -0.29387         1.00683        -1.32623
LJ          -2.23644       -0.521573         2.56314
LJ          0.606006         1.29487         0.17766
LJ           1.26883        -1.74705        -1.10772
LJ         -0.397122         -2.3572        -2.23121
LJ           1.15948         1.38829        -1.57031
LJ          -2.38661       -0.644118        -2.22714
LJ          0.926278        -1.42301         -2.3427
LJ          -2.02751        -2.14355         1.83814
LJ          -1.84307        -1.46274      -0.0446632
LJ          0.166103          2.3094          2.5259
LJ          0.370672        0.333537         1.34662
LJ            2.0355        -1.06223        0.561323
LJ              -nan            -nan            -nan
LJ          -2.48655       -0.134328        0.140133
LJ           1.49596         2.55092         1.40475
LJ           1.00242        -1.08539        0.708299
LJ         -0.082077         1.52567        -2.02073
LJ          -1.83267       -0.237879        -2.29017
LJ         0.0226357         2.02469        -1.52686
LJ          -1.08511         2.09339      -0.0264146
LJ          0.942785        -1.53908        -1.08856
LJ          0.391416        0.209509         -2.2882
LJ          -2.48186          1.9907        -1.59568
LJ          -1.63642         -1.9527        0.443299
LJ         0.0355209       -0.241178      -0.0295019
LJ            -2.526        -1.51232         2.43491
LJ           1.08863       -0.507455         2.08035
LJ              -nan            -nan            -nan
LJ           1.95859          1.6484        -1.94402
LJ           1.89518        -2.50422        -1.05778
LJ           1.32985       -0.201665          1.0485
LJ           1.11178         1.99435         2.21513
LJ           2.10014       -0.708201        -2.35357
LJ         -0.237747         2.30159         -0.1581
LJ         -0.365822        -1.53482        0.545035
LJ         0.0146157        -1.13485          1.9928
LJ           1.09035         1.48262        0.275077
LJ          0.121724       -0.421144        0.284785
LJ          0.757919         0.58801       -0.534312
LJ         0.0837956       -0.896378         -2.1188
LJ         0.0368814         -1.8382        0.822215
LJ           2.27193        -1.89459        0.490504
LJ           1.07555        -2.46323         2.14595
LJ           1.99734        -2.26266        -1.45743
LJ        0.00132879        0.256063        -1.95074
LJ         -0.947851        -1.45965        -1.76777
LJ          0.219789        -1.33602        0.605889
LJ       -0.00868524          2.5017        0.341667
LJ        -0.0114986         1.34542        -1.24642
LJ         -0.893547        -2.21064        -1.47332
LJ              -nan            -nan            -nan
LJ          -1.37504        -1.53418        -1.38273
LJ           2.47312        0.972716        -1.26833
LJ           2.34072        0.912162         1.47097
LJ           2.44454          1.1058         1.88803
LJ         -0.679381         2.19739        -1.37271
LJ            1.2293       -0.767092        -2.55927
LJ          0.155329         2.35664        0.212531
LJ              -nan            -nan            -nan
LJ          0.532933         1.71884         -1.9002
LJ           -2.5131        -2.11815         2.19581
LJ           1.17098         2.10542        -1.34168
LJ          -2.17351         1.34499        -1.85466
LJ           1.33779        -1.55203         1.72837
LJ           2.52739        -1.42282        -1.38956
LJ          -2.41478         1.58518       -0.379468
LJ           1.54769        -1.74539         2.04857
LJ              -nan            -nan            -nan
