108
#Comment!
LJ           2.55459       -0.370039         1.45202
LJ          -2.52335        0.721047         2.45993
LJ           1.02498       -0.630796       -0.518153
LJ         -0.481764      -0.0186367         2.41891
LJ          -1.96805        -2.04587        0.816922
LJ         0.0461001        0.686295        -1.22673
LJ         -0.126673          1.9069        -1.43099
LJ          -1.64806        0.300015         2.36569
LJ           1.25367       -0.905943          1.3549
LJ          -1.09348        -0.26562         2.15677
LJ              -nan            -nan            -nan
LJ           2.08084        0.907145        0.994054
LJ           2.18107         1.48307         1.73833
LJ         -0.476983        0.199627         1.91475
LJ         -0.899803        -1.67745       -0.279633
LJ           2.05408        0.373456        0.139819
LJ              -nan            -nan            -nan
LJ              -nan            -nan            -nan
LJ          -2.01805         -2.4815         1.21551
LJ              -nan            -nan            -nan
LJ          -2.40232        0.349834        -1.69362
LJ           2.35727        -1.26756       -0.302494
LJ         -0.594061        -2.18422       -0.795748
LJ          0.939209        -1.75039         1.42741
LJ            1.7846         1.37524        0.918369
LJ           1.79984       -0.807237        -1.62113
LJ           1.65952         2.48292       -0.531919
LJ         -0.229173          2.4689        0.648406
LJ           -2.0887         1.03652       -0.971739
LJ         -0.855697        0.370466       -0.393322
LJ           0.38996         1.33881         1.07002
LJ           1.70292      -0.0263376        -1.95804
LJ              -nan            -nan            -nan
LJ          -1.27941        -2.18091        0.695734
LJ              -nan            -nan            -nan
LJ          0.231015      -0.0237263        -2.39643
LJ           1.07883         1.14935        -1.59508
LJ          0.434497        -1.84638        0.631218
LJ           1.64485         1.40758         1.12154
LJ           2.51298       -0.809268         -1.7672
LJ          0.840284        -2.44311        -0.29044
LJ          0.163718        -1.46908        0.370979
LJ           1.98248        -2.00979        0.815358
LJ         -0.442537         1.50023       -0.658035
LJ          -1.69852        -1.49182          2.4417
LJ           1.73664        -2.42848        -1.12512
LJ          0.158928        -1.00801         1.70792
LJ          0.169591        0.474606        -1.26054
LJ           1.14006        -2.46303        -2.33749
LJ           2.47252        0.547558        -1.65118
LJ         -0.761409       -0.208605         1.57628
LJ           2.19247      -0.0527321        -1.28959
LJ              -nan            -nan            -nan
LJ           2.09838       -0.124494       -0.666513
LJ          -1.63797         1.54434       0.0944541
LJ         -0.681913        0.575462        -1.15302
LJ           1.54422         -1.1194         1.75476
LJ          0.490744        -1.53521        0.317267
LJ          -1.97145        -1.19434        0.319916
LJ           2.28864        0.691767        0.857784
LJ           1.06369       -0.423855        -1.67882
LJ         -0.877278         1.79383       -0.264324
LJ           0.82405         1.14231         1.34462
LJ           1.45598         2.02823         2.35526
LJ           2.44708       -0.153685        0.947382
LJ         -0.790311        -1.24588         1.34093
LJ           1.80803        -1.58167        0.779671
LJ              -nan            -nan            -nan
LJ          -1.74808        -2.52753        -1.90804
LJ         -0.850959        0.735987       -0.051761
LJ          -1.76872        -1.66927       -0.167898
LJ        -0.0150506         1.65233        -1.59382
LJ          -1.75168         0.63555       -0.899268
LJ         -0.227568         1.98967        0.904001
LJ          -1.43707         1.48289        -2.22881
LJ         -0.543581         1.35824        -1.18404
LJ           2.35088         1.15592         1.23476
LJ           0.53885        -0.26114         2.35953
LJ          0.899248         1.70857      -0.0605209
LJ          -1.00162        0.100512       -0.895277
LJ           1.78796       -0.708965        0.970111
LJ           -0.3266       -0.531002         1.16415
LJ          0.153885         1.88057        -1.26903
LJ          -2.07922       -0.046852       0.0351134
LJ          -1.57828         1.56225       -0.549234
LJ           1.80936         1.21537        -2.14569
LJ          -0.36745        0.993864       -0.425473
LJ        -0.0128581        -1.69026       -0.624464
LJ         -0.425931         2.39596         1.83651
LJ          -2.22818        0.539269          1.7057
LJ              -nan            -nan            -nan
LJ        -0.0699015        0.790806       0.0154428
LJ          -1.36473       -0.271041        -1.55112
LJ          0.646347         1.88583         1.56021
LJ           1.69877         1.27001         1.77622
LJ          0.180577          0.5008      -0.0144206
LJ           2.14556         1.54325        -1.52645
LJ           1.06511         1.08184         1.57947
LJ         -0.906363         1.00711        -1.11024
LJ           1.99288         1.69706        0.983849
LJ          -2.35519       -0.571636         1.72513
LJ         -0.803371        -1.81427        0.365534
LJ         -0.732828         2.34313         2.13452
LJ         -0.644964        0.859774        0.697041
LJ         0.0926058       -0.495905        0.262503
LJ          -1.82104        0.685707       -0.546549
LJ           1.18653        0.469815         2.52927
LJ              -nan            -nan            -nan
