108
#Comment!
LJ          -2.42916         1.34241      -0.0986889
LJ          0.515747       -0.343988         2.45984
LJ           2.08063        0.990106       0.0753098
LJ           1.54723        -2.20752        -1.61685
LJ           2.37423        -2.34485        0.588312
LJ          -1.20128         1.31584         2.13158
LJ           2.09384        -2.51422         0.89451
LJ          0.108986         1.87133       -0.161676
LJ           2.38032        -1.96289         1.29176
LJ           1.45764         1.44776        -2.13178
LJ              -nan            -nan            -nan
LJ         -0.688546        0.431219        -1.42963
LJ            1.0401       -0.510858         1.72509
LJ              -nan            -nan            -nan
LJ         -0.991195        -2.12493         -1.4008
LJ              -nan            -nan            -nan
LJ              -nan            -nan            -nan
LJ              -nan            -nan            -nan
LJ          0.306726        -1.18358        0.252989
LJ              -nan            -nan            -nan
LJ          -1.46139      -0.0731402          2.0004
LJ         -0.620676       -0.386136         2.46366
LJ           2.20441        0.857155        -1.45307
LJ              -nan            -nan            -nan
LJ         -0.663701         2.09296        -2.00244
LJ        -0.0997873         1.26505         1.49524
LJ          -0.61383       -0.705892          2.2065
LJ         -0.659823         1.41483       -0.693395
LJ           2.04231        -2.43798         1.85291
LJ          0.888088       -0.938432         1.46211
LJ              -nan            -nan            -nan
LJ          0.460242        -1.06266       -0.477242
LJ              -nan            -nan            -nan
LJ          0.783662        -2.45969        -2.41934
LJ              -nan            -nan            -nan
LJ          0.599025        0.616581        0.326384
LJ          0.534362         1.57454        0.741044
LJ         -0.952964         1.97344        -1.35045
LJ          0.204935         1.05427        0.931489
LJ           2.28729       0.0468669        -1.31017
LJ          0.458371         1.35993       -0.291502
LJ          -1.63059        -2.42156       -0.855338
LJ          -2.01637         2.09798         2.42879
LJ           1.86881        -1.77689      -0.0977597
LJ          -1.24919        0.176344       -0.636701
LJ         -0.791711        -1.54597       -0.942867
LJ          -1.16084        -2.51805       -0.201996
LJ           2.10808         2.48614         1.17938
LJ          -1.11176       -0.621539       -0.784292
LJ           1.64588         1.14091       -0.770266
LJ           2.11259        0.405731        0.101038
LJ          0.432513        -1.76993        -1.22525
LJ              -nan            -nan            -nan
LJ          0.748011         2.53844        0.503147
LJ          -1.62182        -2.09727        -1.59105
LJ           -1.9246        0.356978         2.10048
LJ          -2.03684       -0.231056         1.57705
LJ          -2.37545        -1.98562         2.06824
LJ          -1.36082         1.98293         2.28901
LJ         -0.456433        0.256197        -1.07892
LJ         -0.386227         2.23095        0.988931
LJ           -1.9549         2.48006        0.613138
LJ           2.51484       -0.158172        -2.30173
LJ              -nan            -nan            -nan
LJ              -nan            -nan            -nan
LJ         -0.692233        -1.11671         0.75713
LJ          0.639544        0.468195        -1.58016
LJ              -nan            -nan            -nan
LJ          -1.94724        0.142665        0.701256
LJ           1.53027         1.03115        0.910505
LJ         0.0550513        -2.50291        -1.88887
LJ          -1.77025       -0.395561        -1.55261
LJ          -2.15793       -0.406666       -0.727621
LJ          -1.66987        -1.84781        -1.44713
LJ         -0.549121        -2.33303        0.245872
LJ        -0.0887976         1.55167       -0.298468
LJ           1.65595        -1.78396         1.16598
LJ          0.608922       -0.983239        -2.08712
LJ          0.524098        0.793774        -2.05802
LJ         -0.393614        0.565268          2.5536
LJ          0.400774         0.36782        -2.13923
LJ           -2.0339        -2.25178       -0.458206
LJ          0.104679        0.264309        0.551619
LJ          -0.29437        0.714946          1.6421
LJ         -0.868769       -0.349711         2.47513
LJ          0.973129       -0.187553        -1.08993
LJ          -2.14659         2.40355        -1.24178
LJ           2.47916         2.27817        -1.51776
LJ           -1.6951        0.697579        -2.11335
LJ          -1.67022      -0.0208937      0.00611266
LJ              -nan            -nan            -nan
LJ          -2.13245       -0.610463        -1.03042
LJ           0.35806        -2.46839         -2.2972
LJ           1.93773        -1.90697         1.08827
LJ         -0.209209         1.30735         2.34627
LJ           2.44518        -0.15808        -1.72743
LJ           2.44578         2.45336         2.29294
LJ          0.660272        -1.94563        0.939832
LJ              -nan            -nan            -nan
LJ           2.12562         2.39394        -1.52211
LJ           2.21803       -0.441247        -1.58514
LJ           1.22591        0.612598        0.394739
LJ          -0.23462        -2.12037        -1.74376
LJ          -1.49539         -2.1965         1.87443
LJ              -nan            -nan            -nan
LJ           1.80793        0.531985         2.53121
LJ          -2.01755        -0.32362       -0.727259
LJ              -nan            -nan            -nan
