108
#Comment!
LJ         -0.416032         1.03548       -0.759004
LJ          -2.08515        -0.31811        0.813443
LJ         -0.441637         1.93939        -1.41436
LJ           2.25036        0.260218        0.143808
LJ           2.11263        -1.92865        -1.01186
LJ         -0.882441        0.115811         2.40711
LJ          -1.28928         1.18364      -0.0413865
LJ          0.149473       -0.761744       -0.262536
LJ          -1.24104        -2.18486         2.16175
LJ          0.616603         0.74688          0.3753
LJ              -nan            -nan            -nan
LJ           1.95243        -2.27491        -2.43787
LJ           1.20653       -0.696077        -0.55045
LJ          -2.03729        -1.21926        -0.98882
LJ           2.50136         1.34673        -2.04701
LJ           -2.1694       -0.156343         2.04009
LJ           2.50164         1.00199         1.59181
LJ           1.37292       -0.167206         1.60766
LJ          0.110848        0.247261        -1.73097
LJ          -0.13177         -1.2781        -2.21371
LJ         -0.130491        0.145042         0.52873
LJ            2.1236        -1.56617        -1.27194
LJ           -1.2798        0.360491       -0.972893
LJ           1.89002        -2.55426         1.78173
LJ           1.51802        0.575941        0.890765
LJ          -1.75218         2.29264        -2.13924
LJ         -0.337175        -1.80784        0.774934
LJ           1.50062        -2.41491        0.116495
LJ           1.40263       -0.801029         1.39429
LJ            1.2175        0.325189          1.1755
LJ           2.44933       -0.163588        -1.47805
LJ         -0.485517       0.0938413         2.00823
LJ              -nan            -nan            -nan
LJ          -2.00538        -1.84496        -2.44346
LJ          0.140529         2.54336        0.190142
LJ          -1.73674        0.611031     -0.00219398
LJ         0.0640177         2.30958        -1.62615
LJ           -2.2939        -1.30146        -1.10238
LJ          -2.28489         1.63384        -1.30875
LJ           1.03723        0.624314        -2.37293
LJ          -1.44627         1.97187        0.248682
LJ         -0.309906       -0.732974        -1.88005
LJ          -1.39269        -1.19486        0.674253
LJ          -1.48558         1.56091         1.94645
LJ           2.38252        -2.18287       -0.998322
LJ          -2.27078         1.53388        0.789614
LJ          -1.44168         2.21767        -1.63763
LJ          0.776444        -1.09431       -0.230217
LJ           -1.0989        0.561513        -1.63511
LJ          0.946589      -0.0620505         1.99581
LJ           1.40761        -1.35091         1.14419
LJ           2.35107         2.16864          2.3853
LJ          0.615298         1.65318        0.313289
LJ          0.405317        -1.26163        0.499683
LJ           2.55009         1.03866         -2.5575
LJ           1.35179         1.78567       -0.444152
LJ            2.4843       -0.692373        0.839104
LJ           1.68849          1.6814        0.430507
LJ           2.34481       -0.474315         1.15437
LJ           -2.4043        0.929723        -2.24236
LJ           -1.3822        -2.14049        -1.23531
LJ          0.268948         1.53959        0.625165
LJ          0.218784        0.731416       -0.697035
LJ            2.5401        -1.76988       -0.185835
LJ          -2.12299         1.56033         1.04731
LJ          -1.48798        0.821297        -2.04838
LJ           2.00779         1.67837        -1.57896
LJ           1.17019          1.1067        0.321698
LJ         -0.222659        -1.93857        -2.25756
LJ          -1.59486        -1.01864        -1.94859
LJ           2.34017        0.382558         0.25387
LJ          -2.23132         1.51919         1.18571
LJ           1.02443        -1.60814        -2.09676
LJ           1.01773        -1.64183        -1.23755
LJ         -0.835027         2.31534        0.530004
LJ          0.224117       -0.581718       -0.761911
LJ          0.301258        -1.47472       -0.515752
LJ          -1.18122        -2.07588         2.07561
LJ           1.55868         -1.9928      -0.0316633
LJ         -0.297543        0.657647         1.73055
LJ          -2.28881         0.93668        0.467823
LJ           2.35852        0.128635         1.50782
LJ          -2.17633       -0.212979        -2.39879
LJ           -1.9518         -1.3057       -0.304951
LJ           1.93832        -1.72401        0.581346
LJ           1.32747        -2.16661          1.2733
LJ            -1.406         1.30252       -0.883821
LJ          -1.84952        -2.29263         2.35759
LJ           0.32346         1.19683          1.2452
LJ        -0.0064867         2.06576         2.15142
LJ          -1.41493        -2.06982        0.970696
LJ           2.13624        -1.51898        0.247044
LJ          0.618637        0.746487         2.01895
LJ         -0.296784       -0.912772       -0.204487
LJ           1.99917         2.13278         -2.1689
LJ         -0.275471         2.23516         1.14796
LJ          -1.21908      -0.0682966       0.0104466
LJ           1.14326        -2.07142         1.72301
LJ          0.795229        -1.20546        0.351237
LJ          0.867209        -1.67654         -1.5222
LJ          -2.47379        0.299713        0.327535
LJ          0.768549         2.46472         1.34015
LJ         -0.391174        0.259982        -1.80487
LJ         -0.340885        -1.10186        -2.10345
LJ          -0.40506        -2.56265          1.6948
LJ           2.54127      -0.0275238        -2.43668
LJ         -0.399571         1.81177         1.43571
LJ          -1.17739        -0.74586         2.22338
