108
#Comment!
LJ            1.1729       -0.738925       0.0693503
LJ         -0.724386         1.30702        -1.93364
LJ           1.08203         1.25919        0.785279
LJ         -0.248911        0.392446       -0.747857
LJ          -1.57155        -1.24653        -1.02606
LJ          0.259939         0.65271        0.682154
LJ           1.62912       -0.794763        0.340624
LJ          -1.67578        -1.10685        -2.33907
LJ          -1.55195         2.21458        -1.02618
LJ          0.360017        -1.63684        -1.86353
LJ              -nan            -nan            -nan
LJ           2.15099        0.185006        -1.96025
LJ          -2.53029         1.52289         2.13791
LJ              -nan            -nan            -nan
LJ          -1.39558       -0.144742        -2.32069
LJ              -nan            -nan            -nan
LJ              -nan            -nan            -nan
LJ              -nan            -nan            -nan
LJ         0.0769869         1.59681       -0.786745
LJ              -nan            -nan            -nan
LJ           2.55992        -0.67103         1.04167
LJ           1.02787        -1.14127        -1.99046
LJ          -2.19152       -0.104316      -0.0234471
LJ           1.41875       -0.857294       -0.525623
LJ          0.193328         1.68832        -1.11423
LJ          -1.28735         2.21414       -0.894678
LJ           2.10262         1.06893         1.22937
LJ           1.17969         2.21696         2.54063
LJ         -0.954964        -1.46441          2.4211
LJ           1.36083        -1.94644         1.08084
LJ              -nan            -nan            -nan
LJ          -1.55787        0.619958       -0.357017
LJ              -nan            -nan            -nan
LJ         -0.894721         -1.1127         2.48089
LJ              -nan            -nan            -nan
LJ            2.2173        0.455318          1.2211
LJ        -0.0498886         1.16031       -0.962584
LJ           1.52956        0.115397        -2.42523
LJ          -1.65855         1.19013        -1.09054
LJ           1.90048       0.0515112       -0.844285
LJ          0.778496         -1.7722        -1.88669
LJ          -1.95945         1.25505       -0.794508
LJ         -0.593163       -0.820803        0.853821
LJ         -0.820438        -1.70917         1.29884
LJ          0.738253       -0.214034          2.4682
LJ          -1.38673         1.94238         1.84225
LJ            2.3967          1.0836        -1.33182
LJ          0.802548       0.0927556       -0.421506
LJ          -1.75099         1.65302         1.71214
LJ         -0.490484         2.38012      -0.0505999
LJ          -1.54779         2.08779        0.197803
LJ           -1.1281        -2.46325        -1.59793
LJ              -nan            -nan            -nan
LJ         0.0433569         2.39717         2.43334
LJ          -1.28402       -0.628274         1.63925
LJ           2.37232        -1.17765       -0.470506
LJ          -1.78101         1.01889        0.191387
LJ           2.41105       -0.748836         0.43276
LJ           2.25435         -2.1661         1.95156
LJ         -0.918176         1.62009       -0.857202
LJ          0.914647        0.924378        0.118946
LJ          -1.32705        0.781328         2.52752
LJ          -1.19977        -2.16806        -2.10794
LJ         -0.917927        -2.33879         0.37556
LJ              -nan            -nan            -nan
LJ           -2.4944        -2.18805       0.0774801
LJ          -1.90314          2.0537        -2.00735
LJ              -nan            -nan            -nan
LJ          -1.77698         1.15161       -0.159243
LJ          0.400646         2.14994         2.53162
LJ           1.01629         2.26374         1.43443
LJ          0.367442        -1.97277        -1.72562
LJ          0.296363         2.26813         2.02982
LJ         -0.754313        0.412979       -0.214688
LJ           -2.3492       -0.668421          1.5043
LJ           1.27319        -1.38351         1.68246
LJ          -1.35881         1.75703        -1.19065
LJ            1.4303        -1.07547        0.532337
LJ           1.28215       -0.777846        0.500577
LJ          0.422885        -1.47247         2.48683
LJ          -1.36986        0.259937        0.863253
LJ           -1.6209        -2.46768        -2.27923
LJ           1.19698        -2.21306         1.12512
LJ           2.21189        -1.48532         -2.4942
LJ           1.86878         -1.6494         1.80255
LJ          0.932547        -1.51066          1.7555
LJ           1.67565        0.272342        0.578801
LJ         -0.682255        -1.19347       -0.276655
LJ          -2.33618       -0.485957       -0.723021
LJ          -2.42397          1.0588        0.554918
LJ              -nan            -nan            -nan
LJ          -1.66432         1.19596         1.52291
LJ           -2.2657         2.40029         1.34437
LJ           2.28272       -0.483672       -0.266117
LJ         -0.480183     -0.00676106         2.32838
LJ          -0.91159         1.19906       -0.570377
LJ           -1.7085         0.56499        -1.26851
LJ          0.260945        0.572884         2.00662
LJ              -nan            -nan            -nan
LJ           2.07465       -0.372477        0.200327
LJ          -2.43921         2.43965         -2.4913
LJ         0.0656927       -0.602809         1.07192
LJ            2.1828       -0.381896        0.565594
LJ          -1.93264         2.29805         1.37784
LJ              -nan            -nan            -nan
LJ           1.96848        -1.64375      -0.0320844
LJ          0.957035       0.0335134         2.51869
LJ              -nan            -nan            -nan
