108
#Comment!
LJ           1.36098         2.13865        -1.34225
LJ           1.54631         1.21788       -0.435268
LJ          -1.95442         1.08707        -2.07471
LJ         -0.483716         1.78855       -0.785447
LJ         -0.671328        0.802099        -1.27994
LJ          -2.49446         -1.5631        0.878462
LJ           -1.4006        -1.65965         -0.4364
LJ         -0.378354         -1.0975         2.50518
LJ           1.70203       -0.528776         -1.6716
LJ          0.113578         -2.2122         2.30609
LJ              -nan            -nan            -nan
LJ           1.71067       -0.664437         1.94083
LJ           1.39089         2.20823         -2.5606
LJ          -1.71918       -0.844884       -0.560465
LJ          -2.07379        0.733978        -2.46595
LJ          0.520358       -0.536481        0.237259
LJ              -nan            -nan            -nan
LJ              -nan            -nan            -nan
LJ          0.965103         -1.3124       -0.296383
LJ              -nan            -nan            -nan
LJ           1.07527        -1.35907        0.537082
LJ           2.04806         2.27751        -1.88403
LJ          -1.25287        0.997861        0.784739
LJ           1.89349        -1.93203       -0.690717
LJ           1.86128        -1.95042        -2.39207
LJ          0.524015        0.585241        -2.02441
LJ           1.45578        -2.33099       -0.682484
LJ           1.98284         1.14562        0.888609
LJ        -0.0130899          1.0429         1.06548
LJ           2.28301       -0.130076         1.34103
LJ          0.507767          2.4435        0.982835
LJ           2.27818       -0.434048         1.66827
LJ              -nan            -nan            -nan
LJ            2.5634        -1.29851        0.059546
LJ              -nan            -nan            -nan
LJ           -1.6435       -0.179033          1.7774
LJ           2.27357       -0.706723       -0.616401
LJ         -0.880378        0.930528        0.316077
LJ          -2.12283       -0.378885        -1.70886
LJ         -0.152506         1.18917        -0.50106
LJ          -0.76159         2.22214         2.48883
LJ          -1.31057        0.184735      -0.0157237
LJ          0.966495        -1.57479        -1.56477
LJ          0.301649       -0.889277        -1.03543
LJ         -0.518896       -0.955789         1.69211
LJ          0.835953         2.30078         -2.1991
LJ          -2.24469        0.841889         1.04831
LJ          -2.55566        -1.15747        -2.19365
LJ          -2.29867       -0.863999        -2.19103
LJ           2.52104        0.587888         1.90869
LJ          0.483314        0.340666        0.751521
LJ          -1.85531        0.626465         1.36015
LJ              -nan            -nan            -nan
LJ          -1.97044          -1.742        -1.46031
LJ          0.884256       0.0218559         1.05634
LJ          -2.36691        0.856205          1.5991
LJ         -0.504084       -0.224499         0.83672
LJ         -0.298702       0.0923876         1.69206
LJ           1.52388         2.50358         2.50477
LJ          -1.33924          2.5103        -1.19714
LJ            1.2068        0.308688        0.650173
LJ            1.4379        -1.65723         0.77874
LJ          0.190259         1.73095         1.41732
LJ           1.44142        -1.00269         2.03634
LJ         -0.444542        0.219704         1.51714
LJ           2.22349        0.288876         2.46391
LJ           1.20747         2.31486        -1.18339
LJ              -nan            -nan            -nan
LJ         -0.810262         1.23499       -0.424974
LJ           2.22395        0.197577         2.33034
LJ          0.208331       -0.174887          2.4551
LJ         -0.231395         1.55994          0.1067
LJ          0.248577        -1.45783         2.51472
LJ           2.14812         2.15617         2.33273
LJ           2.28642         1.27022         -1.3061
LJ          0.772499        0.249436        -2.33644
LJ            1.1769        0.207236        -1.59715
LJ         -0.423962         1.15075        -2.32811
LJ           2.17894        -0.75644        -2.14097
LJ         -0.192603         1.39216       -0.668682
LJ          0.636023         1.63926         2.51746
LJ           -1.8871         1.23065         1.93745
LJ           2.05402        -2.24074        -1.47653
LJ           2.40603        -1.17085        -1.53793
LJ          -1.13164        0.990411        -1.38298
LJ          -0.66423        0.667865        -1.09908
LJ         -0.523119        0.233369         2.32335
LJ          -1.26416        0.937099       -0.714895
LJ           1.10494         1.50252        -2.48985
LJ           1.08273        0.386002        0.274185
LJ              -nan            -nan            -nan
LJ          -1.65594        -0.23497         1.97904
LJ          0.432719         -2.5538        0.828823
LJ          -1.59854        -1.47599       -0.709829
LJ          0.483794         2.21555         2.47468
LJ          0.957241        0.910059        -2.25678
LJ          -2.24121        -1.28677         2.32526
LJ          -1.78308        -1.50029         1.31447
LJ           1.96452        -1.96356        0.490609
LJ          -1.86483        0.675875        -1.46465
LJ           1.64376        0.163685        0.295483
LJ         -0.894736         0.10166         2.05394
LJ           1.55313       -0.521238        0.278419
LJ          -2.49234        -1.96775         2.39012
LJ        -0.0308179        -1.72148        -2.41855
LJ         -0.313981        0.536124        -0.32024
LJ           2.20884       -0.613454         1.52209
LJ              -nan            -nan            -nan
