108
#Comment!
LJ          -1.71594        0.436225       -0.367168
LJ          -1.86051       -0.760988        0.201627
LJ          0.946648       -0.642357        -2.51286
LJ           -1.7974        0.396381        -1.92346
LJ         -0.216998        0.253444         2.37766
LJ         -0.198921        -1.80369       -0.708211
LJ            1.7687           2.254        -1.88838
LJ           2.05824         1.01897        0.651578
LJ          0.174879         2.21564       -0.533598
LJ          -1.79832        0.842046        -1.60651
LJ              -nan            -nan            -nan
LJ          0.520832       0.0411188       -0.291294
LJ        0.00869238         2.06082         1.24363
LJ          -1.57988        -1.24528        0.127413
LJ           1.99198        0.540328        -2.18186
LJ         -0.702671         1.55919         -1.1765
LJ              -nan            -nan            -nan
LJ              -nan            -nan            -nan
LJ          -1.21307         -2.1048       -0.499927
LJ              -nan            -nan            -nan
LJ           1.75092         2.03465       -0.759201
LJ          0.193882         -2.0016          1.7786
LJ         -0.451786        -2.01202        -2.36091
LJ           2.13599        -1.97711        -2.01118
LJ           1.36611         1.20502        0.698036
LJ        -0.0711557        -1.80434        0.243951
LJ          0.981195       -0.402328        0.988658
LJ           1.12173         2.52127         2.54901
LJ          -2.46058         -1.0401     -0.00471059
LJ          -2.13178        -2.34705        0.696312
LJ          0.586655        -1.12205         2.17148
LJ           1.60467        0.432443         1.48232
LJ              -nan            -nan            -nan
LJ         -0.390085       -0.854182       -0.584666
LJ              -nan            -nan            -nan
LJ         -0.863706         1.26009        0.368145
LJ           2.29252         1.00663       -0.704863
LJ         -0.596849         2.06985         0.41424
LJ          0.200873           1.523         1.14679
LJ         -0.411856        0.694306        -1.24754
LJ          0.318358         -1.7344        -2.37281
LJ          -1.36611        0.564301       -0.593814
LJ           2.32247        0.262761        -2.33846
LJ          0.948963       -0.487308        -2.31624
LJ         -0.428859        0.239845        -2.20553
LJ          -1.62479        0.394551        0.656771
LJ          0.312361          1.0329        -1.56008
LJ           1.83145           1.792       -0.169219
LJ           2.24116        -1.37312         2.48381
LJ           2.30369       0.0925538        -2.49286
LJ           1.16769        -1.72961        0.699766
LJ          0.512702        -2.51729        0.958219
LJ              -nan            -nan            -nan
LJ          -1.92165         1.98536         -2.4739
LJ           1.40828        -2.39991         1.69559
LJ          -1.95232        -1.29536        -1.25024
LJ           1.00145        -1.15088        -1.57535
LJ         -0.283132        -2.32621        0.112862
LJ            2.3315         1.75506         1.26048
LJ          0.810449       -0.241993         1.04478
LJ          0.176094        -1.12744         1.70856
LJ          0.309632        0.919434         1.56815
LJ           1.80045          0.5606       -0.319901
LJ          0.877887       -0.190762        -2.53213
LJ          -1.29944        0.262318        -1.19414
LJ          -1.30856        -1.89916        -1.81123
LJ           2.47271       -0.562346        0.561842
LJ              -nan            -nan            -nan
LJ         0.0727778        0.315352         1.41455
LJ           1.71943         2.49187         1.94243
LJ          0.702202        0.735736       -0.341879
LJ          0.618007        0.296607       -0.446916
LJ          -1.99694         0.79348        0.492039
LJ          -1.34049        -1.87046         2.49489
LJ           2.42558       -0.857915         1.64467
LJ         -0.361582        -1.47299       -0.238361
LJ           1.48294         2.44642        0.164271
LJ           0.83032        0.582184          1.0214
LJ           -2.3301       -0.927008       -0.474998
LJ           1.71836         2.08196           1.532
LJ            2.1182       -0.465827        0.279737
LJ           1.04971       -0.196181        -2.15263
LJ           1.69025       -0.867556       0.0998245
LJ         -0.944542         1.02807        -1.40135
LJ           1.22601        -2.34172         1.60277
LJ         -0.869815        0.117082         0.75384
LJ          0.622876       -0.577252        0.229928
LJ          -1.91053        -2.26675        -1.43431
LJ          -1.82885         2.49616        -2.12088
LJ         -0.801449         1.79542         1.35255
LJ              -nan            -nan            -nan
LJ           2.53799        -2.22856       -0.923553
LJ         -0.675897         2.19168        -1.35205
LJ           1.55709         1.50732         1.51617
LJ         -0.211451         1.83552        0.732601
LJ         -0.487518       0.0760214        -2.24938
LJ           1.13655         2.46835         1.48949
LJ         0.0507302         2.39539        0.878632
LJ          -2.18418      -0.0723169         1.99027
LJ           1.92922          -1.718         0.31388
LJ           2.41247         1.56888        -1.07724
LJ           1.16686        0.949245         1.88332
LJ        -0.0155416        0.215524        -2.02759
LJ          -1.15326        0.907614        0.178091
LJ          0.620754        -1.56559         2.35094
LJ         -0.121534        0.244519          2.1618
LJ          0.807473       -0.628014       0.0585884
LJ              -nan            -nan            -nan
