108
#Comment!
LJ          -1.02323        0.981485         1.16905
LJ           1.80307        -1.26362         2.18801
LJ           1.59565        -2.21734         1.10895
LJ         -0.782575        -1.56983         1.59679
LJ          0.221853       -0.468359        0.272165
LJ         -0.394444       0.0343805       -0.792796
LJ          0.827041        0.119755         1.16276
LJ          -2.19741        -1.92667         2.21827
LJ         -0.935646        0.491559          1.3451
LJ          0.259274        -2.42817       -0.206165
LJ              -nan            -nan            -nan
LJ          -2.52653       -0.194616          1.5589
LJ          0.260981       -0.898194         -0.6699
LJ              -nan            -nan            -nan
LJ           1.90158        -2.42379       -0.710979
LJ              -nan            -nan            -nan
LJ              -nan            -nan            -nan
LJ              -nan            -nan            -nan
LJ           -1.6447         1.15734       -0.371246
LJ              -nan            -nan            -nan
LJ          -1.77335        -2.45113        -1.44833
LJ         -0.617516       -0.304329         1.68759
LJ          0.184931         2.49363        -2.14363
LJ              -nan            -nan            -nan
LJ            1.7601       -0.226112         1.96217
LJ           1.04784         2.49888         1.04418
LJ          0.201554       -0.695571       -0.631307
LJ          -2.45148         0.42012        -2.45077
LJ           1.07406         1.19624         1.36579
LJ         -0.454029       0.0565196         2.48127
LJ              -nan            -nan            -nan
LJ         -0.702505         1.68645        -1.83334
LJ              -nan            -nan            -nan
LJ          -1.72429        -2.42994         0.52229
LJ              -nan            -nan            -nan
LJ          -2.05086       -0.220176        -1.66108
LJ           0.58163         1.54637         1.44375
LJ          -2.36656       -0.353669          -1.247
LJ          -1.33728       -0.853337       -0.706627
LJ           1.29841        -2.27799         1.84615
LJ          0.594066        0.742326         1.92513
LJ         -0.413002       -0.778462        -1.44247
LJ          0.211099       -0.538847        -1.68694
LJ          0.653345        -1.40496         1.36416
LJ           2.00563        -1.70009        0.971327
LJ         -0.772081         -2.3606          2.1771
LJ          -2.16543        -1.39111         1.30611
LJ          -2.35539         2.49631       -0.910848
LJ          -1.53757        -1.87552         1.10503
LJ         -0.528078        0.984475         1.69749
LJ           1.88841        0.486984        -1.34791
LJ          0.257381       -0.332065       -0.505861
LJ              -nan            -nan            -nan
LJ          -0.32858        -2.08492        -1.44688
LJ           2.34093        -1.77831       -0.354067
LJ           1.67624        -2.51411         1.00699
LJ          -1.87446       0.0540179         2.32143
LJ         -0.657936        -2.19856        0.666983
LJ          -2.44414        -1.89819       -0.201148
LJ          -1.57461        0.321177         0.22556
LJ          -1.73003         2.45154         -1.7209
LJ          -1.02113         2.24183         0.84789
LJ          -1.35663         1.17288         1.09008
LJ              -nan            -nan            -nan
LJ              -nan            -nan            -nan
LJ          0.815664         2.43014       -0.655908
LJ         -0.250124        -1.18614        0.037059
LJ              -nan            -nan            -nan
LJ          0.299709        -1.71343        -2.31738
LJ          0.294792        0.842356       -0.427405
LJ          0.449394         1.38116         1.18099
LJ          -2.02107        0.622823         2.47195
LJ           1.33713         1.15583       -0.325977
LJ          -2.49683        -2.08796         1.99033
LJ         -0.370304      -0.0969509         1.57152
LJ           1.47529         1.16101         1.20835
LJ           2.29819        -1.52924         1.62467
LJ           1.46423        0.476512       0.0350556
LJ          0.282168         2.11759        -2.11005
LJ          -2.19165         2.16066        -1.23766
LJ         -0.222793        -1.50241         1.37265
LJ          0.598999        -1.79211        0.607586
LJ          0.887099        -2.12325       -0.332798
LJ          0.799189         1.87222      0.00825353
LJ          0.903084         1.42558        -2.43062
LJ         -0.245084       -0.543999       -0.182793
LJ          0.890329        -1.14176        -1.69045
LJ         -0.314726        0.138628          2.1074
LJ          -2.09814        0.239979       -0.179079
LJ         -0.202327        0.208045         1.41706
LJ              -nan            -nan            -nan
LJ           2.00678       -0.497082        -1.05959
LJ          -1.63036        0.106511        0.725622
LJ         -0.318373        0.246815        -1.65018
LJ         0.0537715        -1.45897         2.03229
LJ          0.828862        0.163054        0.236009
LJ          -1.86476       -0.105271         1.29894
LJ           2.54205         2.37389       -0.790885
LJ              -nan            -nan            -nan
LJ           2.41034         2.07177        0.240832
LJ           -1.6577        0.860514        -1.02391
LJ          -2.07932        0.989254        -1.91489
LJ         -0.423126         1.16023        -1.29053
LJ           1.50476         2.07261         2.43664
LJ              -nan            -nan            -nan
LJ          0.595676       -0.534141        -1.00979
LJ           2.29789       -0.813241          1.2522
LJ              -nan            -nan            -nan
