108
#Comment!
LJ           1.24245        0.655997        0.433083
LJ          -2.12251         1.08902       -0.299669
LJ           0.60508         -2.3914        -2.23442
LJ          0.337136         2.51553          1.8759
LJ         -0.873947         1.90891        -1.80556
LJ          -2.34437          -1.036        0.831804
LJ           0.26135       -0.742298       -0.858381
LJ           1.71723       -0.318538        -2.39728
LJ           1.30557        -1.75128         -2.1292
LJ           1.46799           1.725         1.88799
LJ              -nan            -nan            -nan
LJ          -1.54697        -1.06052         1.62902
LJ           1.28052         1.68935        -0.70304
LJ           -0.4535       0.0701992          1.2202
LJ          -1.68209        -1.21634      -0.0316027
LJ              -nan            -nan            -nan
LJ              -nan            -nan            -nan
LJ              -nan            -nan            -nan
LJ          -1.34436          1.3037      0.00404867
LJ              -nan            -nan            -nan
LJ          0.667536         1.89536         1.31211
LJ         -0.325176        -2.36307         2.10856
LJ           2.44415         2.41135         0.34677
LJ           2.13933         1.17444        -2.44892
LJ         -0.212066        0.532354        -1.31029
LJ          -1.41222         2.07258        0.251786
LJ          0.912286         1.04283         -1.9548
LJ          -1.99852         1.51694         1.39626
LJ         -0.438292        -1.61763        0.364294
LJ          -2.43056       -0.190911         2.53034
LJ         -0.940549       -0.443179         -1.6313
LJ         -0.059422        -1.86159        -1.99481
LJ              -nan            -nan            -nan
LJ           1.74815        0.508624         1.21392
LJ              -nan            -nan            -nan
LJ          -1.50281         2.22764       -0.571787
LJ           0.62944      -0.0477946        0.233997
LJ           1.04502        0.851662        -1.64247
LJ         0.0294537        -1.85892        -1.45931
LJ          0.548987       -0.724353        -1.59929
LJ           1.24235       -0.216719       -0.847947
LJ          0.307223      -0.0611953       0.0572554
LJ         -0.967186         2.52785       -0.972528
LJ          0.237826         1.23044         2.06284
LJ          -2.17161        -0.60966        -2.16891
LJ           0.20429        -1.64911        -1.06938
LJ          -2.34442       -0.697118        -2.07199
LJ         -0.443021         1.90788        0.267302
LJ          0.860682        0.635974        -2.29043
LJ          -2.12504       -0.400628           1.076
LJ         -0.221874        -1.60767        0.682433
LJ           1.43915        -2.34643         1.35325
LJ              -nan            -nan            -nan
LJ        -0.0194215        -1.57121       -0.370132
LJ          -2.01638        -1.52822         1.19403
LJ           1.10582        -1.54419        0.981698
LJ           1.73299       -0.269516         1.48478
LJ          -2.09526        -1.25951        -2.10206
LJ           2.08874         1.37064        0.911154
LJ         -0.319114        -2.46172       -0.390693
LJ            2.2582        -2.21061        -1.52299
LJ           1.72691        -0.15835        -2.10257
LJ          0.941165       -0.484658         1.96855
LJ           2.11459        -2.03093        -1.49815
LJ           1.91514         2.13249         2.02534
LJ           2.46783        -1.52656         1.18728
LJ          -2.19833        -2.30268         2.13046
LJ              -nan            -nan            -nan
LJ          0.849764        0.735023        0.419094
LJ           1.15157         2.26583        -2.00214
LJ          -1.53106          -2.381         1.18844
LJ           2.08172         2.10796         1.85566
LJ          0.359506        -1.75191         1.38108
LJ          0.130861        -1.18884        -2.41206
LJ          -1.05423        0.544807       0.0823131
LJ           1.80654         2.17651         0.25762
LJ          -1.50241         1.51281         1.55023
LJ           1.04333         1.71895       -0.254022
LJ          -1.58277        -2.33258        0.408177
LJ          -1.62977         1.64634        -1.91287
LJ           1.05113        0.271161         2.43241
LJ          0.351827          1.7233        -1.79818
LJ         0.0629321       -0.133002      -0.0501271
LJ           2.35826         2.16722        0.769261
LJ           0.95549        0.663917       0.0725516
LJ          -1.35137        -1.39539        -1.74469
LJ          0.917913        -2.56292         1.76396
LJ          -2.40794         1.38376        -1.97016
LJ           2.49722        0.182561         1.47937
LJ         -0.751421        0.456174        -1.72615
LJ              -nan            -nan            -nan
LJ           -1.4765       -0.831716       -0.632168
LJ           2.40433         1.37915       -0.581565
LJ         -0.616308        -1.73747         2.13458
LJ           2.38474        -1.10217        0.391587
LJ         -0.508976        0.573227        0.938216
LJ             2.411        0.772924        0.202722
LJ          -1.33974        -2.38863        -2.49137
LJ              -nan            -nan            -nan
LJ           2.46365         -2.2812        -2.20306
LJ          0.324766       -0.777133        0.634439
LJ          -1.95074        0.896155        -1.23175
LJ          -1.85773       -0.286711        0.385693
LJ           1.71931       -0.774235         2.39704
LJ          -1.35841       -0.109729         1.03464
LJ          -1.54612       -0.232214         0.88746
LJ          -1.84563        0.718304       -0.937549
LJ              -nan            -nan            -nan
