108
#Comment!
LJ            1.7755         1.70644        -1.09697
LJ            1.4277         2.51185         1.28593
LJ           -2.5128         1.73918         1.43957
LJ          -2.17558       -0.171236       -0.605572
LJ           1.86312        -0.78238          1.2408
LJ         0.0717715      -0.0572528       -0.648375
LJ           0.85639         2.45274         2.23934
LJ          0.491718       -0.533609         1.10611
LJ        -0.0595373       -0.921701       -0.100048
LJ          -1.22873        -1.87911         1.40287
LJ              -nan            -nan            -nan
LJ          0.168259         2.03544        0.654317
LJ          -1.55912        -1.74077        0.401137
LJ           2.11182        -1.48381        -1.36108
LJ         -0.142921        -1.21372         2.40165
LJ           1.53229        -2.14561         1.11567
LJ          -1.63192       -0.166752        -1.99099
LJ           2.07626       -0.924614        -2.47979
LJ          -1.82816         1.11387         2.31592
LJ         -0.489179        -1.19313        0.770822
LJ         -0.659864        -2.05186       -0.312222
LJ          -1.80613         2.19793        -1.72937
LJ          -1.91797       -0.182383         1.41429
LJ            0.2249        0.765502         1.79602
LJ          -1.96275       -0.550485         -2.4195
LJ           2.51145         2.20022         2.01526
LJ           2.39534         1.97423      -0.0712022
LJ           1.52605        0.052267       -0.981343
LJ         -0.450743        -1.40019         1.44869
LJ         -0.944389         1.96487        -2.14394
LJ          -2.35292        0.778936         1.18276
LJ           1.32567          1.9796       -0.563633
LJ              -nan            -nan            -nan
LJ          -1.30781         1.66134        -1.46235
LJ          -1.21089       -0.145141        0.131154
LJ          -2.24715         1.10183        0.116639
LJ           1.06168       -0.345357         2.45004
LJ         -0.566487        0.386069        -1.30203
LJ          0.592232       -0.928449        -2.12943
LJ           -1.1828       -0.474243        -2.50785
LJ           1.45219        0.848679        0.033486
LJ          0.988412       -0.720376        0.569821
LJ           1.78605         2.23183        -1.39832
LJ         -0.176322         2.40992         2.33263
LJ           -0.4376         2.37693        -1.75799
LJ         -0.938178        -1.92285          1.8818
LJ         -0.360141        0.897282        0.380076
LJ          -1.27955        -1.58024          2.3625
LJ           1.54439        0.178869         2.55982
LJ        0.00860011        -2.08826       -0.865335
LJ          -2.45371         1.75744        0.945159
LJ           1.57237        0.979811       -0.991618
LJ           2.40379        -1.50348       -0.288247
LJ          0.140928        0.234888        0.487798
LJ          0.858757        -1.98633        -1.44753
LJ          -0.01661         2.20761        -2.27206
LJ          -1.08568         2.14591        -2.53933
LJ            1.8575        -1.98294        -1.00393
LJ           1.09014         1.53119        -1.61326
LJ         -0.964125        0.379624       -0.263281
LJ          -2.12584        -1.61573         -1.4583
LJ          0.631529         2.30435         2.26045
LJ         -0.298903         1.98287         2.22183
LJ          -1.83032         2.48978        -2.01482
LJ          -2.55025        -1.32708       -0.300524
LJ         -0.610809       -0.165722         1.48602
LJ           2.39997        0.967877        -1.25719
LJ         -0.732632        -2.24983         2.21468
LJ         -0.898711       -0.551919        0.649095
LJ           0.41135      -0.0510479         2.40053
LJ          -1.96855        -1.13052       -0.856128
LJ           2.31749        0.427233          1.4103
LJ           1.82523        0.827275         1.22956
LJ           2.05092        -1.07981         1.33759
LJ          0.131019        -1.51602         1.07013
LJ          -2.11514        -1.80405         -2.4162
LJ          -2.25658         2.42929        -2.37151
LJ          -2.07443        -1.87042       -0.178453
LJ          -1.26822        0.841521       -0.601936
LJ           2.16469        0.148997         -1.3948
LJ            2.0793        -2.48163       0.0684769
LJ          -1.91168       -0.766163         2.55212
LJ          -1.43186          1.0352         1.89116
LJ           2.18834       -0.474975        0.316093
LJ         0.0957233         1.74711        -2.51121
LJ          0.433866      -0.0252634        0.658258
LJ          0.881958        -2.09005        0.490088
LJ          -2.21448        -1.07371        0.166567
LJ          0.212278        0.509645         -2.1887
LJ           1.87066         1.61413        -1.03218
LJ          -2.25519       0.0736965         2.55218
LJ           2.52333        -1.08774        -1.56142
LJ          0.251779       -0.737756       -0.649691
LJ           1.94024         2.47693      -0.0782868
LJ           1.95881         1.03434     -0.00705992
LJ           1.27103        -0.62697        -2.50747
LJ          -2.07357        -0.22933        -1.52236
LJ         -0.112874          1.7433        0.490767
LJ           1.33001         -1.9853        -1.89544
LJ           2.46208         2.47023        0.930155
LJ          -2.42673         -2.4939        0.857683
LJ           2.05301        -1.48506        -2.37753
LJ          0.524157        -2.00601        -2.14644
LJ          -1.32228        0.837369        0.465541
LJ           2.49667       -0.903414        -1.38449
LJ          -1.11941        0.636131         2.38402
LJ           1.33109       -0.486419      -0.0357901
LJ           1.78312       -0.181583        -2.24881
