108
#Comment!
LJ           2.21048        0.679385         -1.1659
LJ          -1.22576        -1.70865         1.81309
LJ           1.94796        -2.24839        0.905161
LJ         -0.507085        -2.14002        -1.04273
LJ         -0.337281        0.521903        -1.37933
LJ           1.54108         1.10739         1.70553
LJ          -2.02784       -0.267377        0.125584
LJ           -1.0365        0.264234        0.573065
LJ         -0.826436         1.28192        -1.33854
LJ          0.705968        -2.54369         1.34232
LJ              -nan            -nan            -nan
LJ           2.44276         1.02431        -1.61477
LJ          -0.86087         1.81257          -1.313
LJ              -nan            -nan            -nan
LJ           2.34131         2.16407        -2.13818
LJ              -nan            -nan            -nan
LJ              -nan            -nan            -nan
LJ              -nan            -nan            -nan
LJ          -1.11184        0.408741         1.28638
LJ              -nan            -nan            -nan
LJ          -1.61414       -0.970479        -1.58194
LJ             -1.65         1.63944        -2.13273
LJ          0.663762          0.2023         1.34392
LJ              -nan            -nan            -nan
LJ          0.389556        0.167503        -1.14869
LJ          -2.09722        -2.44425         1.69237
LJ          0.664069         2.52812        -2.44914
LJ           2.52986        -1.19929          1.8237
LJ          -1.39342        -0.91247        0.935862
LJ           1.48509        0.340635        0.999478
LJ              -nan            -nan            -nan
LJ          -0.83531        0.546872          2.5611
LJ              -nan            -nan            -nan
LJ          -1.98114        -1.36751        -1.42567
LJ              -nan            -nan            -nan
LJ           1.97942         1.91789        -1.17589
LJ           2.34966        -0.98255         1.61425
LJ         -0.677348        0.912619         0.13396
LJ           1.27218        0.638549        -1.24369
LJ           1.31709        -1.42106       -0.785979
LJ          -2.20923         1.60982         1.97986
LJ         -0.268556       -0.437458        0.726361
LJ           -1.4698        -0.75204        -2.19157
LJ          -2.22127       -0.119263       -0.576283
LJ           2.52185         1.70552        0.583534
LJ          0.576343         2.48221         1.56836
LJ           1.11492        0.753428        -1.72036
LJ          0.204084         2.18001          1.2092
LJ           2.03308         1.01261          0.1453
LJ          -1.63338         1.65968       -0.696295
LJ          -1.41646         1.21162         1.94517
LJ        -0.0101457        0.672276         2.30092
LJ              -nan            -nan            -nan
LJ           1.62405       -0.194685          2.1362
LJ           1.09943         2.35843         -1.6783
LJ           1.11443         2.14165         1.06627
LJ           0.19862       -0.252179        0.928988
LJ           1.18863        -1.61347         0.86751
LJ         -0.250366         1.92115         1.39154
LJ           -1.1766        0.681779         1.29615
LJ          -2.38749         1.02431         1.47169
LJ           1.99245        -1.98177        -1.11616
LJ          0.957817        -1.24645         2.34501
LJ              -nan            -nan            -nan
LJ              -nan            -nan            -nan
LJ           1.41367        0.361999         1.88334
LJ            2.3505         2.27221        -2.51654
LJ              -nan            -nan            -nan
LJ          -1.07817        -1.88345        0.978481
LJ           2.01764         1.13912       -0.188805
LJ           1.11854         1.96385        -1.31714
LJ         -0.305105       -0.900988        -2.34343
LJ          -2.53211        -1.02571        -1.52805
LJ          0.706909         2.30231        -2.44502
LJ          -2.31128        -1.31018        0.872134
LJ           2.00391        0.398988         1.58833
LJ          -1.95746        0.966296        0.862398
LJ         -0.901819        0.955886        0.267095
LJ          -1.64348        -1.26498       -0.631247
LJ           1.85663        0.830806       -0.897491
LJ           1.99618        -2.33923         1.86239
LJ           -1.2873         1.52346        0.539514
LJ          -1.78853         2.15173        -1.76733
LJ          -2.33127       -0.971356       0.0516261
LJ         0.0919958        -1.67399         1.09126
LJ          -1.09948       -0.427466          1.4527
LJ          0.334158        -0.82124         2.23354
LJ          0.261474       -0.209638        0.337289
LJ          -2.29575         1.21828        -1.23988
LJ           0.53969         2.03896        0.425574
LJ              -nan            -nan            -nan
LJ         -0.711382        0.759113        -2.14425
LJ           1.73903       -0.706819        -2.19573
LJ           1.56936       -0.448391         2.10267
LJ         -0.299077        -2.02574       -0.744628
LJ           1.75928         2.49422        -2.44375
LJ            1.9509         1.05624         2.28998
LJ         -0.414502       -0.985741        0.268782
LJ              -nan            -nan            -nan
LJ         -0.405332       -0.984473          1.1418
LJ           -1.6102         2.38866        0.856275
LJ          0.660668         2.36454         0.65615
LJ          -1.74452         2.44612        -1.20846
LJ          -1.02627         1.01254        -1.29026
LJ              -nan            -nan            -nan
LJ          -1.62474        -1.24619         1.79933
LJ         -0.868661        -1.74429        -1.31274
LJ              -nan            -nan            -nan
