108
#Comment!
LJ          -1.94606         1.95088         1.17433
LJ          -2.48253         1.35616        -1.26851
LJ           2.07362        -1.67349         1.88384
LJ         -0.449666        0.694662        -2.37388
LJ         -0.449352        -1.73957        -2.45889
LJ           2.32205        -1.98689       -0.113487
LJ           1.59182       -0.895325         1.74907
LJ          0.822535         2.55671        -1.26822
LJ           1.10366         2.50311       -0.745802
LJ        -0.0359713         1.30735        -1.64268
LJ              -nan            -nan            -nan
LJ           -0.9119       -0.183263        0.505469
LJ          0.594251          -2.087         1.29007
LJ           1.07868        -1.12458        -1.22548
LJ          -1.81255        0.951608        -1.44848
LJ          -1.69071         1.21492         2.01765
LJ           1.52924         2.09108        0.300314
LJ          -1.22178        -2.09486        -1.53426
LJ           1.99499        -1.05128       0.0314959
LJ          0.609082        0.192344       -0.535561
LJ           2.02851         -1.2621        0.634288
LJ          -1.81485        -1.74211         1.52758
LJ          0.361866         1.45162       -0.862193
LJ            1.1535       -0.371626         2.05233
LJ           0.33252         1.35228        -1.52901
LJ           -1.9476         2.02576        -1.34463
LJ           2.16667         -1.3929        -2.31941
LJ           2.49854       -0.255052        -1.83276
LJ          -2.10967        0.581045        0.864245
LJ          -1.20449       -0.756184       -0.979852
LJ           1.97922         2.49831         1.25809
LJ           1.27798        0.112951        -2.14538
LJ              -nan            -nan            -nan
LJ           1.78578         2.21797        -1.47744
LJ              -nan            -nan            -nan
LJ        -0.0373964       0.0645046       -0.127028
LJ          0.659384         0.86644        0.949608
LJ         -0.165717        -1.30814       -0.546744
LJ           1.88015         1.30456         1.45007
LJ           1.35766        0.858015        0.592016
LJ          0.947604        -1.81143         1.36703
LJ          -2.19131         2.11468         2.53177
LJ         -0.746887          0.2221         2.33357
LJ           1.01576        -1.49774        -1.18864
LJ           2.37789       -0.966502        0.871057
LJ          0.589262       -0.639837        -1.83859
LJ           1.17542        -1.08289          1.0081
LJ          0.662081         2.23311           1.088
LJ         -0.126203       -0.135172        -1.70316
LJ           2.26185         1.87235        -2.18092
LJ          -2.07804         2.41818      -0.0795566
LJ          0.368286       -0.802576       -0.602215
LJ           1.10839         2.08965        -2.23131
LJ         -0.779684        -0.15167        -2.00107
LJ           1.75591        -1.13944       -0.561062
LJ          0.121282         1.63384         1.85958
LJ         0.0967272        0.960044         1.66838
LJ          0.859787         1.09064        0.773307
LJ          -1.46882        -1.35821         2.31702
LJ          -1.35359        -1.17485        -1.12736
LJ           1.57392         2.53074         -0.8655
LJ         -0.725487        0.282981        -1.01188
LJ          -1.89191        0.321128       -0.496956
LJ          -1.93788        -2.30345         1.74343
LJ          0.103332       -0.693434         2.26677
LJ          -1.06531         1.97895         2.48327
LJ         -0.547478       -0.450179       -0.411328
LJ              -nan            -nan            -nan
LJ          -1.50445        0.821685         2.13474
LJ          -1.96529         1.68828         0.19376
LJ          -2.31414        -2.15116         -0.4451
LJ           1.12936      -0.0910774         1.56796
LJ           2.27223       0.0403448       -0.396602
LJ          0.155775        -1.91039        -2.44799
LJ           1.09678        -0.47123         -1.2051
LJ          -2.24439       -0.291513         1.50732
LJ           -1.4108        -1.41146         1.30812
LJ          0.939739        0.345942       -0.288087
LJ          0.208628        0.984276        -1.35524
LJ         -0.529996        -1.67565        -2.05754
LJ          0.463177        -1.08703        0.953447
LJ        -0.0414731        -0.70122         2.46967
LJ          -1.60485         2.37642         1.42077
LJ         0.0501987         0.31824         1.77557
LJ          -2.44884         2.11798        0.539877
LJ           0.43891        0.921422       -0.469227
LJ        -0.0966965       -0.264937        -1.14527
LJ          -1.58422        -2.22823        0.961383
LJ           1.42751        0.970791         1.74563
LJ         -0.254351        -2.13414          1.9104
LJ         -0.755886       -0.921107         2.12031
LJ         -0.594927        -2.40311         1.27756
LJ          0.466589        -2.47483        0.542596
LJ         -0.920194        -1.66872          1.1681
LJ           2.43905        -1.41807         1.59064
LJ         -0.884068         1.01865         2.47805
LJ          -1.45809        -1.71849         2.38823
LJ          -2.06581       -0.160234         1.65521
LJ         -0.322448         1.98714       -0.324212
LJ           2.02828         1.95576        0.692529
LJ          -1.78586        0.702944       -0.320655
LJ            0.8524          1.1003       -0.240948
LJ          0.830147       -0.173688         1.85857
LJ           1.93947        -2.01883        -2.02834
LJ          -1.29434        -1.48348         1.65944
LJ          -1.15781        -1.52334        -1.84271
LJ           2.27261         1.55224        -1.71813
LJ          -2.18093        0.227104        -2.35392
