108
#Comment!
LJ           1.51532        -0.77211         2.01497
LJ           1.35356        -1.25134       -0.579293
LJ          -1.43853        -2.13292        0.795335
LJ           1.42655       -0.423605        0.923742
LJ          0.283632         1.67374          1.8898
LJ         -0.228403       -0.720614       -0.409224
LJ          0.153366       -0.581334         1.87636
LJ          -1.29816        0.898593         2.09527
LJ          -2.27338       0.0124764      -0.0203475
LJ          -2.16779        -0.39375        -1.85251
LJ              -nan            -nan            -nan
LJ           1.71382         1.63788         -1.4541
LJ           1.08575       -0.349365         1.47478
LJ           2.29817         0.84345         2.33325
LJ          -1.35826         1.40595        -2.32415
LJ           1.86967         1.99111         1.52942
LJ           1.14216         -1.2995        0.163438
LJ          0.634471         1.89347         0.55194
LJ           -1.2544         1.64928       -0.143401
LJ          0.720087         2.10361         1.61242
LJ         -0.728001        0.762031         -1.9863
LJ           1.94188         1.88463         2.29693
LJ          -1.78882         2.02707       -0.119975
LJ           1.35429        -1.85254        -1.82454
LJ        -0.0135531      -0.0592287         2.27964
LJ           2.08963         2.19026         0.80212
LJ           -1.4305        0.559141        0.952777
LJ          -1.71355        0.902007        -1.90206
LJ          -1.62838       -0.985683         -2.1009
LJ          -1.84481       -0.154918        -1.17694
LJ         -0.431041         1.39663        -1.73675
LJ            1.5571         2.02256        -1.75563
LJ              -nan            -nan            -nan
LJ           1.01993         1.44758        -2.34358
LJ          0.151165         -2.2016        -2.39407
LJ          0.956297         1.89983       -0.986334
LJ          -1.12975         2.49631      -0.0996813
LJ         -0.203535        -2.10066       -0.417172
LJ           2.02894         1.37364        -1.41605
LJ          -1.79292        -2.50842         2.23358
LJ         0.0499776        -1.42674        -1.64956
LJ           2.47534       0.0255348       -0.646519
LJ           2.05348         2.31246        -1.32513
LJ         -0.641477         1.67806       -0.996949
LJ         -0.587216       -0.605589        -1.16312
LJ          -2.10238       -0.331432         1.41761
LJ          0.991502         2.52089        -1.98859
LJ          -2.11732        -1.97272        0.239748
LJ            1.8869         2.26416         1.57009
LJ          0.833335        -1.38756         1.38586
LJ         -0.731277        -1.94645        -2.01632
LJ           0.70468         1.69219         -2.2456
LJ           1.13028         2.21409      -0.0654685
LJ         -0.501895        0.877578        -1.67658
LJ           1.38512         2.28526       -0.952817
LJ          -1.79656        0.088719       -0.519768
LJ          0.714566        -2.16914        0.608799
LJ           2.03895        -1.01449       -0.353788
LJ          -2.00535         2.17425         1.16781
LJ          0.370309         2.08063         0.32696
LJ         -0.538159        -1.50604        -2.37191
LJ         -0.108752       -0.278074       -0.371101
LJ          0.834705       -0.820258        -1.29497
LJ         -0.680024       -0.517848        0.303024
LJ           1.45702         2.00917       -0.809581
LJ          -1.46377         1.25275        -1.85283
LJ          -1.58772        -2.28903        -1.67233
LJ          -1.49936        -1.13098        -1.73241
LJ           0.62444         1.74361          -2.228
LJ         -0.247181        0.797312        -2.54147
LJ            0.2156        0.455177        -1.04709
LJ          -1.23252       -0.692926         2.42827
LJ           1.96944         2.08012         1.59845
LJ          -2.48946        -0.67417       -0.571391
LJ         0.0115918        -2.51412       -0.765886
LJ         -0.178433      -0.0141416        -2.49918
LJ          -2.22062        0.200636        0.433267
LJ           1.64552       -0.165423         2.42347
LJ          -1.35548         2.07357        -2.03152
LJ            1.9166        0.780931        0.983769
LJ         -0.640732          2.2841        -1.06439
LJ          0.395559          2.5044       -0.590445
LJ         0.0667561        -1.63716        -1.68621
LJ          0.431401         1.69934         -1.2761
LJ          -0.22518        -1.84438        0.781405
LJ            2.2594       -0.639517         1.07038
LJ          0.281373        -1.54442         2.23045
LJ          -2.40343         1.40705       0.0250281
LJ          -2.14512         1.20331        -2.06583
LJ        -0.0601586         1.63229        -1.45216
LJ           1.07296         2.51725        0.192503
LJ        -0.0500237        -1.47731         2.44243
LJ          -1.97895        -2.14629        -2.49295
LJ          -1.79674         1.26045         0.87578
LJ          -1.17441        -2.02873       -0.359474
LJ           1.34749        -1.14825       -0.658519
LJ          -0.80174        -1.91571         1.02563
LJ          -2.39479         -1.5763         2.15966
LJ           2.28404       -0.147014         1.73147
LJ            1.4084        0.218358         1.21025
LJ          0.605589         1.83963       -0.848206
LJ         -0.255851        -2.46315        -1.93867
LJ         -0.279548        0.735979       -0.293766
LJ           -0.3025          1.0199         1.53119
LJ         -0.292514         2.29801       -0.203393
LJ          0.829107       -0.545553        -1.20274
LJ         0.0744715       -0.426644          1.2497
LJ          -2.48686         1.24261       -0.736569
