108
#Comment!
LJ          -1.52676        -2.37368        0.818748
LJ           2.42808         2.55692        0.991366
LJ          -1.60101         1.73131       -0.471564
LJ          -0.15512        0.311777        -2.28947
LJ           2.29782        -2.42452       -0.211189
LJ          -1.09681         1.37665         0.26385
LJ           1.03842         1.14002       -0.685426
LJ          -1.72012         1.22874        -1.36966
LJ          0.784937        -2.30859         1.49211
LJ           2.14504        0.432487         1.34007
LJ              -nan            -nan            -nan
LJ          0.647437        -2.46329       -0.653701
LJ           -2.3557       -0.235903          2.5477
LJ              -nan            -nan            -nan
LJ           2.26634        -1.36689        -1.63509
LJ              -nan            -nan            -nan
LJ              -nan            -nan            -nan
LJ              -nan            -nan            -nan
LJ           -1.0391       -0.764204        -1.06825
LJ              -nan            -nan            -nan
LJ          -2.23791         2.43293         2.53575
LJ           1.08265         1.19231        -1.81083
LJ          -1.65734       -0.476855        -0.90729
LJ              -nan            -nan            -nan
LJ          -1.38142         1.21143         2.04915
LJ          0.453849        -1.89177          2.0738
LJ         -0.839904         -1.1226       -0.563972
LJ          -1.83258        -1.08481         1.28508
LJ          0.147517         0.49917        -2.36959
LJ          -1.86806         -1.7243         2.44997
LJ              -nan            -nan            -nan
LJ          -1.22466       -0.527087         1.08117
LJ              -nan            -nan            -nan
LJ          -2.35523        0.529972        -2.50967
LJ              -nan            -nan            -nan
LJ          -0.74448        -1.18032         1.44539
LJ          0.809361        -2.34371           1.013
LJ          -1.71046         1.75093        0.659647
LJ         -0.301403         1.46515       -0.581276
LJ          -1.42967         1.55606        0.745442
LJ           1.92468           1.712         2.04821
LJ          -1.79735       -0.428748        0.214089
LJ          0.535392        0.562989        -2.00397
LJ          -1.20925        -1.60116        -2.11543
LJ         -0.101312         1.83414        -1.78804
LJ         -0.289557       -0.959922         1.21889
LJ          -1.42863        -2.49659        0.433981
LJ        -0.0472127        -0.41668         2.06054
LJ           1.51024       -0.659853        -2.19063
LJ           1.08973        -1.09582       -0.376139
LJ        -0.0136004        -1.12935         1.95832
LJ           2.29168          1.7995        -1.94177
LJ              -nan            -nan            -nan
LJ           1.25888          2.5065         2.02433
LJ           1.34957        -1.38596        -1.26309
LJ          0.171286       -0.947386        0.930138
LJ           1.37683         1.59727       -0.913972
LJ           2.43083        0.965825        0.663192
LJ            2.1996        -1.94267        0.752042
LJ          0.528683         2.20415         1.59415
LJ          -1.26726         1.25845         1.43864
LJ           1.10692       -0.537029        -2.12634
LJ        -0.0856325        0.951426         1.02387
LJ              -nan            -nan            -nan
LJ              -nan            -nan            -nan
LJ          -1.54563       -0.315245         1.39607
LJ          -1.87665        -2.44149       -0.302753
LJ              -nan            -nan            -nan
LJ         -0.877172        -1.65884        0.107472
LJ         -0.642158          -1.642        0.940461
LJ           2.16759        -2.12041         -1.5552
LJ         -0.300003        0.767093         1.40186
LJ            1.9022         1.98968         1.87989
LJ         -0.205523         2.56211         1.29388
LJ           1.92072         1.80011       0.0341455
LJ         -0.577812        -2.43682        -2.06732
LJ          0.548871        -1.01484      -0.0606003
LJ          -2.28354         1.76371         0.97216
LJ          -1.48994        -2.31439         2.32308
LJ          -1.25846      -0.0521112        -2.12247
LJ          0.337814        -2.01399         1.46293
LJ           2.41301         2.00147         2.24893
LJ           1.79121         1.66659         1.61729
LJ         -0.929467       -0.708521        -2.26328
LJ           1.70475         1.65725        -2.13397
LJ           1.25868        -1.31681        0.861274
LJ          0.313805         2.48999        -1.54323
LJ           1.54058        0.662804        0.552656
LJ           1.71679        -1.08929         2.27407
LJ          -1.72502        0.799954        0.202365
LJ              -nan            -nan            -nan
LJ           0.52958        -1.29608         1.29437
LJ          0.235273        0.362928       -0.330752
LJ         -0.516721       -0.330497         2.23339
LJ           1.77049         1.50727        -1.94327
LJ           1.41016       -0.988143         1.23421
LJ           1.78912        0.271483         1.44158
LJ           1.28811        0.352938        0.575956
LJ              -nan            -nan            -nan
LJ           1.43535         1.16001        -2.47893
LJ          -2.10046       0.0368924        -1.69089
LJ           1.06436       -0.803888        -2.30201
LJ         0.0172863       -0.197734        -1.25013
LJ          0.466425        -1.09684         0.48338
LJ              -nan            -nan            -nan
LJ          0.828677       -0.987916        -1.62569
LJ          -1.03818        -1.46767        0.887807
LJ              -nan            -nan            -nan
