108
#Comment!
LJ        -0.0719766       -0.125848         1.14512
LJ         -0.487632         1.17074        -2.45589
LJ          -1.66976        0.866522        -1.78666
LJ         -0.786041        0.711104         1.23688
LJ           1.20373         1.48646        0.951609
LJ          -1.51842       -0.513507         1.83751
LJ            2.4867       -0.109044        -1.54365
LJ           1.62941         1.18967        0.145547
LJ           1.37706        -1.52426         1.65768
LJ           1.60322        0.185707         1.24941
LJ              -nan            -nan            -nan
LJ          -2.16705       -0.219026        -1.80213
LJ             1.357        0.769608        -1.27057
LJ          -1.94516         2.48378         1.99547
LJ          -1.13993         1.22929       -0.829916
LJ          -1.13097        -2.48754        -2.45507
LJ          0.555229       -0.907427        -1.71948
LJ          -1.64721         1.51652        -1.78385
LJ          0.727889         1.47636         1.20098
LJ          -1.08917       -0.438571         2.06419
LJ            1.6986       -0.744575         2.09945
LJ         -0.324477        0.685353        -1.33889
LJ         -0.131967         1.21136       -0.486648
LJ          -1.31534        -1.16102         1.00165
LJ          0.208559        -2.39149        -2.47072
LJ           2.19783        0.763558        -2.48735
LJ           1.68975         2.52695       -0.444974
LJ          -1.88136        -2.31098      -0.0573542
LJ         0.0742191        -1.24674         1.60009
LJ          -2.52764       -0.741876        -2.23082
LJ          -1.79868          0.5454        -2.11455
LJ           1.54488       -0.123045          1.1955
LJ              -nan            -nan            -nan
LJ         -0.715889         1.87002        -1.59496
LJ              -nan            -nan            -nan
LJ            2.2428        -1.06614        -2.30508
LJ         -0.805178         2.04639        0.774951
LJ           1.51895        -2.43396        -2.43391
LJ         -0.322766       0.0770692        -1.75077
LJ          -1.66517       -0.107706        0.103617
LJ          -2.52445        -2.02138      -0.0144661
LJ          -1.96175       -0.881659       -0.296229
LJ          0.388557         1.49508        -1.48457
LJ          -1.21734        0.593826        0.485941
LJ            2.1967         2.43202        0.553655
LJ           1.21896        -1.75371        0.919719
LJ        -0.0291741        0.173998        -1.49081
LJ          0.733446          1.7525        0.665372
LJ         -0.459795        0.836918        -1.43084
LJ          -2.52512        -1.47367         1.13284
LJ           1.54962       -0.721653          1.9318
LJ           -1.3276        -1.32746        -1.91403
LJ           2.37094         1.52864       -0.644911
LJ          -1.59884        -1.68632        -1.29449
LJ          -1.55575         2.28743        -2.29083
LJ          -1.44425        0.256746        0.221153
LJ          -2.37916        -2.43926        -2.08986
LJ         -0.878311        0.511258        -2.24152
LJ          -1.88486        0.804616         1.23364
LJ          -2.11188        -1.12733         1.30775
LJ          0.326428         1.09076         1.30081
LJ          -2.09942        -1.11486        -1.06357
LJ          -2.06772         0.85201         1.97659
LJ           1.00893       -0.824782         0.95404
LJ           1.61062        -0.27164         -1.6872
LJ         -0.637144        0.467088        -1.84484
LJ          -2.16147         1.39824         2.16369
LJ              -nan            -nan            -nan
LJ           1.95656         1.12493         2.48142
LJ           2.39966         1.48527        -1.18205
LJ          0.555664        -1.75581       -0.126539
LJ         -0.930156       -0.375029         1.57955
LJ          -1.90051      -0.0561346         1.75005
LJ          -1.40955       -0.644345        0.778037
LJ           -1.8334       -0.451888          2.1854
LJ          -0.25662       -0.850176        0.849836
LJ          0.826069        0.135189         -1.5619
LJ           2.06755        -2.15413         2.15438
LJ          0.190903      -0.0139731         1.24053
LJ          -2.10094        0.718857         1.60053
LJ           1.32823        0.155021        -1.11623
LJ          -0.43304        -1.66676      -0.0674314
LJ        -0.0447205        0.316364        -1.87557
LJ          -1.47643        0.758175         1.66262
LJ           2.04349       -0.459142        0.422031
LJ          0.794844       -0.420801         1.72875
LJ          -1.72633        0.402451         1.67811
LJ          -0.87522        -2.38585       -0.486248
LJ          -2.02905        -2.50464        0.736132
LJ          -1.23824        -1.78373        -2.02726
LJ           2.44544        0.771702        -2.02633
LJ         -0.950289        -2.16015         -1.9434
LJ         -0.615382         1.94961         1.43864
LJ           1.99815         -1.5328       -0.868986
LJ           2.31226         2.20186        0.485909
LJ           -2.2044        -1.99677        0.351508
LJ          -1.82256       0.0202564        -2.51072
LJ          -1.71256       -0.141231        0.467426
LJ         -0.186099         1.28657       -0.956114
LJ          -0.90229        -1.67904        -1.73299
LJ          -1.09556         1.44461        -2.16451
LJ        -0.0168358       -0.346234        0.952145
LJ          0.290673       -0.202583         2.04625
LJ          0.959775         1.33804       -0.520889
LJ          -1.05788        0.430394        0.347938
LJ           1.22597        -2.13745        -2.43578
LJ            1.6015       -0.364974         1.70203
LJ         -0.542297       -0.476739         1.31267
