108
#Comment!
LJ          -0.61471        0.487534      -0.0739054
LJ         -0.923829         1.32492        0.265226
LJ           1.45975        0.330603         1.71749
LJ         -0.780003       -0.789357       0.0876702
LJ           1.46274         2.34536          1.6357
LJ           2.47971         1.10376         1.81715
LJ           1.03719        0.640559        0.440784
LJ          -2.32445        0.570583        -2.39103
LJ           1.96534        -0.82853          1.5594
LJ          0.131351        -1.36282        0.283536
LJ              -nan            -nan            -nan
LJ           1.07904        0.312643        0.348669
LJ          0.413812         2.32614        -0.78177
LJ           0.52744        -2.10982        -2.09178
LJ       -0.00977676        -2.10707       -0.237649
LJ           1.69858        -2.10151        0.202575
LJ            0.7954        -1.43158         -1.5029
LJ          -2.31528       -0.690538         -1.8982
LJ          -2.26806         2.02758        0.185244
LJ           1.93931         1.18352         1.45868
LJ           2.39645         2.28406       -0.489444
LJ           2.39609        0.850443        -1.10365
LJ           2.37514        0.602918         -1.7768
LJ           2.27415         1.03527        -2.04799
LJ           1.18748        -2.28517         1.43538
LJ          0.487026       -0.489796        -1.96419
LJ          -0.76589       0.0305851        -0.94251
LJ          0.659812        -2.54616         1.73494
LJ           1.14052      -0.0411521         1.92681
LJ         0.0663257         1.45353         1.17017
LJ           1.35541        -1.13581        -1.18582
LJ         -0.475955         1.80471        -1.98261
LJ              -nan            -nan            -nan
LJ         -0.214718       -0.707192         0.11641
LJ              -nan            -nan            -nan
LJ          -2.26847        -1.54613         0.67979
LJ          -1.74041      -0.0889826       -0.669509
LJ          -1.89159        -2.31261           1.698
LJ            1.3747         2.47904         -2.1098
LJ          -2.05616         1.98697         -1.6618
LJ          0.165726        -1.49278        0.656028
LJ            2.0655       -0.424521         1.36385
LJ          0.360843        -0.84467      0.00756906
LJ          0.179396         0.35084         -0.5747
LJ          -1.92647       -0.904162         1.09841
LJ           1.52128      -0.0687376         2.40046
LJ           0.65618        -1.26542        -1.13058
LJ           1.65041        -2.04074         1.31686
LJ          -2.23643        -1.89477        -2.02227
LJ          -1.86404       -0.318704        -1.78783
LJ           -2.0705         1.82697       -0.375355
LJ            2.2665       -0.129066        0.183256
LJ           -1.4426       -0.567473       -0.824441
LJ          0.736213        0.242476         -2.4527
LJ         -0.445775       -0.246357         1.68831
LJ           1.75509        -2.09073        0.747935
LJ            1.2412        0.741684        -1.54761
LJ          -1.15624        -1.27978       -0.293062
LJ           1.07589         1.94682        -1.84537
LJ          -2.32875        -0.46788        -1.35137
LJ          0.866547        -2.43038        -1.44221
LJ           2.23707         0.24793         0.45705
LJ        -0.0022564         -0.8682        0.778212
LJ           1.28119         0.84442        -1.05761
LJ          -1.49823         2.19583         1.52005
LJ           1.21025        -2.42106         2.54801
LJ           1.14747       -0.579988        -2.21106
LJ              -nan            -nan            -nan
LJ          0.324924       -0.101233        0.828475
LJ          0.589238        0.251746        -2.49681
LJ           2.34525      -0.0671378         -2.3193
LJ         -0.971243      -0.0602019      -0.0745421
LJ          -1.31863        0.960553        -1.82181
LJ          -0.21219          -2.207          1.1719
LJ          0.354444         2.34409         1.99216
LJ           1.10395        0.605358       0.0738451
LJ          -2.30827         2.23374       -0.142791
LJ           2.23979         1.41724         2.35702
LJ          -1.82043        -2.08123        0.871516
LJ         -0.611142        0.749085        -1.17859
LJ          -1.91004         1.59642         2.43824
LJ         -0.911286        -2.27081          2.4858
LJ             1.553       -0.654596         1.25853
LJ           1.39088        -1.54403        -1.73402
LJ          -1.91196       -0.617986        -1.65754
LJ          -1.21938          -1.827        -1.46962
LJ         -0.694547        0.665176         2.38857
LJ         -0.271598         1.72078       -0.384164
LJ         -0.460331       -0.487658        0.333409
LJ         -0.309704       -0.491519        0.443047
LJ         0.0091573        0.153519        -1.04151
LJ           1.52082         1.12705        0.736285
LJ           1.72741       -0.456379       -0.430079
LJ          0.453713        -1.73164        -1.59054
LJ          -1.57235       -0.644224        -1.80166
LJ           2.31172        0.921877       -0.547894
LJ          -1.96023        0.606675         1.37031
LJ            1.5702        0.457905        -1.38797
LJ          0.876377        -1.35618         2.44937
LJ           1.35162       -0.154329         1.03636
LJ          -1.85099       -0.713735         0.93122
LJ          -1.61456        0.967728         1.93811
LJ          0.347157         1.34868         2.29113
LJ          -2.22793        0.223838       -0.999801
LJ           2.40168        -1.82605        0.929624
LJ           2.06883        -1.10116         2.36608
LJ          -1.54242        0.624086          2.0714
LJ           2.52963         2.09334         1.30155
