108
#Comment!
LJ          -1.04575       -0.843829        -2.00943
LJ          -2.33658        0.396087         1.75166
LJ           1.98724        0.391528        -1.09324
LJ          -1.12841        -2.24493       -0.289151
LJ           2.15344         1.76723       -0.944316
LJ          0.338142         1.38641          2.1182
LJ           1.92669      -0.0800161         1.24101
LJ          -2.24078         2.25643        0.964093
LJ        0.00327027       -0.138201       -0.425499
LJ          0.180046       -0.364401        0.841907
LJ              -nan            -nan            -nan
LJ           -1.3112        0.974546          1.6764
LJ          0.762481        0.275837         2.32582
LJ         -0.693619        -1.78946        -1.43703
LJ           2.14235       -0.664607         1.42422
LJ           1.99759       -0.841102        -1.48664
LJ              -nan            -nan            -nan
LJ              -nan            -nan            -nan
LJ           1.61587        0.211023        -2.26985
LJ              -nan            -nan            -nan
LJ          0.141946          2.5428      -0.0963195
LJ         -0.669512        0.632076       -0.537913
LJ          0.399262      -0.0622942       -0.837379
LJ         0.0551202        -2.11131         2.20061
LJ           -1.6606         1.59307        -1.82522
LJ           2.47039         1.46572        -2.47978
LJ         -0.258771       -0.551865         1.40355
LJ          -1.21887       -0.128844        0.775091
LJ          -1.75463        -1.64806          1.0312
LJ           2.54371         1.21604        -2.26551
LJ           1.79824         1.64989         1.20784
LJ            2.4873        -1.23844        0.394301
LJ              -nan            -nan            -nan
LJ         -0.520265        0.286664       -0.388438
LJ              -nan            -nan            -nan
LJ            -1.776        0.865997        0.948618
LJ           1.18809         1.89204         1.29557
LJ          -2.16915         0.16399       -0.789022
LJ           1.80411        -1.74239         1.89228
LJ           1.77956       -0.452853        -0.74166
LJ          -2.41406       -0.928623       -0.883644
LJ          -1.31227         1.84678       0.0849588
LJ          0.902062        0.699106        0.248332
LJ           2.36626      -0.0592553         2.34622
LJ          -1.70019        -2.26809       -0.792991
LJ          -2.54195         2.39133        0.983452
LJ          -1.33494       -0.628634         2.49748
LJ           2.44779        -2.37645         1.52867
LJ          0.828561        0.580132       -0.202932
LJ          -1.96183       -0.669725        -1.00727
LJ          0.595488         -1.5336       -0.972207
LJ          0.200824        -1.77179        -1.75681
LJ              -nan            -nan            -nan
LJ         -0.444824        0.355382        -1.89177
LJ           2.23072           1.197         1.05356
LJ         -0.436244        -1.70934        -2.13586
LJ          -1.37945       -0.286316        -1.73267
LJ           1.04832         1.08923        -2.48599
LJ          -1.50289        -2.47927         0.40253
LJ          -1.14563         -2.2147         1.58175
LJ           2.45019        0.636261        -2.00842
LJ            1.8824          2.2554        -1.63049
LJ          -1.31558       -0.875913        -1.59011
LJ          0.280889       -0.170591        -1.23387
LJ          -2.56192         2.14917        0.117641
LJ           1.27651        -1.53523       -0.216199
LJ          -1.98723         1.95877         1.99598
LJ              -nan            -nan            -nan
LJ         -0.924645        -2.36502         1.38386
LJ          0.903364         1.55299       0.0631032
LJ           1.22472         2.13641       -0.837495
LJ           1.56993        -1.09686         2.00107
LJ          -2.02613        -1.86869         1.31818
LJ           2.30308       -0.137955        -2.16136
LJ           1.08116         0.26045         1.95973
LJ          -2.35942        0.805441       -0.168914
LJ          0.204775        0.164964         2.02646
LJ          -1.81503        0.642504         1.61797
LJ           1.03904         1.25577        -1.24376
LJ          -2.07731         2.08177       -0.498846
LJ          0.633328         2.11589       -0.947369
LJ          0.487495         -1.3076        0.944274
LJ           1.14241         1.68286        0.071139
LJ           2.04847        -1.60339       -0.604374
LJ          0.606709         1.93627       -0.685671
LJ          0.354216        -1.77385       -0.495101
LJ           2.02086         2.13093        0.752086
LJ         -0.510785         1.05665    -0.000590636
LJ         -0.708777        -1.99072        0.630734
LJ           -1.4531        0.878694       -0.570701
LJ              -nan            -nan            -nan
LJ         -0.617935        0.759766         2.22024
LJ          -2.26114       -0.121282        -2.10678
LJ         -0.215034       -0.643579       -0.595944
LJ           2.29889        -1.64973         0.24718
LJ         -0.374115       -0.147958       -0.497026
LJ           2.50784        -2.44839         2.14527
LJ          -1.08849         2.16024         1.03119
LJ         -0.457587         1.99771        -1.84469
LJ         -0.578226       -0.290737        -1.33935
LJ          0.735721        -2.54691        0.549161
LJ          -2.25394      -0.0231394         1.79316
LJ          0.153754        -1.02686         -2.3637
LJ           0.12594        -2.34166         1.62562
LJ           1.84769        -1.78929         1.38457
LJ         -0.211769       -0.458945         1.03313
LJ           1.98053       -0.523402        -2.37222
LJ              -nan            -nan            -nan
