108
#Comment!
LJ           -1.2681         1.88595         1.26318
LJ          -1.58375        0.953675        0.366472
LJ          -1.23538         -1.2215         1.51038
LJ           1.75909        -1.38461        0.258675
LJ           1.23514         2.21251         1.84377
LJ         -0.840976          1.7243        -1.79545
LJ         -0.554445         1.41201        0.318494
LJ           1.90651        0.458554         1.78015
LJ         -0.571913        -0.65032         0.84712
LJ          -2.10658        -1.51143         1.18444
LJ              -nan            -nan            -nan
LJ           1.78621        -1.77218        -1.16795
LJ          -1.16508        -1.68362         2.49585
LJ           1.20489       -0.290927        -1.14002
LJ        -0.0991158       -0.123211        0.312891
LJ         -0.524217         -2.5527         0.45122
LJ              -nan            -nan            -nan
LJ              -nan            -nan            -nan
LJ          -0.86394        0.539346         1.73447
LJ              -nan            -nan            -nan
LJ         -0.493209        0.910868        -2.09616
LJ         -0.252024        -2.31358       -0.144668
LJ           1.55842        -2.10012        -2.00078
LJ          -1.25235        -1.32809        0.318774
LJ           1.51224         2.29813         2.22474
LJ           1.58059       -0.176515         1.26908
LJ          0.564739         1.16611        -0.34947
LJ           2.39045       -0.805947       -0.894786
LJ          -2.34266         1.23642        -1.01225
LJ         -0.100188          -2.459         1.93808
LJ         0.0884613        -1.72242        0.620718
LJ           -0.6492        -2.50955         1.27296
LJ              -nan            -nan            -nan
LJ          -2.02075         1.20406        -2.53825
LJ              -nan            -nan            -nan
LJ           1.23705        -1.50728        -1.06626
LJ           2.17022        -2.25567        0.298217
LJ          -1.15288        -1.28487        -2.42841
LJ         -0.743233        -2.03277        -2.31519
LJ           1.38219        -1.92762       -0.405321
LJ           -1.8006         1.37412        0.442149
LJ           -1.7808       -0.874008         1.66646
LJ          0.655585         2.42802          1.6232
LJ          -1.94452         1.68791      -0.0761734
LJ          -1.82808         1.07051        -2.19241
LJ         -0.546977         2.54727        -1.97451
LJ           2.31165         1.73231         2.33109
LJ         -0.901936       -0.637898        0.740364
LJ           0.12626       -0.777552        0.828026
LJ         -0.490777        -0.97697        0.941805
LJ          -1.89323         2.24171         1.09305
LJ          0.541059        0.593192        0.282388
LJ              -nan            -nan            -nan
LJ           1.81525        -1.04529        0.599283
LJ          0.382186        -2.43955        0.340348
LJ           2.51283       -0.246298        0.930689
LJ          -1.89979        -1.52559          1.9404
LJ          -1.77204       0.0214104        -1.96982
LJ           1.68761        -1.44546        0.841396
LJ          0.131561       -0.118774         -1.9297
LJ          -2.11285       -0.155818        -1.59371
LJ          -2.30777       -0.604943        0.467987
LJ          -2.02097        0.897958         1.80414
LJ         -0.289254       -0.950906        -2.08986
LJ         -0.249447        0.872673         1.63817
LJ          -1.08415         0.38224        0.457018
LJ          -1.50558         1.20359       -0.261181
LJ              -nan            -nan            -nan
LJ          -0.86196       -0.378064        -2.09351
LJ          0.930045          0.5834       -0.441288
LJ          -2.25486       -0.739594       -0.290454
LJ         -0.588816        0.241083       -0.504689
LJ          0.300463         2.26394         0.64993
LJ          -2.37177         2.55745        -1.65616
LJ          -1.96571       -0.168072         0.63246
LJ          -1.79373       -0.876737        -1.74454
LJ          -1.83684       0.0409122         1.34737
LJ           1.47168         1.56678         -1.2246
LJ           2.47849       0.0620033        -2.12367
LJ         -0.711191         1.35414        -2.42793
LJ          0.209176       -0.788303         2.44562
LJ           2.39837        -1.07092         1.45538
LJ          0.418554        0.523391         0.17502
LJ           1.81642        -2.54525        -2.13502
LJ           2.30559         1.09975        0.343214
LJ           1.77821        -0.80189       -0.470798
LJ           1.36165        -1.67227        -0.68022
LJ           -2.2568        -1.08129       -0.836154
LJ          -1.50997        -1.11108         -1.3295
LJ          0.814392         1.33866        -1.21361
LJ              -nan            -nan            -nan
LJ         -0.323697       -0.443933         2.42453
LJ          0.942523       0.0852864        -1.56523
LJ           1.63093       -0.850256         1.32222
LJ           1.74022        -1.02457        -1.03106
LJ          -2.00046         2.28116         1.17095
LJ          -2.23573         2.19251        0.710672
LJ         -0.706763         1.70367        -1.13849
LJ            2.1004         -2.2817        0.386692
LJ            1.6246        0.502169       -0.977026
LJ          0.438287        -1.95451         1.64053
LJ           2.23428       -0.866476         1.44859
LJ          -2.23966        0.621342        -1.51763
LJ          -1.84144       -0.218002        -2.34753
LJ         -0.527741       -0.729435         1.63631
LJ          -2.42496        -1.32205         -1.7442
LJ         -0.278556        -2.07006        0.783352
LJ              -nan            -nan            -nan
