108
#Comment!
LJ         -0.158651         1.84668         2.00913
LJ          -1.39139        0.614793        -1.49521
LJ           1.02578         2.09498         2.52225
LJ          -2.21499        0.777926        -2.32792
LJ          -2.01096         2.41396         1.19362
LJ         -0.838659        0.382524        -2.24044
LJ          -2.32792       -0.476045        0.587093
LJ          0.424384         1.39216        -2.04008
LJ         -0.189138           1.195        0.946095
LJ          -1.69951         1.83484       -0.154499
LJ              -nan            -nan            -nan
LJ           2.54885       0.0242587       -0.104299
LJ          -2.25558        0.691331         1.81727
LJ              -nan            -nan            -nan
LJ          0.867378         1.07105         1.41714
LJ              -nan            -nan            -nan
LJ              -nan            -nan            -nan
LJ              -nan            -nan            -nan
LJ           2.32799        0.648216         1.67365
LJ              -nan            -nan            -nan
LJ          0.300009         0.10851       0.0228921
LJ          -1.78993        -1.72066         1.56334
LJ          0.670241         2.56038      -0.0404291
LJ           2.09891         1.94296         1.75822
LJ           2.34021        -1.03021         1.34858
LJ           1.46405         1.87223       -0.347458
LJ          0.266642        -1.01866        -1.91357
LJ           1.95538         2.40934        0.398715
LJ         -0.880157       -0.503982        0.520784
LJ         -0.565416       -0.709716         2.12947
LJ              -nan            -nan            -nan
LJ          -1.62559        0.522678      -0.0930163
LJ              -nan            -nan            -nan
LJ           1.39302        -1.16117       -0.919136
LJ              -nan            -nan            -nan
LJ         -0.150197         2.27467         1.89217
LJ           2.39685       -0.939559        -1.82885
LJ         -0.795546         2.35622        -1.57249
LJ         -0.212672         2.36431          2.2334
LJ        -0.0843742         0.13403        -1.48459
LJ          0.731079       0.0205509       -0.121367
LJ           1.68689       -0.386232        0.360918
LJ          0.011461       -0.595972        -2.28138
LJ          -1.70353         1.60957        -1.89805
LJ         -0.592369      -0.0107389         2.47059
LJ           1.49304        -2.55367         0.92554
LJ         -0.489392         1.99514       -0.552745
LJ           1.55179         2.14813        -2.40054
LJ          0.825291       -0.978901        0.116359
LJ           1.20073         1.08568        -2.52428
LJ          -2.36032         2.10468          2.0749
LJ          -2.13423        -1.71078         1.59502
LJ              -nan            -nan            -nan
LJ          -0.55906        -2.54124         1.33121
LJ          -1.90424         2.21537       -0.356155
LJ           1.51493       -0.296972         2.40063
LJ          0.333793       -0.423821        -1.54675
LJ            1.4043        -2.36787        0.104942
LJ          0.590266         1.81702       -0.752129
LJ         -0.563956         1.73277        -1.99967
LJ          -2.43411        -1.36612        0.310642
LJ        -0.0864707         1.49088        0.943453
LJ           2.21209        0.542128        -2.03024
LJ           2.25016         2.25542        0.305802
LJ              -nan            -nan            -nan
LJ         -0.470612        0.678553         2.32999
LJ         -0.143496         -2.0677         1.98521
LJ              -nan            -nan            -nan
LJ           2.13922        -1.74843      -0.0611318
LJ          -0.32734       -0.701275         2.33069
LJ         -0.596473        -0.55843        0.811929
LJ         -0.993961         1.77199         1.09986
LJ           -2.1593         2.30342        0.573995
LJ           -1.5054      -0.0675606      -0.0641257
LJ           1.83999         2.53276        -1.69328
LJ          -1.79099         0.90199        -0.53289
LJ          -1.29424      -0.0709242        -1.87698
LJ          0.492076        -2.18301        0.495111
LJ          0.841271        -2.44142        0.237257
LJ         -0.570475       0.0931832        -1.26858
LJ         -0.436081         1.69677         1.56099
LJ          -1.46003         1.03269        -1.66214
LJ           1.69035        0.619981        -2.37454
LJ           -1.3039       -0.765684        0.335397
LJ          0.740213        -2.06872         2.01876
LJ         -0.679672        -1.75668        0.557701
LJ          -1.80558       0.0565742        -1.67017
LJ          -1.07799       -0.544136        0.221091
LJ           1.13218        -1.10862        0.322448
LJ          -1.22179        -1.79124        -2.10871
LJ              -nan            -nan            -nan
LJ          0.658819        -2.19531         1.84343
LJ           2.24585       -0.627044       -0.456324
LJ           0.10835        -2.48402        -2.04233
LJ          0.917141        -1.94009       -0.403013
LJ          -1.28173        0.800366        -1.06861
LJ          0.882487        -1.81128         1.44922
LJ           2.25419        -1.79724        -1.06519
LJ              -nan            -nan            -nan
LJ           1.37653       -0.686437         2.54193
LJ          0.895971       0.0128731        -1.26902
LJ         -0.892485        0.556074        -1.68163
LJ          0.489969        -2.30218         -0.4249
LJ         -0.328135         2.01847       -0.403139
LJ              -nan            -nan            -nan
LJ         -0.735807          1.4744        0.526654
LJ            1.4447         1.69161       -0.225746
LJ              -nan            -nan            -nan
