108
#Comment!
LJ          -1.09837         1.45152        0.471733
LJ          -2.15838         1.52624        -1.56163
LJ           2.03092         2.20633         1.76491
LJ           1.59159         1.98478         -1.3377
LJ           2.09458        -1.39107       -0.272031
LJ        -0.0630712        0.898871         1.75783
LJ          0.114233        0.664516        -1.74113
LJ          -1.51081       0.0902628          2.0537
LJ          0.126413         1.01879        0.868163
LJ          0.758932         2.38066         2.10691
LJ              -nan            -nan            -nan
LJ          0.576383        -1.07746      -0.0238439
LJ         -0.803617         1.49289       -0.204178
LJ         -0.901631       -0.577424         2.15215
LJ          -2.13853       -0.117303        0.947053
LJ         -0.799679        -2.47811      -0.0895829
LJ              -nan            -nan            -nan
LJ              -nan            -nan            -nan
LJ            2.4665        -0.83069         1.99136
LJ              -nan            -nan            -nan
LJ         -0.413107        -1.72857         1.13465
LJ         0.0993423         2.12899         1.88607
LJ          0.317282       -0.811026         2.17444
LJ           -1.3323       -0.362889         1.90373
LJ          -2.51349       -0.427975         1.91584
LJ           2.31488        0.378561        -1.86079
LJ            1.1791       -0.231333        -2.28715
LJ         -0.774422        -1.05395        -1.99431
LJ         -0.485199        0.899033        0.366549
LJ           -1.2756       -0.596796        -2.21577
LJ           2.27682        0.294817       0.0502564
LJ           1.09232         0.53165        0.545066
LJ              -nan            -nan            -nan
LJ          0.132427        -0.70078         0.88289
LJ              -nan            -nan            -nan
LJ          0.631943       -0.955765       -0.600279
LJ           1.80292        -1.37488         1.02149
LJ           2.15911       -0.706107       -0.316372
LJ          -1.09576        -2.53861        -1.37089
LJ          -1.65506        -1.33539        -1.97579
LJ           1.42694         1.07755        0.579982
LJ          -1.45313        -2.17969        -2.04169
LJ           1.29279        -1.46215        -1.78549
LJ           1.69057         2.33458       -0.690204
LJ          -2.23122         1.49496         -1.6584
LJ           1.85055        -1.36357       -0.490741
LJ         -0.627138        -0.77232      -0.0943019
LJ           1.56441         2.39526        -1.89669
LJ          -1.25274       -0.679985       -0.349969
LJ         -0.900446        -1.00677         1.76652
LJ          -2.08578         2.19827         -2.5281
LJ          0.837249       -0.783265         1.35114
LJ              -nan            -nan            -nan
LJ         -0.561334         1.11189       -0.428974
LJ          -0.80723        -1.63401       -0.153632
LJ           1.28926        -2.28122        -1.47701
LJ           2.27099          1.9857        0.794647
LJ          -1.92698        0.483838        -2.14029
LJ            -1.917         0.80796       -0.611804
LJ          -2.10278        -1.45532     -0.00974533
LJ           1.39185        0.950292         -1.4722
LJ         -0.836968        0.589188         2.56285
LJ         -0.495917        0.381071        0.492876
LJ          -0.46545       -0.702699        -2.55251
LJ          -1.01827         2.14804         1.95075
LJ          -1.35622        0.193963         1.95902
LJ           -1.7795         2.52471       -0.757719
LJ              -nan            -nan            -nan
LJ           1.70591        -2.33097       -0.126038
LJ           2.46454        0.284097        -2.03875
LJ         -0.577609        -1.39264          1.3397
LJ          0.523932           2.327        -1.36118
LJ           2.19942         2.56275       0.0212334
LJ         -0.598219        0.377068        -1.60061
LJ           2.53151         2.41401         1.65704
LJ          -1.04945         1.10811        -2.40547
LJ           1.90257         2.11197        -1.14915
LJ          -2.17729        -1.22409        0.299882
LJ            1.8199       -0.901508        -2.07644
LJ          0.838916         2.02925       -0.185204
LJ         -0.584497        0.193464        -2.16334
LJ          -1.83874        -1.11543        -2.36362
LJ          -2.00406        -1.63348        -1.11582
LJ         -0.768114       -0.785456      -0.0491596
LJ           1.91577        -1.90808        0.342481
LJ          0.436588         1.83698      -0.0920875
LJ          0.985787         2.36155        -1.63778
LJ          -1.02703         1.05573        -1.40729
LJ           -1.4811         1.83033        -2.50348
LJ          -1.15083        -1.55356         2.39092
LJ              -nan            -nan            -nan
LJ          -1.68689        -2.33846       -0.592661
LJ           1.99224         1.79185         2.48257
LJ           1.29242         1.92087        0.417213
LJ            1.1293        -2.43612        -2.45462
LJ         -0.306413         1.45984        0.254918
LJ           1.19462         1.28813       -0.112991
LJ          -1.16582       -0.648033       -0.644146
LJ           1.36921         2.20691         1.75826
LJ           -1.7046        -2.12316       -0.112203
LJ           1.86392        -1.40321        -2.38474
LJ          -1.45443      -0.0377875        -1.04581
LJ          0.372057         1.93189       -0.317834
LJ         -0.208721        -2.43686        -1.85397
LJ          -2.10587         1.42698       0.0989743
LJ          0.839836          -2.049         -1.9201
LJ         -0.368483        -2.23485       -0.878701
LJ              -nan            -nan            -nan
