108
#Comment!
LJ         -0.787813        -1.43549        -0.98901
LJ          -1.02769         1.11468       -0.263471
LJ           1.05942         1.57327          2.4781
LJ          0.164238        -2.52308           2.542
LJ           1.07605         1.48869        -2.30662
LJ           2.11568         2.12182         0.17806
LJ           2.53216        -1.67033          1.3844
LJ            2.0607         1.88803        -2.00983
LJ           -2.1392        -1.91784       -0.613568
LJ          -1.85248        0.308608         1.77275
LJ              -nan            -nan            -nan
LJ          -1.35695        -1.37832        -1.66436
LJ          -1.74202         2.25821        0.130318
LJ          -1.27013         2.43492        0.239595
LJ          -2.49967         1.60268        0.494137
LJ         -0.247698       -0.941682        0.803638
LJ           1.29805        -0.50482        -1.81461
LJ          -2.28237          1.9069       -0.193456
LJ           1.97509       0.0993473        -2.53363
LJ           1.34513        -1.49827        -1.62029
LJ           2.23288        0.910091         2.01644
LJ            0.0376        -0.66592        0.778301
LJ           2.20896        0.784659        -2.49004
LJ          0.157863      -0.0280462        -1.28631
LJ            1.2813        -1.68451         2.54943
LJ           0.70752        -1.29837         1.30666
LJ           -1.6845         -1.7385         1.10823
LJ            1.2632        -2.29491        -1.67671
LJ         -0.759519       -0.754209       0.0198605
LJ          -2.44588        0.482031        -0.38043
LJ           1.99039         1.67747       -0.307423
LJ          -2.35165        -2.52893        -1.06511
LJ              -nan            -nan            -nan
LJ           1.38369         1.62949         2.44532
LJ              -nan            -nan            -nan
LJ         -0.489511         2.54824         1.91278
LJ         -0.194765        0.125899        0.458919
LJ           1.97062        -1.87751         1.94577
LJ           1.31369          0.1971         2.27637
LJ           1.43755        0.607079        -1.88989
LJ           2.55389         2.50761        -2.05354
LJ          -2.18263        -2.50082         2.04406
LJ          0.227476       -0.553724         1.91757
LJ           1.23768       -0.995291        -1.53338
LJ          0.870406        0.409593       -0.837916
LJ       -0.00984094         2.26627       0.0665413
LJ          -1.89251       -0.217688        0.849033
LJ          -1.53925         2.01543         2.25284
LJ        0.00370409         1.46403       -0.773433
LJ         -0.433339         1.72679        0.393545
LJ            1.6755         1.63931        -1.96492
LJ         -0.262983         2.43308          1.9442
LJ           2.16217           2.001       -0.250638
LJ          -1.49597        0.159467        0.962965
LJ           1.69062         1.98089        0.587379
LJ         -0.600732        0.804989         2.52371
LJ           2.38658        0.152006        -2.48871
LJ          -2.46361       -0.369991       0.0373106
LJ             1.079        0.532794        -1.80895
LJ           2.31021        -1.02709        0.557328
LJ           2.04414        -1.17867        -1.24211
LJ          -0.32752         1.35386        -1.25824
LJ           0.17634        -1.41148      -0.0325015
LJ          0.738743         1.40246         1.71794
LJ          -1.10736           1.954         -1.1731
LJ           1.53245       -0.670372       -0.772436
LJ           1.36536        -0.76262        0.288041
LJ              -nan            -nan            -nan
LJ         -0.984272        -1.26134        -1.72281
LJ          -1.61026        -1.34075         2.37414
LJ           -0.8414       -0.825122         2.40296
LJ           1.01906       -0.247298         2.48231
LJ         -0.620872        -0.65022         1.11902
LJ           1.62144         1.55065       -0.410635
LJ          -1.22413        0.511818       -0.763249
LJ          0.967639          2.1113         0.20772
LJ        -0.0634152        -2.37351        -1.32273
LJ           2.27879         1.50162         2.28652
LJ           1.86662          1.7875       -0.736108
LJ         -0.458953         1.35606        -2.49363
LJ          -2.08828       -0.307732        -2.19568
LJ           1.12645        0.769511         2.55264
LJ          -2.07395         1.51275        -1.51543
LJ          0.904579         1.86644         1.22499
LJ         -0.288262        0.949807         2.35273
LJ          -0.90786       -0.517399       -0.967343
LJ           1.64238         1.57927        -1.23532
LJ          -1.45798         -1.0082        -2.22294
LJ          -1.04767         1.32346          1.7015
LJ           -0.9251        -1.03791         1.22381
LJ           2.51077       -0.213238        -1.02433
LJ            1.4881       -0.944057        -1.34117
LJ          0.657356        -1.35105        -2.36269
LJ          0.754707        -1.25079         2.05212
LJ           -2.4799        0.134288        0.751316
LJ          0.570784       -0.118145         2.22429
LJ         -0.494116        0.032977         2.20983
LJ          -1.08976        -2.17528         1.02082
LJ          0.501096         2.01777         2.01584
LJ           -1.0851        0.179058       -0.090787
LJ          0.246097         1.96172        -1.76029
LJ           2.53418         2.26337        0.915949
LJ            2.4335         2.19979        -1.74813
LJ         -0.389485        -1.07542        0.756479
LJ          -1.23352         1.64035       -0.821411
LJ          -2.26137       -0.504047         -1.1895
LJ          -1.41098        0.371578        0.875088
LJ           1.26031        -1.65482         1.48718
