108
#Comment!
LJ          0.891633      -0.0942149        -1.87777
LJ         -0.981141         -0.8124         -1.6597
LJ            1.2019        -1.53623         2.29092
LJ          0.514956         1.20435         1.10675
LJ          -2.41232          1.7217        0.683449
LJ        -0.0380839         1.35001       -0.374994
LJ           1.73833        -1.96955        -1.17138
LJ          0.710633       -0.875542       -0.553713
LJ          -2.49487        0.992349        0.602731
LJ          -2.10525       -0.658804        -1.12714
LJ              -nan            -nan            -nan
LJ          -1.90369         1.24971         2.37298
LJ          -2.28754         -1.3755         1.62585
LJ              -nan            -nan            -nan
LJ          -2.22343        -1.31302         2.14977
LJ              -nan            -nan            -nan
LJ              -nan            -nan            -nan
LJ              -nan            -nan            -nan
LJ         -0.643302         1.22114        -1.08216
LJ              -nan            -nan            -nan
LJ          0.454869        -1.93724         1.61656
LJ           1.75943       -0.910072        0.448473
LJ          -1.24596       0.0614073        -1.86736
LJ          0.659756         -1.7973        -0.19708
LJ           2.04097       -0.284688        -1.50875
LJ          -2.52795        -0.22484        -1.08496
LJ          -1.96178        -1.10021        -1.72925
LJ         -0.461462        0.478435       -0.989682
LJ           1.52314         2.52966        -1.69629
LJ           -1.7791       -0.480987         1.13718
LJ          -1.66306        -1.62941         2.16127
LJ         -0.827976       -0.913563         2.35361
LJ              -nan            -nan            -nan
LJ           1.90699       -0.518742        -2.19918
LJ              -nan            -nan            -nan
LJ          -1.92083         1.29622         1.14962
LJ          0.404204         1.17449        -1.14363
LJ         -0.207149       -0.975567       -0.994795
LJ          -1.63595         1.22734        -1.83422
LJ          -1.45426        0.322729        0.519325
LJ          -1.72275       -0.655656        -2.24564
LJ         -0.394644      -0.0173213        0.276341
LJ          -2.41663         1.54394        -1.45907
LJ           2.37169        -2.26039        -1.62293
LJ          -2.43451         1.94426       -0.559398
LJ          0.522227        -2.16267         1.60301
LJ           2.31876        -2.51728         -1.7605
LJ          0.544775          2.1925       -0.429941
LJ          -1.67672       0.0847269       -0.309055
LJ           2.50623        -1.99611      0.00916096
LJ          0.544956       -0.858524         -2.2094
LJ          -1.14323         2.03005       -0.332016
LJ              -nan            -nan            -nan
LJ           1.17444        0.302423         2.24438
LJ          -1.88088       -0.789154         1.32916
LJ           2.12863         1.70537         1.42263
LJ           1.39358        -2.08022        0.665633
LJ           1.25134          1.4547         1.03945
LJ         -0.440864        -2.50321        0.309776
LJ           0.14216       -0.154143        -0.11671
LJ           1.29265        -1.89315        0.587473
LJ       -0.00518337          1.6278     -0.00373638
LJ           2.16051        -1.97337        -2.24413
LJ          0.788493         1.24111        0.487927
LJ         -0.234007       -0.585266          1.2204
LJ          -2.13167        -1.83863         0.67404
LJ          -1.64057          1.1212         1.55961
LJ              -nan            -nan            -nan
LJ        -0.0934734        -1.73452       -0.218183
LJ           2.48562        0.638287        -2.35287
LJ          0.728423       -0.754669        -1.61687
LJ          0.895395        -2.18788        0.488128
LJ          -2.10223        0.972503        -1.60606
LJ           1.67313        -2.33956        0.601595
LJ            1.3677        -1.87748       -0.553895
LJ         0.0725546       -0.381605         1.46849
LJ         -0.108785        0.217225         1.60849
LJ         -0.400422        -1.45612         2.38093
LJ           1.18003        -1.75903          0.6535
LJ         -0.392641         1.53881        -1.35554
LJ          0.310907        0.243231       -0.776348
LJ           2.48851       0.0844661        -2.16844
LJ          -1.49436         1.61203        0.957633
LJ          0.563578        -1.66426        -1.00951
LJ         0.0496923        0.585756         2.03699
LJ            1.6963      0.00513373        -1.11732
LJ          0.912014        -1.85881       -0.195718
LJ          0.138492        0.118842      -0.0674143
LJ          0.926862         1.35971        -2.31402
LJ          0.132865         1.62484         1.23356
LJ              -nan            -nan            -nan
LJ           1.09435        -2.50477        0.930031
LJ           1.03881        -1.78772        0.433707
LJ          0.344524        0.967966        0.982454
LJ           1.16607        -2.44098       -0.553655
LJ         -0.762264       -0.610886         2.28303
LJ          -1.03514         1.58885       -0.652191
LJ          -1.28676         2.47667        -2.08966
LJ              -nan            -nan            -nan
LJ           2.36942         1.11655         2.00245
LJ          0.876286        0.521006         1.40437
LJ             2.513       -0.539257       -0.944854
LJ           1.23213         1.39434        -2.40852
LJ          -1.87331        -1.80133       -0.636399
LJ              -nan            -nan            -nan
LJ            1.9508        0.331842         1.99353
LJ          0.763099       -0.770146         2.45889
LJ              -nan            -nan            -nan
