108
#Comment!
LJ           1.14974        0.640232        -1.54271
LJ          -1.53365        -1.86125        0.135508
LJ           1.11171       -0.846629         1.03046
LJ           -2.0719         1.78234        -1.60906
LJ         -0.862242         2.37513       -0.105639
LJ          0.494148        0.779614         1.86275
LJ          -2.03293        -2.26824         1.59315
LJ           1.32247        -1.41367         2.00178
LJ           1.29512        -2.06963        -1.01911
LJ           1.79546          2.1387      -0.0125562
LJ              -nan            -nan            -nan
LJ           -1.3184       -0.233861         -1.7347
LJ          -1.66352         1.10315         1.85432
LJ          -2.47268       -0.455538       -0.664932
LJ          0.110817       -0.983851        0.506352
LJ           1.34778        0.607279        -2.36206
LJ           1.36688        -1.73483       -0.446717
LJ          -2.08968          1.5157         1.46186
LJ           2.14431          1.3652        0.480818
LJ           1.07332         2.35258        0.380956
LJ         0.0967642       -0.941909       -0.179721
LJ         -0.801111       -0.558354         2.10247
LJ           2.33618         1.96909       -0.685412
LJ          0.159958         1.57922       0.0674675
LJ          -1.60081        -1.23091        0.633446
LJ           1.27613        -2.42439        -1.54992
LJ         -0.264382         1.38337        0.939806
LJ         -0.689588         1.56362        -2.52839
LJ         -0.156917       -0.733541         -1.3758
LJ           2.29045       -0.145181         1.61273
LJ          -1.41819        0.376246         1.29478
LJ           0.37325         1.59517        -1.68352
LJ              -nan            -nan            -nan
LJ           2.16941        -1.44594       0.0196576
LJ              -nan            -nan            -nan
LJ           1.04736        -1.50305         -1.4448
LJ           0.35036        0.845835        -2.08849
LJ          0.201452         -1.8017        -1.44897
LJ          0.201596        -1.61108         -1.1324
LJ          -1.55417         1.21012        -1.41482
LJ          -2.38536        0.650895        -1.27418
LJ           1.98138        -1.23471        -2.25141
LJ         -0.923027       -0.944009        -1.00632
LJ         -0.541549         1.81954        -1.34982
LJ          -0.43226       -0.866759        0.962179
LJ            2.2896        -2.31341        0.916665
LJ          -0.32042        -2.55249        -1.07477
LJ          0.587828         1.41221          1.4168
LJ          -1.05474        0.524205       -0.578418
LJ          -2.04419         1.04012         0.99909
LJ          -2.12816        0.269665         -1.5259
LJ           2.04138        0.708011         1.53923
LJ           1.99221         1.75598        0.356439
LJ          0.227354         1.24059         2.55882
LJ         -0.865905      -0.0387842        -1.23771
LJ          0.485057        0.191296         2.10176
LJ          -2.07524        0.022988        -1.33501
LJ          -2.52366         0.75579        -0.99799
LJ         -0.898201        -2.42749        -1.55799
LJ           1.06106        0.553648         1.19604
LJ          -1.10482         1.95672         1.12445
LJ           2.17213       -0.720547        -2.51378
LJ           2.31293        -1.10771       -0.643827
LJ        -0.0612651        -0.12376        0.706657
LJ           1.97833        0.797418         1.81865
LJ         -0.262301         1.79037         1.63379
LJ         -0.687772        -1.25401         1.20421
LJ              -nan            -nan            -nan
LJ          -1.40164        0.234655          1.5472
LJ           2.41528        0.189156       -0.614752
LJ          -2.33216       -0.439058        -1.45738
LJ        -0.0672265        -1.59152        0.287526
LJ          -1.47338        -1.33473        -2.29898
LJ          -1.18803        -1.70514         2.40404
LJ           -1.9693        -1.53833         1.11478
LJ          -2.43809        0.541953        -1.42482
LJ          0.255466        -2.18341        -1.94962
LJ           1.74372         2.05835          1.9717
LJ          0.373675        -1.85087         2.19067
LJ          -1.28123        -1.63224        -1.98437
LJ           2.17651       0.0689427        -1.44458
LJ          0.695037        -2.41744       -0.932931
LJ          0.837533        0.883811        0.926329
LJ          0.250413         -2.0219         2.16139
LJ          -1.65791          1.6079       -0.606645
LJ         -0.948187        -2.00555         1.26216
LJ         0.0309886     -0.00345695        -1.48907
LJ         -0.650105       -0.687594        0.691862
LJ         -0.836032        -1.20299         1.06924
LJ          0.616795        0.454698          1.0947
LJ           1.01771        -1.78863        -1.04438
LJ         -0.350284          2.5174        -1.97381
LJ           1.00927        0.505017       -0.761132
LJ         -0.464427       -0.720669        -1.41188
LJ        -0.0602463       -0.503805       -0.307975
LJ          -2.31524        -2.00144        -1.22367
LJ         -0.842717        0.165131         1.01165
LJ           1.13579         1.61327        -2.01155
LJ            2.3615       -0.705534         1.78718
LJ          -2.14619        -1.97766         2.07093
LJ         -0.961078          1.7454       0.0627874
LJ          -2.41052         1.33373        -1.38849
LJ          0.942342        -2.30597         2.14909
LJ          -1.66934        -2.00413         2.15162
LJ           2.24528       -0.902947         0.68507
LJ          -1.37176        -1.92209        -2.46924
LJ          -2.30357       -0.111213       -0.210828
LJ          -1.25578       -0.979707        -2.34739
