108
#Comment!
LJ          -1.79728         1.37221         -2.4534
LJ           1.76263       -0.678552         -1.6316
LJ         -0.659252         2.03257         1.52021
LJ           2.49811       -0.183672        0.796554
LJ          -2.10364        -0.62072         1.72216
LJ           1.20297       -0.504298         2.33432
LJ         -0.283891       -0.141855       -0.131304
LJ         0.0767726        0.702197       -0.805827
LJ         -0.500563       -0.444881        -2.21083
LJ          -0.80702        -1.16794       -0.746212
LJ              -nan            -nan            -nan
LJ         0.0036451        -2.05774       -0.657991
LJ        -0.0211539        0.555823        -1.87651
LJ          -1.22739        -1.27565         2.09357
LJ         -0.145647        0.691082       -0.146461
LJ           2.23556        -1.35525         2.47593
LJ              -nan            -nan            -nan
LJ              -nan            -nan            -nan
LJ          0.462646        -1.59743         1.03932
LJ              -nan            -nan            -nan
LJ          -2.15192       -0.176606        -1.79564
LJ           1.49786         -2.1247         1.70715
LJ           1.14618        0.293228        -1.20887
LJ           1.42589         1.04001        0.336831
LJ           1.47867        0.654915        0.949807
LJ            2.5537        0.605163        -1.54632
LJ          -1.89964        -2.36905        -2.02023
LJ        -0.0787014         1.83304        -2.11113
LJ           0.51235         2.36277        -1.32117
LJ           1.68944        -1.32586        0.825578
LJ           2.29484       -0.548677         1.30129
LJ         -0.509117      -0.0501755        -2.09665
LJ              -nan            -nan            -nan
LJ         -0.812745        0.410938         -1.8147
LJ              -nan            -nan            -nan
LJ           2.28581        -2.12673       -0.377354
LJ           2.51813          0.9418        -2.11677
LJ          0.766886       -0.746333       -0.414152
LJ          -2.37309        -2.29751         2.29729
LJ          -1.50144         0.44651          1.6209
LJ          -2.27209        -1.01137         2.10599
LJ          -2.37179         1.12215          1.3442
LJ          0.961873        -2.28064        -2.20212
LJ          -1.03843        0.422323        -1.34464
LJ          -2.53084        -1.72002         1.63548
LJ            1.3373         -1.7782         1.86327
LJ           1.69763         -2.2073       -0.808514
LJ          -1.00656        -2.16672        -2.43708
LJ         -0.285629        0.424876         1.59253
LJ          -1.98568        -2.24631        0.673141
LJ           1.37129       -0.265271         1.95318
LJ          -1.99518         1.11985        -1.69106
LJ              -nan            -nan            -nan
LJ         -0.578247        0.547623        0.683987
LJ          -1.77284        0.454624        0.563743
LJ          0.651616         1.42067        -1.71059
LJ           1.47707         2.26501       -0.330533
LJ          0.544396        -2.33414        -1.80857
LJ          0.496737       -0.714522        -2.28242
LJ          -2.03897         2.53102       -0.420412
LJ          -2.52242         1.81758        -1.05928
LJ          -1.82773         1.75878       0.0354434
LJ           -2.1431        -1.26293         1.76081
LJ          0.745247        -2.17238         1.04745
LJ          -1.96353        -2.34611        0.814558
LJ         -0.673612        -2.18574        0.553233
LJ           2.02962         1.36597        -2.30394
LJ              -nan            -nan            -nan
LJ         -0.866181       -0.439352         1.51336
LJ          -2.03457        0.160031         1.77082
LJ          -0.04523       -0.336595       -0.317499
LJ          -2.54113        -1.48148        -1.06495
LJ          -2.14202        -1.87019       -0.803565
LJ          -1.25266        -1.15373         1.96405
LJ           1.50963        0.144934        -2.12894
LJ           1.50688         1.07453        -1.13315
LJ           1.96823        -1.52016       -0.652045
LJ          -2.25225         2.41915       -0.631144
LJ         -0.252892        0.869341         1.59953
LJ          -2.12573        0.957641        0.274505
LJ         -0.608018        -2.06663        0.812564
LJ          -1.29806        -1.12507         1.49909
LJ           2.55406        -2.26075         2.53606
LJ           1.50193         1.61351         1.69374
LJ           2.06985        -1.90505        -2.42337
LJ           1.25798        0.090265        -2.11575
LJ          0.832487         -1.3144         1.27405
LJ          -1.80301        -1.70859        0.883359
LJ          -1.17901         1.57115         2.06729
LJ          -2.13044        -2.20344        0.622082
LJ              -nan            -nan            -nan
LJ          0.768659         1.40362         2.24836
LJ          0.756533         2.14386       -0.131198
LJ          -1.32281        0.761254        0.791988
LJ         -0.734014      -0.0516211        0.500358
LJ          -2.51078         2.17568        0.818918
LJ          0.305633        0.160069        -2.15122
LJ           2.02131       -0.508399       -0.744244
LJ           1.49705         1.49623        -2.55548
LJ           1.56813         2.52498        0.928062
LJ          -1.88098        -2.32407         2.36811
LJ          0.788026        -2.31735         2.39173
LJ          -2.36305        -2.33931        -2.42091
LJ          -2.16281        -1.90762         2.06059
LJ           2.42585         1.60812       -0.297447
LJ          -2.17599       -0.183939       -0.235932
LJ          0.606562       -0.846432        0.572734
LJ              -nan            -nan            -nan
