108
#Comment!
LJ          -2.19053        0.315139        0.935363
LJ         -0.967285        0.269875        -2.37052
LJ         -0.236267        0.891317       -0.864536
LJ         -0.231544         2.01069         1.48649
LJ          -1.04035        -1.01706        -1.47413
LJ           1.41091       -0.287517      -0.0696575
LJ          0.100867        0.701467       -0.906978
LJ          -1.49367         1.99137          0.2281
LJ           1.05834        0.956802         -1.7475
LJ          0.781321        -1.47012        -1.03437
LJ              -nan            -nan            -nan
LJ            1.4657         1.24545        -1.46499
LJ           2.47204        -2.20307         -1.2662
LJ          -1.49764        0.040881        0.817548
LJ          -1.42062         1.10316        0.597401
LJ           1.76698         2.29172         1.18437
LJ              -nan            -nan            -nan
LJ           1.54934        0.414654       -0.582384
LJ          -2.28112        -2.15564         1.54145
LJ              -nan            -nan            -nan
LJ          -0.62879        0.145915         1.76416
LJ           1.62755        -0.07867        0.601816
LJ         -0.246777        -1.93687          0.4632
LJ          0.682807       -0.560993           2.462
LJ           1.04607        -1.35453        0.374281
LJ           2.38666         1.75038        0.473276
LJ            2.0026       -0.473548       -0.879828
LJ          0.762004         1.36431        -1.03218
LJ          -1.77183        0.309807        -2.35339
LJ         -0.290032       -0.141819         1.52196
LJ         -0.835522        0.786484         1.76073
LJ          0.509062       -0.590835        -1.05946
LJ              -nan            -nan            -nan
LJ          0.109506           1.617        -1.14799
LJ              -nan            -nan            -nan
LJ          -1.05081        -1.52572        -0.25247
LJ          0.864595       -0.571658         1.19169
LJ        -0.0521435         -2.2484       -0.274309
LJ          -1.51742       -0.988063        -2.17932
LJ         -0.356483        -2.09026       -0.734507
LJ           1.16438         1.93827        -1.78719
LJ           2.30414         1.91189         -1.6057
LJ          0.151091        0.218574       -0.480611
LJ          -1.45071         2.06468        -1.64434
LJ           1.87462       0.0254575        -1.25323
LJ           2.45119         2.47396        -2.00844
LJ         -0.637715        0.705587        -1.93799
LJ            2.3223        0.574544         2.14355
LJ           1.84657       -0.627674        0.163044
LJ         -0.979024       -0.352576        -2.19467
LJ          -2.15271        -0.50234       -0.853542
LJ           1.90826       -0.217873         2.12165
LJ              -nan            -nan            -nan
LJ           -1.3475         2.31299        -1.24913
LJ          0.708844        -1.46249         1.59902
LJ           1.07118        -1.98508         2.22145
LJ          -2.22237         1.51527        -1.19948
LJ          0.585661         2.42976         2.39681
LJ          -2.32334        -1.13785       -0.213312
LJ          0.223927         0.45885       -0.394672
LJ         0.0406029        0.101056       -0.636115
LJ           2.25358         1.82613       -0.260187
LJ           1.89493        0.300482        -1.48067
LJ          -0.61949        -2.05695        -1.87757
LJ           2.39561        -2.45735       -0.624356
LJ           -2.2959         1.03408       -0.264841
LJ           1.83325         0.18723          2.0238
LJ              -nan            -nan            -nan
LJ          -2.22392         -2.0869         2.13924
LJ           1.94013        -1.09485        -1.35393
LJ            1.4539        0.214873        0.746826
LJ           1.66786        0.846065          0.5468
LJ          0.133513       -0.815684        0.420152
LJ          0.481876         2.07065         1.65123
LJ          -1.01359         2.33733        0.987853
LJ          -2.23277          1.2959      -0.0732516
LJ           1.92077         1.40763        0.669478
LJ          -0.18346          1.9476        -1.56782
LJ           1.27571         1.70619         2.07875
LJ        -0.0510538         1.36647        0.321443
LJ           1.95381          2.1303        -2.42706
LJ          -1.00837       -0.764547         2.44149
LJ          0.973987       -0.037768        -2.56166
LJ          -0.80037         1.16705        0.319657
LJ         -0.671299       -0.720029        -1.64389
LJ          -1.21352       -0.700665        0.563804
LJ           2.01104         1.06976        0.628986
LJ           -2.2279         1.50469       -0.930242
LJ          -1.67516        0.108493       -0.309844
LJ          -0.56182        -1.57425        -1.92963
LJ              -nan            -nan            -nan
LJ          -2.16316       -0.669352       -0.396572
LJ          -2.41521        -2.55147        0.609683
LJ           2.33886        0.698008           2.146
LJ          -0.66945         2.12941        -1.52444
LJ         -0.231048         1.33388        -1.01458
LJ          -2.53718     -0.00887384        0.188611
LJ         -0.918088        0.312881       -0.706239
LJ          -2.13131        0.530643        -1.70408
LJ          -1.34661        -2.01451        -2.31057
LJ         -0.101317        -1.17734        -2.38575
LJ         -0.689426         -2.3213        -1.76927
LJ           1.01931        -1.78994        -0.91001
LJ          0.659511        0.290175         2.28668
LJ         -0.694984        -1.04391         1.42846
LJ          -1.25601        -2.18643        0.559245
LJ          0.616647        -1.96273       -0.643462
LJ           1.51501        -2.39452         2.03488
