108
#Comment!
LJ         -0.755326        -2.01888         1.56687
LJ          0.256919        -2.08184       -0.780017
LJ         -0.289869        -1.61231       -0.809712
LJ           1.38623        0.940024       -0.729886
LJ           1.35917         1.73191       -0.345851
LJ          -1.34983         0.24282       -0.350539
LJ           0.34752         -0.3466        -2.18395
LJ          0.248034       -0.351292        -2.22027
LJ          0.320505       -0.698557        0.846652
LJ           -2.0588         1.04017         2.10337
LJ              -nan            -nan            -nan
LJ           2.54759         0.88685        -2.42542
LJ          0.130865        0.549148        -1.33708
LJ              -nan            -nan            -nan
LJ          0.354703         1.83605        0.898711
LJ              -nan            -nan            -nan
LJ              -nan            -nan            -nan
LJ              -nan            -nan            -nan
LJ          -1.22499       -0.658991        -2.32122
LJ              -nan            -nan            -nan
LJ          -1.27999        0.497778         2.21583
LJ        -0.0337741       -0.179097         2.30661
LJ         -0.893696         1.91939        -2.53939
LJ              -nan            -nan            -nan
LJ          -1.76809       -0.012664        -2.05676
LJ          -2.52891        0.686179         1.54992
LJ          -1.77455        0.160553        -1.53288
LJ           1.27792         2.13914        -2.50901
LJ          -2.06978        -1.31848        -2.53049
LJ          -2.22409         2.41281         1.28724
LJ              -nan            -nan            -nan
LJ          0.861023        -1.91277        -1.42298
LJ              -nan            -nan            -nan
LJ          0.524134         2.02971        0.155696
LJ              -nan            -nan            -nan
LJ          -1.10669       -0.709784        -1.80477
LJ           1.62767         1.11829         2.30438
LJ         -0.406785        -2.05859       -0.932344
LJ          -0.34117        -1.24934        -2.18553
LJ          0.180035         1.22196         1.68789
LJ         -0.497036         2.51997        -1.89936
LJ           1.09249         1.50787        0.618667
LJ         -0.440585        -1.39623       -0.961437
LJ          -1.78417         0.21685         1.20771
LJ         0.0252854         1.87377         -1.5794
LJ         -0.405341          2.2041         1.79257
LJ            1.4144        -1.31404         -1.5233
LJ          0.782934         1.24891       -0.346719
LJ          0.158537         1.79948        -2.50403
LJ           2.44863        -1.81813         1.16388
LJ          0.238064         2.17627         1.41248
LJ         -0.122736        -2.23867        0.120171
LJ              -nan            -nan            -nan
LJ          -1.99646        0.528117        0.629363
LJ           1.04043         -2.2508        -2.09238
LJ         -0.613646         1.45561       0.0566768
LJ           0.17875       -0.736389        -1.11596
LJ          -1.43793        0.192361       -0.879944
LJ          -2.16966        -1.30381        -1.70965
LJ          0.827167        0.704268        -1.40794
LJ           2.40756      -0.0166053      0.00650469
LJ           1.40986         1.44581      -0.0328649
LJ          -2.29209         -1.3203        0.395907
LJ              -nan            -nan            -nan
LJ              -nan            -nan            -nan
LJ          -1.11084        -2.23841        -1.54696
LJ          -1.13542         1.60643         2.21494
LJ              -nan            -nan            -nan
LJ          -1.79705         2.24528        0.303816
LJ          -0.20847        -1.54821         2.47654
LJ          -1.88738       -0.029445       -0.184694
LJ          -2.00519        0.663561       -0.677855
LJ         0.0482641        -1.30449        -2.16687
LJ           2.42341        -1.10773        0.462754
LJ           -1.8213        -1.61204         1.04566
LJ           1.30684         2.49189         0.50729
LJ          -2.52382          1.3845       -0.104156
LJ         -0.251145       0.0464275       -0.429255
LJ         -0.232366        -1.63008        -2.41802
LJ           1.84397         -1.8213       -0.871147
LJ         -0.101619        0.990283       -0.113206
LJ         -0.992033        -2.06253      -0.0191786
LJ           -2.4297        -0.97323         1.77456
LJ         -0.864896       -0.770996         1.58365
LJ          -2.04631          2.0763       -0.556838
LJ          -1.77616        -1.53877         1.62882
LJ          -1.80581         2.42709        -1.52816
LJ          -1.02439       0.0797516        -1.30527
LJ           2.19786         1.38085       -0.999667
LJ          -1.62511        0.785253        0.182361
LJ              -nan            -nan            -nan
LJ         -0.319718          1.1304       0.0532613
LJ            1.9361        -1.13293        0.595354
LJ          0.282968        -1.88561       -0.409003
LJ          0.912819        0.152122          1.1552
LJ          -1.21413         1.62982      -0.0343739
LJ          0.815791         0.48928       -0.258797
LJ           1.93941         1.19174       -0.902728
LJ              -nan            -nan            -nan
LJ          -1.85785        0.705261          1.1656
LJ          -1.11167          2.4593        -2.42257
LJ           2.02309        -1.32034        -1.70079
LJ         -0.551693         2.15483        -2.44382
LJ          -1.60457        0.308865        -2.49516
LJ              -nan            -nan            -nan
LJ           1.22265         2.38694         1.87942
LJ          -2.49159         1.73117         2.20886
LJ              -nan            -nan            -nan
