108
#Comment!
LJ          -1.05296        0.785662        -2.08018
LJ           -2.4026         1.98372       -0.426498
LJ          0.543748        -1.22262        0.514475
LJ          -1.69388       -0.848596         2.52528
LJ          -1.29647        -2.11642        0.319022
LJ           2.21306        -2.46057        0.111529
LJ           -0.1738        0.716323        0.439806
LJ           1.69653        0.245641        0.585803
LJ          0.247752        -1.34691        -1.27885
LJ         -0.529981         2.26803         1.07302
LJ              -nan            -nan            -nan
LJ          -1.61092       -0.763939        0.206101
LJ          -1.04115         2.20325       -0.063699
LJ              -nan            -nan            -nan
LJ          0.996496        -1.35937        -1.23093
LJ              -nan            -nan            -nan
LJ              -nan            -nan            -nan
LJ              -nan            -nan            -nan
LJ          -1.24449        0.340719       -0.719665
LJ              -nan            -nan            -nan
LJ          0.956671         1.78746         1.81062
LJ         -0.158819         2.16231         0.93396
LJ         0.0795575       -0.782702         2.24642
LJ              -nan            -nan            -nan
LJ         -0.516961          -2.294        0.726178
LJ            1.9753         2.32028        -1.56249
LJ          0.311794        -1.32649         1.16301
LJ          0.767028         1.53778        -1.90933
LJ         -0.112369       -0.876235        -1.96463
LJ           1.51551      -0.0802641       -0.728192
LJ              -nan            -nan            -nan
LJ           1.37042       0.0485951        -1.31615
LJ              -nan            -nan            -nan
LJ           1.02104         2.10972         2.11484
LJ              -nan            -nan            -nan
LJ            1.3739       -0.530093         0.29969
LJ          -1.31914        -1.43542        -2.06839
LJ          0.426153        0.873675         2.43457
LJ         0.0152262        -1.81384          1.8549
LJ         -0.805037         2.15843        -1.34445
LJ          -1.47856         1.82876         1.01066
LJ          0.616313       -0.504537        -2.29017
LJ          -1.97486       0.0232614        0.164622
LJ          -1.94987        -1.96414          0.6029
LJ          -1.95246        0.237004         2.39394
LJ          0.937881       -0.500998         2.27032
LJ           2.28362         1.54356         1.19418
LJ          0.176151         2.15474        0.814035
LJ          -2.43796       0.0092793        0.677753
LJ          -2.13533       -0.203435        -0.60054
LJ         -0.165409        -1.69138        0.297327
LJ           2.07529        -1.59423         1.19388
LJ              -nan            -nan            -nan
LJ          -2.14064        -1.51534        -0.50154
LJ          0.898209       -0.884022         2.38032
LJ          -1.45917        -1.06205        0.883717
LJ            1.7969        -2.10669         1.22662
LJ          -1.86169         1.67225         1.54209
LJ          -1.79937          1.2224        0.342816
LJ          0.751756         -1.9445         2.33413
LJ          0.650893         2.02065        -0.32528
LJ          -2.39192         1.00857         1.06032
LJ           2.42253         1.40506        -2.38008
LJ              -nan            -nan            -nan
LJ              -nan            -nan            -nan
LJ          0.475022        -1.60847        -2.08247
LJ           1.89112         1.30006       -0.830616
LJ              -nan            -nan            -nan
LJ         -0.463114         1.90005        0.696187
LJ           1.15866        -2.24007       -0.163933
LJ          -1.42805        -1.15523         2.41477
LJ           2.52227        -1.98514         2.16783
LJ           2.51145        -2.44133         1.82816
LJ         -0.777998         -2.5515      -0.0757517
LJ          0.246633       -0.814978        0.388428
LJ           1.51005        0.557635         2.52337
LJ          -1.67693        -1.10877       -0.210555
LJ           1.78277       -0.362233        0.180638
LJ         -0.574421       -0.674578       -0.613397
LJ            1.1921        -1.53214         2.11003
LJ          -1.51768       -0.144669       -0.817668
LJ          -2.56017         2.41675         2.39383
LJ           2.37522        -2.47101         2.36575
LJ          -0.12796         0.13499       -0.945556
LJ            0.5858        -1.10633       -0.834694
LJ          0.823805          -1.891        -2.18268
LJ          -2.08602        0.752634        0.755741
LJ           -1.7195        0.957382        -1.07762
LJ           2.40204        -1.51252        0.688814
LJ          -1.67517         0.98241        -1.65282
LJ              -nan            -nan            -nan
LJ           2.53132        0.721063         1.18974
LJ           2.07555        -1.01538         1.20351
LJ          -1.14432         2.22996         2.16611
LJ           1.54446        -2.00268        0.452702
LJ          -1.36834        0.308399        0.267168
LJ         -0.568476        0.308474        -1.26854
LJ          0.752689       -0.824735         2.51046
LJ              -nan            -nan            -nan
LJ           -2.5605       -0.455421         1.24777
LJ          0.587549         1.84099         2.49337
LJ         -0.430326        -2.36036         2.01568
LJ         -0.635119       -0.429643     -0.00730865
LJ          0.525633        -1.02865         1.89252
LJ              -nan            -nan            -nan
LJ          -1.47049         1.57923        -2.17996
LJ          -1.64124         1.84262       -0.349857
LJ              -nan            -nan            -nan
