108
#Comment!
LJ          -1.97814         1.15256         1.83195
LJ           1.60722        -2.35702         -2.5095
LJ          -1.05886        -2.44159      -0.0871659
LJ          -0.87575        0.847051        -1.10724
LJ         -0.999941         -1.7718        -1.21411
LJ          -1.70971        0.891213        -1.73365
LJ           1.52311       -0.496456        0.235121
LJ           1.26152       -0.842293        0.613631
LJ           1.60062       -0.168837        0.812858
LJ          -1.56991       -0.228503         1.54798
LJ              -nan            -nan            -nan
LJ           1.93676       -0.978561         2.02483
LJ         -0.584417        -2.16738        0.097789
LJ              -nan            -nan            -nan
LJ          -1.71517    -0.000824563        -2.07015
LJ              -nan            -nan            -nan
LJ              -nan            -nan            -nan
LJ              -nan            -nan            -nan
LJ           2.50445       -0.561146         1.09149
LJ              -nan            -nan            -nan
LJ           0.77835         1.62713        0.332085
LJ         -0.732821        -1.50751       0.0749476
LJ         0.0739674        -2.07318        -2.50177
LJ              -nan            -nan            -nan
LJ         -0.564763         1.79971         2.14536
LJ           2.43962        -2.02106         2.39779
LJ           1.22506       -0.096377        0.892814
LJ           2.26746         1.49535         2.38506
LJ           2.26679        0.218695        0.625486
LJ         0.0318542        -1.34693         1.69714
LJ              -nan            -nan            -nan
LJ          -2.53638        0.163937          1.9687
LJ              -nan            -nan            -nan
LJ          -1.24406       -0.745995         1.80221
LJ              -nan            -nan            -nan
LJ           0.59796        0.138951         2.07391
LJ          -2.10652         2.21246         1.50554
LJ           2.28421        0.618495        -1.69089
LJ          0.826205         1.41723         1.40308
LJ            0.3766        -1.03886         1.05193
LJ          -1.20191         2.55566         1.09201
LJ          0.926115         1.87715       -0.602157
LJ          -1.24469         1.04561         1.69857
LJ          0.869607         1.93908       -0.906252
LJ            1.3992        0.812791       -0.707418
LJ           2.13129         1.41008        -2.44584
LJ         -0.229912        -2.25768        -1.02963
LJ           1.22607        0.691947       -0.407484
LJ           1.34824       -0.997703          2.0709
LJ          -1.57292         2.40587       -0.407188
LJ          0.640244        0.317453         2.38301
LJ          -1.35044         1.51167        -1.40921
LJ              -nan            -nan            -nan
LJ           1.71265       0.0122373         1.74308
LJ          -1.44735        0.769586        -1.22812
LJ           1.98247       -0.189055        -2.20174
LJ          0.867196        -2.15315        0.270952
LJ          -1.06773       0.0672567        -1.13198
LJ          -1.51897         -1.4026       -0.993529
LJ           -2.3979        0.159557       -0.180179
LJ           -1.4605       -0.979068         1.88031
LJ          -2.06805        -2.56351        -2.47908
LJ         -0.469565        -2.07603        -1.02257
LJ              -nan            -nan            -nan
LJ              -nan            -nan            -nan
LJ         -0.679366       -0.862556         2.29957
LJ             -1.81        0.746072         2.00135
LJ              -nan            -nan            -nan
LJ         -0.349675        -1.04163        -1.56435
LJ          -1.15243         2.24281       -0.141005
LJ          -1.54009         2.11838       -0.673887
LJ          0.110629      0.00238995         2.29505
LJ         -0.108594        -1.60152       -0.325105
LJ         -0.851923        0.494461        -1.13298
LJ          0.169681        -1.18279       -0.917125
LJ           1.16465         2.34724        0.208176
LJ           1.85081        0.568191        -1.98894
LJ          -2.30238       -0.776058         2.44828
LJ        -0.0449344       -0.103681         1.14015
LJ          -1.46433         2.26572         1.90466
LJ         -0.909319          2.3019        -1.20412
LJ         -0.157912        0.959105        -1.11799
LJ           2.36682        0.802986        -0.60364
LJ          0.992081        -1.14668         1.31157
LJ         -0.211391          0.4683        -1.56322
LJ          -1.28798       -0.991177         2.47538
LJ           1.62496       0.0153556       -0.614203
LJ          -2.03256       0.0323344        -1.67936
LJ          -1.68546        -2.11168        -1.39683
LJ           1.43978        0.293053        0.626177
LJ              -nan            -nan            -nan
LJ           0.69142         2.14834       -0.670348
LJ           2.55836          1.9577        0.572664
LJ         -0.867221        -2.25403         1.63175
LJ           1.47596         1.63068         1.38507
LJ           1.39466       -0.176717         1.59173
LJ           1.21433        0.632187       -0.895762
LJ          -0.60433        -1.23771      -0.0916733
LJ              -nan            -nan            -nan
LJ           1.98227        0.121063         1.59375
LJ           2.07772        -1.92547          1.0883
LJ          -2.20758        -1.16212         -1.0555
LJ           1.87637         -2.4299        0.617175
LJ          0.247544       -0.514423         1.40043
LJ              -nan            -nan            -nan
LJ          -1.35622       -0.475315         1.79169
LJ         -0.580149        0.498368         -1.8902
LJ              -nan            -nan            -nan
