108
#Comment!
LJ           1.28189        0.194273         1.25406
LJ          -1.75139        -2.36469         2.48623
LJ          -2.30752         2.21153       -0.205359
LJ           2.35585       -0.828455       -0.941993
LJ          -1.63915          2.1295        -2.45341
LJ          -1.55543        -2.50995      -0.0359869
LJ           1.70821       -0.762787        -1.08343
LJ          -0.76129        -2.15652         -1.4626
LJ           1.75936        -0.87507          1.8093
LJ          0.410606         2.49093        0.501819
LJ              -nan            -nan            -nan
LJ          0.824825         2.23755        -1.40846
LJ          -2.04082        -1.60239         1.33144
LJ              -nan            -nan            -nan
LJ         -0.523982       -0.151807       -0.645466
LJ              -nan            -nan            -nan
LJ              -nan            -nan            -nan
LJ              -nan            -nan            -nan
LJ          -2.54648        -2.51934        -1.78307
LJ              -nan            -nan            -nan
LJ         0.0712371        -1.04828        0.671145
LJ          0.714835        -2.17484        -0.93234
LJ           1.27163        -2.34139        -1.23302
LJ              -nan            -nan            -nan
LJ           0.60086       -0.978237         1.58692
LJ           1.08388        0.781334        0.919071
LJ         -0.398702       -0.397109        -1.19321
LJ          -1.88187         1.07132         1.58915
LJ          -1.41097       -0.775857        -1.35958
LJ           1.40883        -1.48989     -0.00499199
LJ              -nan            -nan            -nan
LJ           -1.7809        0.685678        -1.85699
LJ              -nan            -nan            -nan
LJ         -0.459621        -1.71248        0.233956
LJ              -nan            -nan            -nan
LJ          -2.11636         1.17403       -0.684454
LJ           1.79901       -0.446177        -2.23381
LJ         -0.761362        -1.54451        -2.17273
LJ          -1.97742      -0.0279844        0.891097
LJ          -1.60367      -0.0436626       -0.151565
LJ         -0.627388         1.14978         1.82162
LJ          -1.62452         1.12185        -2.04229
LJ         -0.856206        -2.41532        0.594665
LJ          0.323169        -1.30223        0.746324
LJ          -1.51792         2.26272       -0.028686
LJ          -1.89844         1.31308       -0.473169
LJ          0.481661        0.344677        -2.34563
LJ          -2.19579        0.582449         1.44954
LJ         -0.633441        -0.21935         2.33898
LJ         -0.463281      -0.0127536        -2.51764
LJ           1.31397       -0.139693           1.967
LJ           1.41083       -0.759718        0.874059
LJ              -nan            -nan            -nan
LJ         -0.587361         1.48797         2.37698
LJ          0.495721       -0.837805        -1.47999
LJ          0.368314        -1.67067       -0.313483
LJ           2.25908        0.632638       -0.448255
LJ          0.818323         1.19568       -0.172482
LJ          -1.15413        -1.34557         1.62674
LJ         -0.822082          2.0453        0.558048
LJ          -1.07348         1.42691         2.52028
LJ          0.800772        0.660058        -1.97635
LJ          -1.88404        0.662808         2.24595
LJ              -nan            -nan            -nan
LJ              -nan            -nan            -nan
LJ         -0.173408        -2.15723         1.65889
LJ           1.82612        -1.19125        -2.42551
LJ              -nan            -nan            -nan
LJ          0.917572         1.22315        -1.58872
LJ         -0.199835        -2.43789         1.38078
LJ           1.97643         2.52858        -1.24001
LJ          -2.52815           2.358       -0.229975
LJ           1.59622        -2.41244       -0.584411
LJ          -1.01025        -1.20909        -1.14167
LJ          0.647452         2.00769          1.5396
LJ         -0.754862        -1.10795         -1.8379
LJ          0.548408         2.21122        -1.04571
LJ           1.32347         -1.2212         2.10467
LJ           1.88408        -1.37911          2.3142
LJ          -1.49708         2.50245       -0.353877
LJ          -2.30582        -0.54344         1.80651
LJ          0.396889         1.38484         0.89605
LJ         -0.144776        -1.98823       -0.669865
LJ           1.61791        -1.40467         -1.1519
LJ          -1.66456         2.02655         1.82967
LJ          -2.54848        -2.38017        -1.75692
LJ          0.765878        0.232023        -2.03764
LJ         -0.321016         2.11556       -0.857895
LJ          -1.65662       -0.854283        -2.22891
LJ           2.08039         1.05883         2.06235
LJ              -nan            -nan            -nan
LJ           1.39322          1.2332        -0.45884
LJ           1.24323         2.24954       -0.744596
LJ          -2.08913         1.71754        -1.10083
LJ          0.979548        -2.55052         2.40289
LJ         -0.436693       -0.606763         0.33488
LJ          -2.30761        -1.52291        -1.27686
LJ          -2.27972        0.468714        0.923315
LJ              -nan            -nan            -nan
LJ           0.87038         1.09628        0.943924
LJ           1.53941         2.53697         1.42874
LJ           1.05234       -0.311915       -0.210128
LJ          -1.52705       -0.473693        -1.51475
LJ         -0.569416       -0.318714         2.13356
LJ              -nan            -nan            -nan
LJ          -1.92945         0.34234         1.82116
LJ           1.17963         1.32888       0.0744884
LJ              -nan            -nan            -nan
