108
#Comment!
LJ           1.92099       -0.449208         1.97288
LJ          0.962695        -1.78005         1.43153
LJ           1.60014        -0.95536        -2.07575
LJ          0.777666        -1.11664       0.0912084
LJ         -0.371578        -2.49472       -0.914724
LJ           0.93481         2.43356         2.56363
LJ          -1.58057        -2.54883        -1.08182
LJ          -1.57292         1.99637        0.608141
LJ          -1.84111        -1.58343       -0.605567
LJ           -1.7469        -1.13502         1.78625
LJ              -nan            -nan            -nan
LJ          0.843455         2.17334         -1.5856
LJ           2.28863        -2.35207        0.517753
LJ           1.88499         -0.7457         2.14737
LJ          -1.47159        -1.27144          -0.673
LJ          0.480836        -2.39539         -1.1034
LJ              -nan            -nan            -nan
LJ              -nan            -nan            -nan
LJ           1.49849         -1.6582         1.80395
LJ              -nan            -nan            -nan
LJ           1.77277         1.63176        0.589453
LJ          0.132201        0.799908          1.8934
LJ           2.53373       -0.698008       -0.990226
LJ          -1.71646        -1.61151         -1.0088
LJ         -0.718124       0.0591397        0.217599
LJ           1.01527        -1.08338       0.0252437
LJ          -1.49819     -0.00565025        0.320001
LJ          -2.15411        -2.50089        -1.11615
LJ          -1.81147        0.983747       -0.231431
LJ          0.208262        -2.32252        -2.56179
LJ           1.79072        -2.55049        -2.30929
LJ          -1.72028         1.10695        -1.92908
LJ              -nan            -nan            -nan
LJ          -0.36751        0.859329        -0.81324
LJ              -nan            -nan            -nan
LJ         -0.574852        -1.38432       -0.362541
LJ          0.470371         1.52637         2.36827
LJ           2.21576        -0.60129         1.43835
LJ         -0.998733          1.9664         2.13877
LJ         -0.958134         1.23657         1.96383
LJ           0.20516         2.23263          1.2543
LJ          0.636896         1.29621       -0.942726
LJ           2.01514          2.4982         1.51074
LJ         -0.397496         1.82085         1.24539
LJ          -2.02058        -2.55954        -2.55356
LJ          -2.12696         1.39437         0.13623
LJ         -0.490716       -0.224446         1.15039
LJ          0.514451        -1.35195         2.11324
LJ          0.603291         -2.4066        0.972331
LJ         -0.028605         2.33078        -1.14414
LJ          -1.82373       -0.579176         1.32252
LJ           2.56352          0.9381          1.3271
LJ              -nan            -nan            -nan
LJ           1.57264         1.45788        -1.58892
LJ          -1.14662         -1.4213       -0.552508
LJ          -1.32935       -0.122361        -1.95602
LJ         -0.680248        -1.18371        0.611431
LJ         -0.522791        -2.18379       -0.147876
LJ          -1.80828         1.11425         1.12718
LJ          0.965967          1.5222        0.761967
LJ          0.575126       -0.868957        -1.01909
LJ          0.285304        0.376528        -1.03928
LJ           1.33508       -0.860701       -0.821602
LJ           1.57515        -2.24711        -1.94625
LJ            1.3449         1.01957         1.93841
LJ            0.4885         2.47098         1.22756
LJ           2.15666         2.07678          2.1097
LJ              -nan            -nan            -nan
LJ          -2.24593        0.756883        0.729237
LJ         -0.975522        -2.31845         1.13466
LJ           1.40528        -1.36158       -0.848903
LJ          -1.56594         -2.5266        0.022247
LJ           1.63905        -2.45739         1.04323
LJ         -0.415955         1.82052         1.39858
LJ           -1.5212        -1.19842       0.0852801
LJ          -1.94732        0.168342        0.398445
LJ           1.19307         1.52651        -2.32781
LJ        -0.0551934        -0.33897         1.20818
LJ          -2.00508        0.200774        -2.43335
LJ         -0.223639        -2.43997       -0.717403
LJ         -0.453086       -0.617107        -1.91151
LJ         -0.318668         1.65287        -1.48532
LJ         -0.504431        -2.03867        -1.14876
LJ          -1.06537         2.41568        -1.58308
LJ           1.83859          2.5237        -1.67741
LJ           1.06676         2.18033        -1.15875
LJ          -2.22259         2.25141        -2.15194
LJ          -1.86525       -0.597227       -0.185122
LJ           1.02662        0.919082      -0.0433451
LJ          0.599751        -2.25616        0.844409
LJ              -nan            -nan            -nan
LJ          0.934221        0.402566        -1.38328
LJ           2.45846         1.00833       -0.074075
LJ          0.794347       -0.162731        0.467387
LJ          0.232205        0.963794        -1.10876
LJ            -2.167         2.24114         -2.0384
LJ           1.13936        0.102477         -1.4263
LJ           1.13172         1.38022         1.72555
LJ          0.378507        -1.32354        -1.80187
LJ          -2.33118          1.9934        -2.46185
LJ          -1.98808          2.3678       -0.675924
LJ           1.06004         2.10161        -1.37002
LJ         -0.717409        -1.16915        -1.75477
LJ          0.152476       -0.546838         1.10617
LJ         -0.819355        0.112678         2.21639
LJ         0.0779517          2.0316       -0.920722
LJ           2.13238         1.07839        -1.52748
LJ              -nan            -nan            -nan
