108
#Comment!
LJ         -0.819319        0.744303         1.52963
LJ          0.712295        -1.86136        -0.11091
LJ          -0.40888         -1.2939        0.196965
LJ           -1.9244        -1.79285        -1.62436
LJ           1.20279         1.19909       -0.674763
LJ           -1.4947        0.774357        -2.39107
LJ           1.31218        -2.11292        0.229061
LJ           0.54706        0.058671        0.585951
LJ          0.474575       -0.385968         1.37213
LJ          0.177298        -1.25523        -1.90543
LJ              -nan            -nan            -nan
LJ           2.16309        -2.07489          2.0748
LJ          -2.25051         -1.7235        -1.64409
LJ           1.10886       -0.916861       -0.279816
LJ          -1.61239       -0.213024         1.20917
LJ          -1.65757         1.58354         0.12984
LJ         -0.403026       -0.800575         1.02136
LJ         -0.204883         1.18342        0.269279
LJ        -0.0274389        -2.05065       0.0752611
LJ          -1.44097         2.12302        0.819963
LJ          -1.42849        -1.28995        0.986282
LJ           2.04427        0.943346         2.33643
LJ           -0.9992         1.37926         2.42276
LJ         -0.766653        -2.04853       -0.692055
LJ           2.08999        -1.91274          1.9179
LJ           -1.8425        -0.37944         1.08623
LJ          -1.32836         2.00909       -0.493243
LJ          -1.05827         2.11486        -1.20501
LJ           1.98604         2.00267        -2.36118
LJ         -0.525457         0.94711          -1.696
LJ         0.0146601        -1.31866        -2.25127
LJ           1.30588         2.08616        -2.05938
LJ              -nan            -nan            -nan
LJ          0.615125         0.50358        -1.77322
LJ          0.248022       -0.829952        -1.24466
LJ           2.51506         1.61726        -1.87162
LJ           2.36879         -2.3545        -1.27888
LJ           2.15604       -0.572262       -0.817771
LJ          -1.94506         2.36503       -0.179616
LJ          0.222491        -0.78952          2.4552
LJ         -0.898121        -1.31748         1.02874
LJ         0.0616479        -2.24727         2.54825
LJ           2.28855          0.6412         1.76486
LJ           1.33262        -2.48896        -1.59253
LJ         -0.947951       -0.868159       -0.621947
LJ           2.49271         0.72463         1.70619
LJ          -1.07417        0.364155         2.11145
LJ        -0.0210191         0.61267        0.825976
LJ          -2.02724         1.89671         1.47435
LJ          -2.28949        -2.42571         1.55733
LJ          -1.99083        -2.08026       -0.246208
LJ           1.51838        -2.30477        -1.42392
LJ         -0.696857       -0.458703        -2.46725
LJ         -0.879186        0.833757        0.963863
LJ          -0.84321         1.13725         1.61782
LJ          -1.36008        -1.18311        0.643812
LJ         -0.211693         -2.3646        -1.14348
LJ          -2.50799       -0.214473         1.61306
LJ         -0.807252        0.634185       -0.873325
LJ           2.41857       -0.594418        0.512407
LJ          -2.13308        0.589992        -2.06004
LJ           2.36568        -1.23271      -0.0307322
LJ       -0.00183667         0.21697         2.09148
LJ            1.5245        -2.45573         1.48379
LJ          0.446892        -1.49946        -1.64571
LJ          -1.81872        -1.63195         0.34821
LJ         -0.795783         1.19176       -0.266194
LJ          0.866499         1.01579        -1.16962
LJ         -0.517044        0.180624         -1.3473
LJ         -0.650424        -1.28718       -0.826103
LJ          -1.45706        0.218387        0.269536
LJ          0.290246         1.84201         1.51168
LJ           -2.1427       -0.276174        0.336224
LJ          0.816877         1.12682        0.449705
LJ            -1.341        0.705228        -1.88084
LJ           1.28537         1.63227      -0.0813294
LJ        -0.0520792        0.785367        0.223946
LJ          -1.81467        0.346003        -0.19583
LJ          -2.35283       -0.477298        -1.25312
LJ         0.0349635        0.453747       -0.170301
LJ          -1.12306        0.386992         2.40376
LJ          -1.20936          1.5372          2.0092
LJ          0.230357        -1.08564        -2.54377
LJ       -0.00852574         1.73809         1.05999
LJ         -0.796909         1.08859        0.877927
LJ          0.340111        -1.42497         1.45455
LJ           1.67819        0.795176        -2.06948
LJ          -1.46203         1.84798         2.55805
LJ           1.27352        -1.90774        -2.48693
LJ           1.80661       -0.798401      -0.0806297
LJ           -1.8311        0.829583         2.28388
LJ         -0.999178       -0.656991         1.80625
LJ           1.29621       -0.125592         1.07804
LJ           2.01224       -0.720876         1.96607
LJ          -2.50273       -0.299284        0.481799
LJ           1.69315         -1.8604         2.11572
LJ          0.875995       -0.676144        -2.33459
LJ         -0.369585         1.59865         1.41284
LJ          -1.71735        0.404946       -0.173477
LJ         -0.872299         2.48451         1.50363
LJ         -0.157611       -0.904174        0.435676
LJ           1.06047       -0.515181        -1.47439
LJ          0.646925        0.391597        0.219559
LJ          -2.02185         2.44321        0.877398
LJ           2.04742        0.103745           1.148
LJ          0.733025       -0.748355       -0.844562
LJ          -1.85212        0.645867         1.19301
LJ          -2.25261      -0.0674036          1.5239
