108
#Comment!
LJ          -1.19697         1.57703        0.279721
LJ          -1.80411        -1.59142         0.43395
LJ         -0.986848        0.732379        -1.01055
LJ          0.822768       -0.052302        0.055775
LJ           -1.0802        -2.07408       -0.654723
LJ           2.40956          1.4298         0.61597
LJ          -1.89785       -0.811516        -1.58409
LJ          0.531798        0.892549       -0.271518
LJ          -1.49878         1.00678         1.00134
LJ         -0.786535        0.465844       -0.215049
LJ              -nan            -nan            -nan
LJ          -1.41522       -0.228492         0.73612
LJ         -0.251386          2.0234       -0.252415
LJ              -nan            -nan            -nan
LJ           1.26527        -1.69231        -2.20238
LJ              -nan            -nan            -nan
LJ              -nan            -nan            -nan
LJ              -nan            -nan            -nan
LJ          -1.94023         1.18559         1.06324
LJ              -nan            -nan            -nan
LJ         -0.175484        -1.72386         1.80448
LJ           -1.9667         1.54906         1.20577
LJ          -1.09211        0.151489        0.480838
LJ              -nan            -nan            -nan
LJ         0.0838828       -0.565444        0.533512
LJ          -1.73873        0.804204        0.591817
LJ            2.1802       -0.411173        0.291316
LJ          -1.48974         2.15679        -1.48487
LJ         -0.419393         2.05084        0.393795
LJ           1.59468        0.816008         2.05637
LJ              -nan            -nan            -nan
LJ          -1.92122         1.40941          2.4617
LJ              -nan            -nan            -nan
LJ          -0.20012       -0.235529       -0.918527
LJ              -nan            -nan            -nan
LJ          -1.28481         1.69749         1.57844
LJ          -2.49047        0.410112         2.34449
LJ           1.78711        0.197439        0.751947
LJ          0.650358        0.770032        -1.21955
LJ            1.6404        0.590038        -2.19564
LJ          -2.14955        -2.06263        -1.27464
LJ         -0.895525       -0.297866        -1.35699
LJ          -2.02992           2.254        -1.80468
LJ         -0.233108       0.0773374      -0.0120404
LJ         -0.798634       -0.951556        0.287962
LJ          0.867815        -0.10136         1.20243
LJ           -2.5415        -2.08179       -0.227898
LJ          0.636436         2.07251        -2.24531
LJ          -1.00644       -0.412129        -1.96523
LJ          -0.67496         1.58854         -1.9456
LJ           1.93582       -0.149432         2.25189
LJ         -0.884451         2.46166         1.18552
LJ              -nan            -nan            -nan
LJ           0.63009        -1.86943        -1.61826
LJ            1.7286        0.396135         1.85945
LJ           1.00484        -1.86225         2.20585
LJ           1.08796        -2.41209        -1.54238
LJ          -0.88245        0.146774       -0.130256
LJ          0.580696       -0.213857        -1.75566
LJ           1.13397         2.53295        0.296058
LJ           0.95936         1.68099      -0.0525503
LJ         -0.214514        0.987854        -0.71919
LJ           1.45669         1.65215       -0.544828
LJ              -nan            -nan            -nan
LJ              -nan            -nan            -nan
LJ           2.27356        0.237564         2.50277
LJ            1.2836        0.961761          1.3054
LJ              -nan            -nan            -nan
LJ           1.06567         -2.1159         -1.0348
LJ          0.496994         1.49934       -0.305041
LJ          -1.85989         0.63464       -0.215323
LJ         -0.669993        -1.90637         1.96628
LJ          0.548887         2.24535         2.50127
LJ         0.0916601         1.26159        -2.17191
LJ         -0.534546         1.34676         2.06214
LJ           1.78334        -1.50565       -0.983251
LJ          -2.04218        0.629921        0.545005
LJ           1.88824        -1.27127         0.79051
LJ          0.649587         2.43949       -0.171077
LJ          0.350274        -1.05253        -1.04553
LJ          0.143558         -1.2445        0.614476
LJ         -0.581572        -2.55036          1.5617
LJ         -0.545078        -1.47227         2.46469
LJ           1.65006        -1.97754         1.34802
LJ         -0.246336        -1.57678        -2.19254
LJ          -1.58928       -0.124247         2.01562
LJ         -0.914749         2.03596         1.87372
LJ         -0.544404         1.29172        0.554201
LJ          -2.06176        -1.82265      -0.0264696
LJ           2.37476        0.736439        -1.32836
LJ              -nan            -nan            -nan
LJ          -1.35826        -2.56049         1.34746
LJ            1.9314       -0.936353        0.699951
LJ           0.99862         2.49369         1.39751
LJ           1.20727        -2.12177         1.66375
LJ          -1.10743          1.2856       -0.597035
LJ          0.769077         -1.9105         1.12783
LJ          0.810168         1.84156         1.69554
LJ              -nan            -nan            -nan
LJ          0.123493         1.64345       -0.329478
LJ           2.06935        -1.76753       -0.237067
LJ          -1.04133         1.88713         1.69157
LJ         -0.550921        -0.68677          1.8075
LJ           1.72799         1.78796       -0.846051
LJ              -nan            -nan            -nan
LJ            1.3128        0.456158       -0.363071
LJ          -2.23033         1.65475        -1.17271
LJ              -nan            -nan            -nan
