108
#Comment!
LJ          -1.53896       -0.641772         1.25713
LJ          -1.24956        0.504804         1.09869
LJ          -1.70599         -1.9317        0.660355
LJ          -1.33383        -1.79225         1.11546
LJ          0.801516         1.68466        0.991141
LJ           1.57757       -0.817652         1.80541
LJ          0.941151         1.87833         2.35801
LJ         -0.382461         2.48413       -0.837852
LJ          0.155578        -1.94321        0.576403
LJ          0.310468         2.45815       -0.134495
LJ         -0.899441        0.797091        -2.02147
LJ          -1.52047         1.90567        0.575616
LJ          0.255951        -1.15473        -1.62261
LJ         -0.930791         1.80562        -1.33154
LJ           2.05832         -2.4794        0.766925
LJ           -2.1741        0.722195        -1.73777
LJ         -0.949489        -2.37118       -0.557364
LJ          -1.68204        -2.48949          2.1739
LJ         -0.352183         1.09481        -1.84454
LJ           2.25514       -0.663074         0.11004
LJ         -0.442003          1.0085        -1.84004
LJ         -0.624073         1.95244        -2.12406
LJ           2.20873         -1.3413        -2.11352
LJ           1.49898       0.0976623          1.4293
LJ          -0.60592         2.40839         2.40609
LJ           2.26329        0.210464        -2.22577
LJ           2.42069        0.796949           1.208
LJ         -0.349529         2.35681        -1.29639
LJ          0.492454        -1.69743       -0.137724
LJ           1.65979         2.01218        -0.72118
LJ          -1.95808        -1.59618        -1.42766
LJ         -0.927603        -1.72709        -2.39752
LJ          -1.79992       -0.516248       -0.985386
LJ          -2.04633         1.51045        -1.14779
LJ          -1.35086         1.70827       -0.759437
LJ          -1.29254         1.99928       -0.794965
LJ          -0.76717         1.92249       -0.176019
LJ           1.94518       -0.909967         2.28533
LJ           2.46535       -0.602142         1.75006
LJ          0.996831       -0.438416       -0.365022
LJ          -2.18416         2.38788        0.653316
LJ          -2.05425         2.07941       -0.635088
LJ          -2.30487       -0.501893     -0.00754973
LJ           1.91054        -1.72718         1.29448
LJ         -0.293455         2.19033        0.582598
LJ         -0.813193        -1.45557       -0.960664
LJ          -2.34334        -1.70231       -0.268732
LJ         -0.778947       -0.651312        -1.36891
LJ           2.12758         1.53146        -1.75104
LJ          -1.52108         1.72617       -0.467761
LJ           1.86502        -0.29274       -0.819085
LJ          -2.56337      -0.0892204        -1.62004
LJ          -2.31912        0.840463        0.974877
LJ          -1.06965        0.237572         2.02759
LJ         -0.576874       -0.279725        -2.20657
LJ          0.574755        0.614523       -0.207726
LJ          -1.55992        -2.27978        -1.41202
LJ          0.788383         1.15175        -1.83955
LJ         -0.800082        -1.97153          -1.219
LJ          -1.66619        0.785822       -0.842704
LJ          -1.23091       -0.408532         2.32299
LJ          -1.49158        -1.08528        -2.09191
LJ           1.66128         2.12914        0.793424
LJ           2.31144       -0.903527          1.1886
LJ         -0.091663         1.90239        0.355713
LJ          -1.59964        -2.03782        0.318532
LJ           -1.3913         1.97731     -0.00373799
LJ            1.0989        0.649394       -0.359181
LJ           1.87064         1.52403        -2.24589
LJ          0.586506         2.54388         1.38563
LJ          0.121496         1.56341        0.770509
LJ           1.99474        -2.45695        -2.51272
LJ         -0.604085        -1.79031       -0.811286
LJ          -2.30948        -1.89536        0.657221
LJ         -0.926018         1.34287        -1.07602
LJ         -0.699935          1.5811        0.763394
LJ         -0.618895       -0.620186         1.77009
LJ          -2.24777        -2.09277       -0.533744
LJ         -0.284758         1.53182        0.380581
LJ           -1.8979        -1.97632        -2.02507
LJ          0.990505         1.42361        -2.36363
LJ            1.3412         2.06921          1.2751
LJ           1.91897        -1.56708         2.07069
LJ           1.56697        -2.23269        -1.83534
LJ           1.74276        -1.86412        -2.18881
LJ          0.547877        -1.06369        0.574431
LJ          -1.72266       -0.383554         2.47422
LJ           2.25978        -1.52656       0.0919144
LJ            1.9917        0.483515       -0.334506
LJ         -0.526909       -0.680392         2.39005
LJ           2.46742         1.04769         2.40197
LJ         -0.127542        -2.11638         1.76507
LJ          0.960069        -2.38245        0.253509
LJ         -0.931866        0.567894        -1.43159
LJ           1.39764        0.103107       -0.857077
LJ          -1.52223        -1.10394         1.57521
LJ           1.12475       -0.294065        -0.18167
LJ         0.0322208         2.41177       -0.663219
LJ          -1.64853        -0.52039       -0.359249
LJ         -0.395197        0.088906         1.17357
LJ         0.0246801        -1.54097         2.31127
LJ         0.0831432         1.59279         1.63893
LJ          -1.75192           2.036         2.51249
LJ         0.0817064        0.511787        -1.80182
LJ           -2.2074         1.69409        0.645952
LJ           1.62406        -1.02988        -2.27811
LJ          -2.51861        -2.09335        0.644533
LJ           1.71512       -0.779492          2.4449
