108
#Comment!
LJ         -0.247478         1.25679        -2.19204
LJ          0.131223         1.23775         -2.2285
LJ          0.325895        -1.58244       -0.288734
LJ           1.03063        0.799149         2.21048
LJ         -0.654499       -0.381187        -1.90004
LJ           -1.8454         1.03105        -1.39001
LJ         -0.583149         1.99091        -1.13846
LJ            0.9483         1.63717        -2.19361
LJ          -2.04347          2.3803      -0.0018779
LJ          -1.51554        -2.04173         2.49375
LJ              -nan            -nan            -nan
LJ          -2.06723        -1.73658         2.06107
LJ          0.254489        -2.20702        -1.94061
LJ         -0.933537       -0.355971       -0.929745
LJ          -1.21985        -1.50385        0.610018
LJ          -1.82777         2.45081      -0.0657849
LJ          0.667427        -0.72399         2.20198
LJ           2.48631       -0.770597         0.43609
LJ        -0.0593456         1.48836       -0.609546
LJ           2.32876          1.6687        0.918262
LJ         -0.371829        -2.26181        -1.88556
LJ          0.428808       0.0216162         2.10697
LJ          0.123553        -2.30833         1.19226
LJ           1.25246        -2.43491       -0.985671
LJ           1.86938        0.926543         0.59615
LJ           1.50143       -0.429617        0.216177
LJ          0.419936        0.926435         2.07305
LJ           1.36633         1.65299        -1.12597
LJ          -1.80153       -0.301413        -1.64425
LJ          0.471042         1.33302        -1.90259
LJ          -1.18671      -0.0813257       -0.153465
LJ          -1.98926         2.09524         1.02132
LJ              -nan            -nan            -nan
LJ           2.10189        -1.10666        -2.15985
LJ          0.574564        -1.72347          2.5307
LJ           1.03827       -0.736856        0.159479
LJ           -2.1434        0.578177        0.788864
LJ          -2.32053        0.427464         1.05607
LJ          -1.27858       -0.162137        -2.35893
LJ          -1.50459       -0.726635        0.326071
LJ          -2.27997         2.27352        -2.02852
LJ           1.95831       -0.158005          2.5285
LJ          0.153241         2.34564         1.11798
LJ          0.800166         2.33462       -0.432142
LJ          -2.00773        0.543513        -2.06759
LJ           -1.5474        -1.97697         2.47265
LJ          -1.38976       -0.104423        -1.25312
LJ         -0.325269         1.00497       -0.566854
LJ          -2.28252       -0.875534         2.46872
LJ          -1.57294         1.04783        -2.00767
LJ         -0.791867      -0.0600588         1.93059
LJ           2.15936        -1.07353         1.96951
LJ          -1.28294         1.05851         1.31727
LJ          0.426894        -2.40555        0.400069
LJ         -0.264852         2.17271       -0.467508
LJ          -2.45947        -2.04098        0.727795
LJ           2.49438        0.123267        0.245743
LJ          -2.51307       -0.448689         1.05549
LJ          -2.18624       -0.521297         1.19833
LJ           2.34221         -1.6934       -0.699192
LJ            1.6988         0.63795        -2.39066
LJ           2.54566        -1.92863       -0.658929
LJ          0.790414         1.69645        -2.35427
LJ         -0.899057        -1.57688       -0.838737
LJ           2.49057        -1.85584       -0.752349
LJ          -2.45587        0.774607        -1.19823
LJ          0.397858        -1.05023         2.24219
LJ         -0.871314        0.970647        0.548059
LJ          -2.48345       -0.969698         1.54093
LJ          -1.29192        -1.96011       -0.652714
LJ           1.87742        -2.54359       -0.582726
LJ           1.04256        -1.79656         0.54584
LJ           1.81101       0.0803612         1.14201
LJ           2.50152        0.449523         1.85858
LJ        -0.0479774         -1.8217       -0.759491
LJ           1.97201        -1.17509         1.21702
LJ          -0.73873       -0.404928       -0.987331
LJ          0.225513        -1.33657         1.12403
LJ          -2.22068         1.47248         2.13841
LJ           2.49735        0.333625        -0.35522
LJ         0.0287479         2.53491        0.421779
LJ           0.86279        -1.66487        -1.83832
LJ          -1.18955         1.71671        -1.27505
LJ         -0.358055       -0.676101         1.97855
LJ           0.29473        -1.42629        -1.17854
LJ           1.26637       -0.938404        0.882976
LJ          -1.26353        -1.58273        0.795799
LJ           1.57666        -2.38917       -0.628211
LJ           1.46829         2.30476        -2.31874
LJ           1.35397        0.494046         1.56565
LJ          0.893999         1.64455       -0.446174
LJ          -1.58852        -1.09331       -0.674806
LJ          -1.42008         1.06058        0.221368
LJ          0.701083         1.05509         2.32278
LJ           2.28793        0.868443         2.46007
LJ          0.180499        0.883031         -1.5464
LJ          0.200299         2.23321        -2.19663
LJ           2.43406         2.23918       -0.235145
LJ         -0.009851        0.871789         1.69339
LJ         -0.244033       -0.303544       -0.111158
LJ          -1.06859        -1.96165         1.68345
LJ         -0.370616        0.190424        0.390247
LJ           1.53317        -1.28511        -1.67787
LJ         -0.846349       -0.605916        -2.27821
LJ         0.0816347        -0.15653         2.22905
LJ         -0.288507        0.413864        -2.12546
LJ           1.51802         -1.4303        -1.90615
LJ          -2.46414         2.53144        -1.60934
