108
#Comment!
LJ          0.189498         1.92321          1.3553
LJ         -0.692569       -0.810037        -1.68275
LJ           -1.8529         0.27158        -1.88664
LJ          0.821577       -0.419931         2.51226
LJ          0.316073        -1.72976         2.01076
LJ          -2.20006        0.783716         1.02866
LJ          0.751284        -2.38556         1.96996
LJ           2.13838        -1.35904         1.65441
LJ          -1.00519       -0.733204        -1.59864
LJ          -0.85922       -0.964747        -1.63018
LJ              -nan            -nan            -nan
LJ           1.19644        -2.16494         1.92393
LJ         -0.451594       -0.252343         1.91734
LJ         -0.569381        -0.61047        0.516368
LJ         -0.410861         0.85685        -1.27008
LJ          -2.43097        0.730321        -1.81908
LJ              -nan            -nan            -nan
LJ              -nan            -nan            -nan
LJ          -2.52613         1.68434         0.48635
LJ              -nan            -nan            -nan
LJ          -1.58185        -2.34279       0.0138011
LJ         -0.823259       -0.557999         1.39774
LJ          -1.06433        0.195549         2.54684
LJ          -1.76909        -1.76232        -1.87343
LJ         -0.166677        -1.01785        -1.80657
LJ           -2.1223        -1.91234        -2.50959
LJ           1.98173         0.58898         1.92556
LJ           1.33984       -0.332031        0.421875
LJ         -0.512571        -1.54425         1.19852
LJ           1.34529        -1.75282        0.789294
LJ          -1.24085        0.857228       -0.712504
LJ          -0.31549         2.46354        -1.54847
LJ              -nan            -nan            -nan
LJ          -1.71702       -0.471485       -0.815071
LJ              -nan            -nan            -nan
LJ          -1.34884        -1.56294        -1.04187
LJ          0.594692        -2.22057       -0.443082
LJ           1.81733       -0.940299        0.536752
LJ         -0.810832         1.20864         1.62395
LJ         -0.566813        -2.28269         2.53688
LJ          -1.22643        -2.19523       -0.296734
LJ          0.689772       -0.343121        -1.72913
LJ           2.19251     -0.00831381       -0.360003
LJ          -2.39174       -0.258897        -1.44269
LJ          -2.20672       -0.252205         1.81281
LJ         -0.941301        -2.40995         1.07271
LJ           1.33138        0.802599         1.91416
LJ           -1.1091        -1.08062        0.950609
LJ            1.5262        0.855587         2.25775
LJ           2.05353        -2.08778         1.68621
LJ         -0.472348         -1.2909         2.34834
LJ           1.01018        -0.64626        -1.29617
LJ              -nan            -nan            -nan
LJ        0.00534448        -1.90388          2.0727
LJ          -1.15306        0.934822         1.13125
LJ           1.57396         1.45142        0.895342
LJ          0.230151        0.751032          1.9811
LJ         -0.195436       -0.502369        0.775154
LJ           1.71146          2.5382         2.26369
LJ           -0.5611         1.15639        0.717307
LJ           1.17199         2.39467        -0.45914
LJ           1.96039        -1.65218        0.131854
LJ         -0.128946       0.0840629         2.53999
LJ           2.41405       0.0756171         -1.4719
LJ          0.896674        -1.01567       -0.973488
LJ           2.34799       0.0520646       -0.254494
LJ         -0.559127        -2.48183       -0.326296
LJ              -nan            -nan            -nan
LJ          -1.31007        0.573286        -2.21744
LJ          -1.02594        -1.54023        -2.03578
LJ         0.0496937         2.20006       -0.126492
LJ          -2.46176        0.522913         2.20659
LJ            1.1932         2.25415        -0.90844
LJ          0.432239         -1.7811        -1.23855
LJ         0.0208037       -0.583373       -0.707119
LJ         -0.855469        0.293457         0.59375
LJ          -2.13692        0.451598       -0.387057
LJ          -1.06286        -2.33892        0.980976
LJ           1.56949        -2.02884       -0.761343
LJ          -1.36325       -0.959831        -1.33215
LJ          -2.32755       -0.101286        -2.52862
LJ          -0.11798        -1.61452        0.750378
LJ         -0.363729        -1.42192        0.433199
LJ           1.42264        -1.02712        0.202617
LJ        -0.0427261        -1.10407        0.130681
LJ           1.88941         2.49651         2.36758
LJ          0.824311         2.07794        -2.47685
LJ           -1.3127        -2.29533        -1.42333
LJ         -0.262549         1.76998        -0.47505
LJ          0.864158        -1.22362         1.63807
LJ              -nan            -nan            -nan
LJ           2.48382         1.05056         1.71365
LJ          -1.78183       0.0316075         2.06296
LJ           1.41055        0.406431         0.33594
LJ           2.03969          1.2961         1.70341
LJ         -0.373927         1.25978        -1.96364
LJ          0.835838         1.77007         2.02622
LJ          -1.57836        -1.69382        -1.66781
LJ         -0.235725        0.188931        0.679306
LJ          -0.95017        0.692094        -1.88132
LJ          -1.78544         1.37463        0.772248
LJ           1.52395        0.464001         2.29133
LJ          -1.84159         2.00767        -1.84588
LJ         -0.836571        -0.66652       -0.799359
LJ          0.559717      0.00458869         1.32087
LJ           2.35134         -1.4901         2.33504
LJ           2.10159        0.766086        -1.52176
LJ              -nan            -nan            -nan
