108
#Comment!
LJ          0.254218        0.766855         -2.1927
LJ          -1.57978         1.16057         1.50766
LJ           1.23234        -2.26194        -1.26525
LJ          0.212199        -1.94254       -0.734432
LJ          0.105782       0.0429932        -1.59094
LJ          -1.55884       -0.554858        -1.51055
LJ          0.574481        0.645773       -0.999856
LJ         -0.191626        0.898819       0.0774824
LJ          0.104521       -0.510336        -2.28704
LJ          -2.54574         1.87452         2.32816
LJ              -nan            -nan            -nan
LJ          -2.02241        -1.00874        -1.10525
LJ         -0.952858       -0.736232       -0.401633
LJ           1.45619        -2.14409        -1.85238
LJ          -1.34407         2.24545        -2.44187
LJ         -0.229187         1.56486         1.80104
LJ              -nan            -nan            -nan
LJ              -nan            -nan            -nan
LJ          -1.31056        -1.14767        0.216309
LJ              -nan            -nan            -nan
LJ          -1.15344       -0.763424        -1.20651
LJ            1.0502       -0.237561         1.04786
LJ          -1.58279         1.69102         1.98851
LJ          0.238746        0.536206         1.92229
LJ           1.50277         1.02855        0.572453
LJ         -0.915315        0.491101         1.20549
LJ          0.461852        0.109993        -1.66188
LJ           -1.4487        -2.42691         0.66284
LJ         -0.840569        -2.46058        -1.82014
LJ           1.76674       -0.443695        -2.39093
LJ          -1.04659        0.596467        0.831666
LJ         -0.147097       -0.926187        -1.34848
LJ              -nan            -nan            -nan
LJ          0.199097         1.28515        0.146117
LJ              -nan            -nan            -nan
LJ          -1.88259         2.01361        0.449266
LJ          -1.69631        -1.39423         1.98893
LJ         -0.394309        -0.17971       -0.623292
LJ           1.57275       -0.966341         0.37566
LJ         -0.354484       -0.143714          1.9977
LJ          -1.89414       0.0895082         2.30512
LJ         -0.239267        -1.36564         -1.3641
LJ           2.46345        0.840368        0.201738
LJ           1.62789         2.33762         1.89804
LJ           2.37599        -1.00937        -1.15603
LJ         -0.364785         2.12582        -1.52006
LJ           2.04956         1.57942        -1.67444
LJ          -2.39787       -0.470633         -2.4314
LJ           2.14749        0.622738        -2.19399
LJ           1.18054       -0.104623        -1.45039
LJ           1.77397        -2.52445       -0.913955
LJ           1.30691        -1.54786       -0.308593
LJ              -nan            -nan            -nan
LJ       -0.00992814       0.0740822       -0.873145
LJ          0.311615       -0.187181        -1.74029
LJ          -2.03395        -2.38796       -0.202731
LJ          0.787665       -0.338529       -0.700166
LJ           1.83529         1.55875        -1.27427
LJ           1.84518       -0.100649         0.34093
LJ           1.61265        -2.35152        0.231227
LJ           2.20463       -0.989113        0.990493
LJ          0.424672        0.703914        -1.41477
LJ            1.7836        -1.45104         -1.8657
LJ          0.813962       -0.222128       -0.593888
LJ           1.50858        -1.43448         1.87722
LJ           1.42094         2.56249         1.13141
LJ           2.04064       -0.306681         2.03955
LJ              -nan            -nan            -nan
LJ           1.67225        0.763841        -1.86707
LJ         -0.640222        0.705371         2.37615
LJ          0.879158         2.52063        -1.42988
LJ           -2.0083         2.53413       -0.457894
LJ          -1.37161       -0.197492      -0.0864215
LJ          0.792552         2.07821        -2.41691
LJ         -0.671463         1.98828        -1.19805
LJ         -0.748937        -2.39802       -0.565347
LJ          -1.63499       -0.170043         2.49989
LJ          -1.50842        -1.80827        -2.55703
LJ          -2.02717         2.19098       -0.983234
LJ         -0.758033         1.45098         0.69365
LJ          -1.41932        0.383585        0.348144
LJ           1.08271       -0.144866       -0.890887
LJ         -0.265096       -0.531932         1.67312
LJ          -2.21271        -1.46033         1.67704
LJ          -0.83907       -0.500259        -1.14812
LJ          -2.44184        -1.03056        -1.44302
LJ          -1.18667        -1.14443         1.59611
LJ          0.533109        0.533349         -1.2656
LJ         -0.223716        -2.17428         -1.4438
LJ         -0.392623         1.14979         1.53012
LJ              -nan            -nan            -nan
LJ          0.056698         1.50184         0.89679
LJ           2.05894         2.01696        0.315254
LJ          -1.74284         1.22753       -0.971182
LJ           1.99213          2.5129        -2.39898
LJ         -0.206665        0.309316         1.26892
LJ           1.72679        0.526282         2.25691
LJ          -1.42565       -0.793744        0.529598
LJ          -2.06615         -2.1597         1.35312
LJ          -2.04393        -2.21737       -0.308123
LJ           1.42282         1.05824         2.56015
LJ          -2.09772         1.75026       -0.783127
LJ          0.074539        -1.89173        -2.16551
LJ          0.581761         1.23725        -1.14498
LJ           1.63974          1.8373        -1.61226
LJ            1.4118        -2.04958        -2.47917
LJ           1.67017       -0.266042       0.0462072
LJ              -nan            -nan            -nan
