108
#Comment!
LJ          -2.03843         2.30143       0.0825173
LJ           1.68445        -1.86206       -0.540903
LJ           1.32835       -0.980767        -2.22351
LJ           1.55256         2.22226       -0.571034
LJ           0.17063        -1.41687        -1.47847
LJ           2.15955       -0.519344       -0.870923
LJ          -2.22908       -0.869672       -0.821015
LJ           2.08593         2.23614         2.35366
LJ           1.04174        -1.10297         1.55961
LJ           1.39847        0.282563        -1.47345
LJ              -nan            -nan            -nan
LJ          -2.45788        -1.73051          2.5298
LJ          -2.51702       -0.542461       -0.772465
LJ              -nan            -nan            -nan
LJ          -1.32561        0.815926        -2.23561
LJ              -nan            -nan            -nan
LJ              -nan            -nan            -nan
LJ              -nan            -nan            -nan
LJ          -1.22392         1.14561         2.32847
LJ              -nan            -nan            -nan
LJ           1.25118        0.976773       -0.967359
LJ          0.686408        0.543603        -2.45638
LJ         -0.526658        -1.10844         1.76014
LJ              -nan            -nan            -nan
LJ         -0.402625        0.229306         1.03131
LJ           2.35523        -2.14816        -1.29022
LJ          0.115592        -2.19178       -0.246609
LJ          -1.77391       -0.900053         2.32909
LJ          -1.61462         1.14976        -2.50837
LJ         -0.425448         1.06053        -2.22192
LJ              -nan            -nan            -nan
LJ          0.774879        0.646172        0.633601
LJ              -nan            -nan            -nan
LJ          0.288955         1.28591         1.18828
LJ              -nan            -nan            -nan
LJ          -2.54293       -0.745654       -0.603173
LJ           -1.2908        0.163174         2.17261
LJ           1.45703       -0.523384         2.05944
LJ         -0.809595         1.12168        0.891848
LJ           1.42483         -1.5726         0.99042
LJ         -0.442391         1.03801        0.363401
LJ            1.7698        -2.10237        -1.37522
LJ          0.696795        -1.98212        -2.51935
LJ           1.70311         2.40677       0.0783789
LJ          0.706386        -1.18549       0.0897223
LJ           1.17316        -1.46911         1.49579
LJ          0.515242       -0.137776        -1.17504
LJ           1.82621        0.689964       -0.489232
LJ           1.73705         1.95337      -0.0912923
LJ          0.382413          2.5486        -2.21553
LJ             2.336        -2.09783        -1.57124
LJ          0.868874         1.06524         0.35011
LJ              -nan            -nan            -nan
LJ           1.31296        -1.84026        -2.12771
LJ           1.63352        0.227097        -1.27013
LJ         -0.997358        -1.47712         2.30844
LJ        -0.0561334         2.41988         2.33772
LJ          -2.14195        -1.28751         1.98591
LJ          -1.50148        -2.17634        0.165546
LJ          -1.60849          2.2607        0.685079
LJ         -0.509213       -0.598066       -0.847825
LJ           2.24013       0.0632072        -1.73391
LJ          -0.69369         1.52863         1.42767
LJ              -nan            -nan            -nan
LJ              -nan            -nan            -nan
LJ           1.83292       -0.347741       -0.136154
LJ         0.0361689         2.32579         1.53628
LJ              -nan            -nan            -nan
LJ          -0.80257        -0.99093         1.79134
LJ         -0.270863          1.0542         2.37993
LJ          -1.31995        -2.33651       -0.781425
LJ           2.39732        -1.24503        0.727448
LJ           1.72246        -1.95788         1.70751
LJ           1.51241        -1.43552         -1.0146
LJ           1.17806       -0.582719       -0.196607
LJ           1.30485         1.42723          2.4427
LJ          -1.69377        -1.08916        -2.48726
LJ          -0.25802       -0.741587       -0.918423
LJ         -0.626893         2.48704        -0.63245
LJ          -1.87029         1.33489        -2.12528
LJ          -1.27653          1.7462        -1.74131
LJ          -1.36264        -1.22011         1.55985
LJ         -0.659422         2.13574         1.98781
LJ           2.32394         1.69428        0.322479
LJ           1.37127        -1.47677        0.503502
LJ           2.53875        0.844692        0.943874
LJ           2.29447        -2.52046        -1.45422
LJ           1.37237          1.4391         0.43462
LJ           2.14789        -1.03458      -0.0432399
LJ            2.1648         -2.3778        0.128512
LJ              -nan            -nan            -nan
LJ          -1.55453        -2.06867        -2.11194
LJ          -1.00284         1.86228        0.553787
LJ          -1.19699        -1.57256        -2.20224
LJ          0.424816       -0.254331       -0.684034
LJ          -2.55463         0.84664         1.22199
LJ          0.224634         2.01401         2.19018
LJ          -1.76997       -0.699227        -1.69192
LJ              -nan            -nan            -nan
LJ          -1.50832        -1.29398        -1.89053
LJ          0.975692       -0.555725       -0.449033
LJ          0.523148         2.25361       -0.108289
LJ         0.0637975        0.208745         1.35569
LJ          -2.38944        0.651927         -1.1058
LJ              -nan            -nan            -nan
LJ          -1.34949        -1.16596        0.664981
LJ          -1.88218         2.25259        0.540118
LJ              -nan            -nan            -nan
