108
#Comment!
LJ          -2.47974         2.50918        -1.97618
LJ          0.654001         2.18774        -1.01368
LJ          -1.38531         1.83642       -0.165017
LJ          0.786601          1.1994       -0.078172
LJ          -2.23081        -2.50285       -0.422255
LJ         -0.773074        -1.41598         -1.8239
LJ          -0.34212       -0.613061         2.21302
LJ         -0.997216         2.44445         1.41543
LJ           2.10694         1.01662        -2.37488
LJ          -1.56549       -0.815305         1.98885
LJ              -nan            -nan            -nan
LJ          -2.22424         2.35329       0.0217629
LJ         -0.852335         1.48913       -0.496876
LJ           2.14225       -0.218604        -1.21869
LJ        -0.0390439        -2.27934         -0.8624
LJ         -0.418802       -0.326445         -1.4492
LJ              -nan            -nan            -nan
LJ              -nan            -nan            -nan
LJ          -1.66999        0.955983         0.42377
LJ              -nan            -nan            -nan
LJ          -0.13274        -0.56282       -0.794888
LJ           -1.9644       -0.980641         -1.6315
LJ          -1.82245        0.154165        0.395381
LJ           1.35486         1.34883         1.29489
LJ          0.751329       -0.626652      -0.0129136
LJ          -1.01496        0.533704         1.06447
LJ           2.19095        0.541552         1.59754
LJ          0.887254        -1.43829        0.578254
LJ           1.37741         1.56946        -2.25668
LJ           0.23061        -1.29314         1.76201
LJ          -2.49733        -1.38456       -0.267081
LJ           2.41873        -0.19922       -0.826838
LJ              -nan            -nan            -nan
LJ         -0.414216         1.85632        -1.74233
LJ              -nan            -nan            -nan
LJ          -1.12599          2.3177        -1.18794
LJ           1.60863       -0.550012        -2.16936
LJ          -2.56364         2.39059         2.45049
LJ           1.51185        -1.04205         -1.4479
LJ          0.323481        0.938171        -1.76566
LJ          0.367363       -0.171029        -2.47022
LJ           1.29448        0.861702         2.03466
LJ           1.70817         2.30099        -1.16753
LJ           1.95598        -2.44923        0.046568
LJ           2.24367        0.523453        -2.53541
LJ         -0.236132        0.538311         1.16808
LJ          0.701515        -1.66386         2.10899
LJ         -0.250533        -1.75765         -1.3057
LJ            2.2902        -1.03926       -0.950175
LJ         -0.761015        -1.00013       -0.117647
LJ            2.2825         2.56214        -1.58084
LJ           1.14972        0.688206         2.14267
LJ              -nan            -nan            -nan
LJ          0.455123         2.54839        -1.26952
LJ           1.48004         1.12092        -2.36502
LJ           1.08206         1.32599        0.121996
LJ           2.31057          1.2559         1.60024
LJ             1.077        -1.64419         2.01724
LJ         -0.238611       -0.907672        -2.35197
LJ         0.0801021        -2.34968       -0.928829
LJ          -2.02565        -1.18205        0.441031
LJ           2.15672        -2.33618        -1.50045
LJ          -1.29087        0.124084       -0.882227
LJ           2.39748       -0.351992        -2.17175
LJ          0.645785         1.23225         -1.8407
LJ         -0.792982       -0.871756         1.52397
LJ           0.54499         1.45626        -1.24348
LJ              -nan            -nan            -nan
LJ           1.38771       -0.285851       -0.668575
LJ         -0.254554      -0.0856256        -1.25177
LJ         -0.969535       -0.764222        -1.58901
LJ           1.65498        0.281539         -1.8741
LJ           2.39893        -1.25766        -1.94933
LJ           1.99773       0.0954061         1.19391
LJ          -0.31714         1.59794        -1.38466
LJ           2.37576        0.295344        -1.66844
LJ          -1.14302         2.04561        0.268894
LJ           0.44628        0.946025        -2.29276
LJ         -0.104461        -1.81457       -0.972057
LJ          0.989091       -0.558078          1.7202
LJ         -0.634544         1.12107        0.285327
LJ         -0.948646        -1.01237         2.18812
LJ           1.77848         1.76417        0.613639
LJ            1.2973       -0.293639        -2.30905
LJ           1.54048        -1.27153        -1.00391
LJ         0.0771095         1.01597       -0.318053
LJ         -0.930618        0.360921         1.76446
LJ         -0.883373        0.458039         1.98198
LJ           2.45376        -1.44854       -0.121849
LJ           1.82501         1.64175        -1.58468
LJ              -nan            -nan            -nan
LJ        -0.0381031          2.5547       -0.366916
LJ          0.356229        -1.37444        -2.53271
LJ           1.05527         1.59688        -1.40247
LJ           0.39719      -0.0832783        -2.31434
LJ          -2.33457        -2.43599        -1.81389
LJ           -1.3225         1.41091       -0.697175
LJ          0.853445        0.997017        0.372636
LJ          0.158673         2.04455       -0.103394
LJ         -0.134989        -2.37845         1.62438
LJ           2.46019         -1.3379         1.94199
LJ           1.88302         -1.2793         2.26948
LJ          -2.04005         1.84268         1.63229
LJ            1.1297          1.3786        0.223738
LJ           2.18733        -1.48577         2.55713
LJ           1.90334         1.05885       0.0351261
LJ          0.708434         0.89684         -1.6291
LJ              -nan            -nan            -nan
