108
#Comment!
LJ          0.414782        -2.14377        -1.34502
LJ          -1.46185       -0.242397        0.957789
LJ           1.07566       -0.129827        -2.30794
LJ          -2.15633         1.77355        0.250538
LJ           1.50985        0.767994         1.61995
LJ          0.719846         2.53951        -2.21835
LJ          0.029506         2.35531          1.5477
LJ           2.42277       -0.808794       -0.174939
LJ          -1.65152        0.784449        -1.46052
LJ         -0.527364       -0.577747        0.612787
LJ              -nan            -nan            -nan
LJ          -1.51746         2.33141        -2.14595
LJ          -1.90886        0.459345        -1.45297
LJ           1.47422       -0.975437          -1.858
LJ         0.0263756        -1.81664        -1.99598
LJ           1.96932        -2.27955        0.340886
LJ            1.1257        0.782619         2.52818
LJ          0.386937        -2.11488        0.677493
LJ          0.910881        -2.09917       -0.421843
LJ          -1.09712        0.672473        -1.27508
LJ           2.51373         1.21732        -0.29824
LJ           1.85146         1.01205        0.244235
LJ           1.12542          1.8035         2.44225
LJ          -2.26345         2.21544       -0.846965
LJ          -1.78962         1.47273        -2.53583
LJ          -0.38993         -2.4333         1.91107
LJ          0.777494        -1.35395        0.806438
LJ          -1.38572      -0.0465786        0.635178
LJ           1.59639       -0.878333         0.21581
LJ          -1.97219         1.30709       -0.707108
LJ          -2.44763       -0.222557       -0.865467
LJ           1.42111        -1.25591       -0.734318
LJ              -nan            -nan            -nan
LJ           2.49021         1.71886       -0.930604
LJ          -1.10795       -0.382885       -0.312602
LJ        -0.0958866         2.14291        0.685833
LJ            2.4982        -2.26588        -1.70988
LJ           1.66521        0.428803        -2.48788
LJ          0.378756        0.735368       -0.701647
LJ          -2.21242        -1.62193         -1.0856
LJ           1.91682         2.46789       -0.788019
LJ          -1.33798        0.909188         -1.5198
LJ         -0.733014         1.09356        0.688839
LJ          -1.62459         1.65013       -0.629134
LJ          -2.55862       -0.659575         -2.0001
LJ           1.33408        -1.83433        -1.62077
LJ         -0.853273      -0.0280036         2.07429
LJ           1.11393         1.88444       -0.410104
LJ         -0.720941        0.781952         1.97956
LJ         -0.297773         1.62791         2.17121
LJ          -1.40967      -0.0323423         1.36948
LJ          0.568065        -1.92911        0.536448
LJ          0.160623        -1.05557         0.27733
LJ           1.93813        -1.76816        -1.10229
LJ         -0.410961         1.79619         1.89904
LJ           1.58862         2.32501        -1.80676
LJ         -0.694408        -1.76327       0.0808955
LJ          -0.66664       -0.296571        -0.25969
LJ           -2.0265        -1.59755         2.09859
LJ           1.15764        -1.52072        -2.51934
LJ          -1.05753        -1.58246        0.901514
LJ          -2.50077         1.17016         1.65401
LJ         -0.580943         2.52701        -1.96857
LJ         -0.770226        -1.15639        0.954216
LJ         -0.560505        0.288198         1.87316
LJ           1.12961        -1.07336        -1.21707
LJ          -2.20986       0.0370435         1.07419
LJ          0.465415       -0.704582        0.384249
LJ          -1.60836        -0.45352        -1.22215
LJ          -2.10332        -2.48765         1.03751
LJ           2.55248        0.811841        -1.54198
LJ           1.20609       -0.694874        -2.15606
LJ            1.2102         1.39848       -0.027427
LJ          -1.87738       -0.757052        0.999203
LJ          -1.74386        -1.82656        0.190205
LJ          0.340282       0.0191815        0.694109
LJ           1.02493        -1.15583       -0.703398
LJ          0.315996        -1.85678       -0.803145
LJ           1.61997        -2.09257        -2.54741
LJ           1.65206        -2.11997         1.65472
LJ          -2.18676        -1.63881        -1.57797
LJ           1.55825        -0.21758        -1.07133
LJ           -1.6886        0.119244        0.104117
LJ           1.32809        0.147931        0.754615
LJ          -2.38618         1.51797        0.414134
LJ           1.15843        0.827585        -2.55217
LJ          0.602645        -2.09331         0.66845
LJ          -0.23303         2.35036        -1.49533
LJ          -1.73872         1.31214         -1.9053
LJ          -1.53049        0.104356         1.19882
LJ          -0.66869        0.286249        -1.02848
LJ          0.404531       -0.347824       -0.660752
LJ           1.50765        0.144156        0.218107
LJ          0.743213        -2.37561         2.40374
LJ         -0.909104         1.94858       -0.518195
LJ          -2.38657      -0.0692456        -2.39457
LJ          -1.86733        -1.37321         0.45695
LJ           2.08057         2.35665        -2.37888
LJ          -2.29463         -1.0457        -0.17072
LJ           2.00906       -0.616509        -1.75832
LJ            1.9087          2.0328         1.87854
LJ          -1.17241        -1.30173       -0.583033
LJ           1.86408       -0.302613         1.54455
LJ           2.09645        -2.38306        0.496327
LJ         -0.611903         1.65245        -1.81478
LJ          -1.96851         1.04479         1.31965
LJ         -0.695426        -0.47907         1.54833
LJ            2.5316        -1.98661         1.56405
