108
#Comment!
LJ        -0.0288467         1.45902       -0.577736
LJ           2.48443        -2.19903        0.211781
LJ         -0.796062         1.55844       -0.145946
LJ          -1.86736        0.232676        -1.37644
LJ          -1.65429        0.858153       -0.570559
LJ          -2.13763        0.834469        -2.40863
LJ         -0.694323        0.626297        0.297003
LJ           1.61239        -1.73842        0.435184
LJ         -0.652703         2.29837         2.47431
LJ          -1.16163        0.568862        -1.99558
LJ              -nan            -nan            -nan
LJ          -2.43278         1.37086         2.18744
LJ           2.27204         1.19275        -1.12688
LJ          0.635301        0.123354        -1.75286
LJ          -1.25968         0.31193        -0.50973
LJ           2.00279        0.710253       -0.611641
LJ              -nan            -nan            -nan
LJ              -nan            -nan            -nan
LJ           2.46264        -2.14988        -2.14221
LJ              -nan            -nan            -nan
LJ          -1.57531        -1.30938       -0.233407
LJ           1.16686       -0.232392         1.10578
LJ           1.54223        -1.84592        -1.64828
LJ           1.49566        -2.26333        -2.42059
LJ          0.762528        -2.35211        0.786312
LJ           1.68434          1.5474         2.09562
LJ           1.45726         -2.4338        -2.00806
LJ          -2.02068        -1.03031        0.835127
LJ          0.368802         2.15737       -0.980027
LJ         -0.673465         1.46094       -0.907227
LJ          -1.80179         1.24328         1.68373
LJ          0.883557         1.21732         1.61636
LJ              -nan            -nan            -nan
LJ          -1.15085        -1.48724        0.918575
LJ              -nan            -nan            -nan
LJ           2.24492       -0.785059        -2.03437
LJ          0.882194         1.27561        0.833965
LJ           1.36033       -0.156316        0.316731
LJ          -1.77392        0.910632          1.7756
LJ         -0.549378         1.33447        -1.21551
LJ         -0.478593        0.795039         2.05864
LJ          -2.03082        -2.40722         2.31796
LJ           2.10429       -0.364344        -2.53819
LJ            2.4194       -0.907678        -1.26026
LJ          -2.02322        -1.37748        0.242834
LJ           0.68542         2.14614         1.74871
LJ           1.61261         2.46213         1.52233
LJ          -1.37134         2.50632        0.672758
LJ         -0.406319       -0.343008         1.26107
LJ           2.13712        0.936049        -2.16608
LJ          0.955256         2.36318         -1.7472
LJ          0.860613         2.33397         1.10606
LJ              -nan            -nan            -nan
LJ          -0.88575        -2.44053        -1.05296
LJ          -1.08032         1.02185       -0.213595
LJ           1.30964      -0.0269553         1.93388
LJ           1.55209        -0.44863        0.771208
LJ           1.73621       -0.829605         2.03241
LJ           -1.3155         1.43254        0.662017
LJ          0.683392        0.745759        0.188814
LJ          -2.08253         1.76187        -2.53698
LJ         -0.482005          1.4296        -1.36058
LJ           1.07751        0.655399         2.29287
LJ          -1.16085        -1.02853         1.15954
LJ         -0.357423        -2.14823        0.203281
LJ          -1.18346       0.0262909        -2.38634
LJ         -0.816718        -2.07719        0.235253
LJ              -nan            -nan            -nan
LJ         -0.440037         1.85272      -0.0406449
LJ          0.705665        -1.24161         0.96856
LJ           -2.1136        -1.39859         -1.9032
LJ          -1.05188        0.938368        0.795914
LJ            1.4049         1.51311        0.396701
LJ         -0.162011        0.111989         1.87178
LJ         -0.673651        0.984014         1.38405
LJ          -2.31392       0.0820896      -0.0160565
LJ           1.09867       -0.648634        -2.55907
LJ          -1.00337         2.49256        -0.52165
LJ         -0.540263       -0.695201        0.836457
LJ         -0.454812         0.28967     -0.00107031
LJ           1.42003         2.20705        0.324662
LJ          -2.20148        -1.76677        -1.27953
LJ          -2.00432       -0.870721         1.80244
LJ          -1.98775         1.43051         1.11432
LJ          0.564742       -0.899506        -1.80369
LJ          -1.90859         1.40491        0.832886
LJ           1.45141         2.53471        -1.51653
LJ             2.112      -0.0125998      0.00831772
LJ         -0.136898        -1.52175        0.216177
LJ          0.840064       -0.924279         -2.4166
LJ              -nan            -nan            -nan
LJ         0.0671762       -0.139082          1.7448
LJ          -2.35895        -1.69097       -0.599154
LJ         -0.719825        -1.48544     -0.00600657
LJ           2.48088       -0.269699         1.16593
LJ           -1.1725         -2.5287         2.47477
LJ           2.26576        -2.45793        -2.40997
LJ         -0.312582        -1.02141         -2.3678
LJ          -2.39447     -0.00906789        -1.04643
LJ          0.305818       -0.225637        -2.16584
LJ          -1.88757         2.01263          2.1939
LJ         -0.565241         2.11601       -0.735733
LJ        -0.0451149         1.03735        0.821298
LJ           2.19602          1.9189        -2.41865
LJ          -1.04446         1.61895         2.37888
LJ           1.67852         -2.0591       -0.739055
LJ         -0.757469         1.66876         2.26877
LJ              -nan            -nan            -nan
