108
#Comment!
LJ         -0.508839        0.746069       -0.344577
LJ           2.27503       -0.950817         1.05246
LJ         -0.465386         1.21725         1.89206
LJ         -0.379301        -1.08987        -2.47326
LJ           2.30713       -0.369569         1.41666
LJ           2.46188       -0.450966        -1.01582
LJ           1.42056         2.34017         1.39834
LJ           1.31858         1.35615        0.388926
LJ          -1.09013        0.355815         1.67944
LJ          -1.71193         1.16311        -1.04995
LJ              -nan            -nan            -nan
LJ           1.34389         0.45059          1.1474
LJ           2.24958         1.75104        -2.26088
LJ          -1.25515          1.5573        -1.41506
LJ          -1.34816        -2.22222        -2.29474
LJ          -1.17264       -0.680096         2.50422
LJ              -nan            -nan            -nan
LJ              -nan            -nan            -nan
LJ          0.532372        0.156888        -1.00092
LJ              -nan            -nan            -nan
LJ          -1.77317         1.47621         0.29699
LJ          -1.10077         2.34596        -2.54804
LJ           2.30228        0.300726         -2.1042
LJ         0.0493272         1.89946       -0.579475
LJ           1.28776         2.23777         0.84077
LJ          -1.45561        -2.12644         1.34031
LJ           1.97938        -2.37818       -0.444285
LJ          -1.93718        0.644714       -0.361462
LJ          -1.60451        -2.20199       -0.964363
LJ            2.0145       -0.192758         1.51267
LJ          0.847798        -0.11366       -0.734048
LJ          -2.43615         1.99012        -1.44999
LJ              -nan            -nan            -nan
LJ           1.32412        -1.30158         1.47952
LJ              -nan            -nan            -nan
LJ          0.618719        0.348356        -1.14234
LJ          -2.27862       0.0679779        -1.16635
LJ          -1.26413         1.36148         -1.6437
LJ          0.363167        -1.84485       0.0225346
LJ          -2.03189         1.91768        0.077441
LJ          -2.43011        -2.22466          1.3553
LJ           1.05123        0.773622        0.920422
LJ          -2.08703         2.50929        -2.49233
LJ         -0.124964         1.13889        -1.17019
LJ         -0.408573        -1.68117        0.983201
LJ         -0.711562        -1.48765        0.319293
LJ           -1.5998        0.831334       -0.168611
LJ           2.05621         2.16728        -1.64382
LJ           1.27203          1.4973       -0.551117
LJ           1.68007        -1.88686       -0.401764
LJ          -1.25583        -1.78481        0.590331
LJ           1.60544         1.76919         2.54389
LJ              -nan            -nan            -nan
LJ           0.72694        0.596484        -1.61558
LJ           1.57012       -0.313313        -2.18009
LJ           1.06294        -1.89527        0.435124
LJ           1.15583       -0.808783         1.45954
LJ         -0.122244         2.27498          1.2762
LJ          -0.19728        0.530018       -0.869257
LJ           1.71542          -2.366         2.11413
LJ          0.488096        -0.13952       -0.443233
LJ         -0.699741       -0.650915       -0.299284
LJ        -0.0586928        0.924105       -0.572885
LJ          -1.74774        0.577712        0.886057
LJ         -0.765169        -2.29425        -1.25148
LJ          0.792363         1.31295       -0.819394
LJ          -1.26381        0.756513        0.697318
LJ              -nan            -nan            -nan
LJ          -1.65963      0.00609331        -1.22766
LJ          -1.27566       -0.591697       -0.873097
LJ          -1.89683         1.72778      -0.0495436
LJ           -2.3918        -2.54318       -0.166738
LJ           -1.9211        0.994135        -1.49292
LJ           -2.5499         -1.4759       -0.553222
LJ          -1.67876        0.345216         1.50148
LJ          0.951776         1.08695        -2.02198
LJ          0.419276      -0.0500676        0.234215
LJ          0.430573        0.672776        -1.56122
LJ          0.724151         1.22235        -2.21721
LJ          -1.81902       -0.365316        -2.15567
LJ           2.11252        -2.45833       -0.177754
LJ          -1.87791        -1.28933        -1.57032
LJ            2.0292         2.11667      -0.0172436
LJ            2.1374        0.508117         1.33704
LJ           1.65935        -1.91557         0.85822
LJ          -2.42472       -0.139645       -0.190892
LJ          0.440955       -0.327268        -1.67511
LJ         -0.917475        -1.80002         1.20277
LJ          -2.37076         1.86983        -2.32195
LJ          0.485157         1.63261         0.70724
LJ              -nan            -nan            -nan
LJ        -0.0286619         1.83458       -0.977777
LJ          -1.85919         1.57285        0.726427
LJ         -0.633379         2.31333        -1.30374
LJ           2.27707        -2.16827        0.913078
LJ           2.52569         1.03848        -2.06484
LJ          0.124531       0.0263442        0.237698
LJ           1.20053        -2.28628       -0.750063
LJ           2.22549         1.07656         1.31506
LJ           1.46541         1.99892        -2.35883
LJ           -2.2444         2.49522        -2.08634
LJ          -1.91393        -1.66538       -0.179902
LJ           2.05633         1.10373        -1.39695
LJ          -1.43647        -1.68686       -0.515145
LJ          0.315893         2.13084         2.24997
LJ          -1.89961         2.24181        -1.92243
LJ           1.33083         1.44341       -0.983962
LJ              -nan            -nan            -nan
