108
#Comment!
LJ           1.51786        -1.71548         1.83932
LJ          -0.82839         1.18437        -1.07906
LJ           1.83272         1.41717         1.89389
LJ          -1.13836         2.31145          1.9114
LJ           0.72348         2.15582         0.85329
LJ          0.801916       -0.365213       -0.562855
LJ         -0.368628        0.596411         0.54795
LJ           1.07904        -1.29182         1.50504
LJ           1.52588         -2.0947        0.331762
LJ          -2.39902        -1.68752        -2.31839
LJ              -nan            -nan            -nan
LJ          0.275366         1.96633        -1.29713
LJ           -1.3336        -1.85771        -1.40709
LJ          0.375853         1.13435        0.699531
LJ           1.05044        -1.53647         1.59166
LJ           2.45148        -1.54312         1.22144
LJ              -nan            -nan            -nan
LJ              -nan            -nan            -nan
LJ           1.30436        0.667808          2.1105
LJ              -nan            -nan            -nan
LJ         -0.713599         2.05748        -1.56606
LJ           1.00326        0.372231        -2.00268
LJ         -0.950495        -0.03827         2.34406
LJ          0.984998       -0.779502        -1.23646
LJ         -0.962061        -2.36963        -1.43841
LJ           1.99429        0.986257        -1.36133
LJ         -0.871923       -0.277623        -2.31266
LJ           1.97211         2.54585       -0.526927
LJ          -1.36555         1.73235         1.70225
LJ         -0.882778      -0.0754866         1.79271
LJ          0.578967        -2.00093        0.669729
LJ          0.476334       -0.696897         1.20904
LJ              -nan            -nan            -nan
LJ           1.34335        0.870162       -0.098817
LJ              -nan            -nan            -nan
LJ           2.15557         1.60922        -1.03249
LJ         -0.233646       0.0492184        -2.01414
LJ           2.43522        -2.41653       -0.369697
LJ         -0.791433         2.25364         1.48527
LJ          -1.31736       -0.334441        0.448767
LJ       0.000969367         -1.5245        -1.40944
LJ           2.42399        -1.07581          2.4098
LJ          0.173566        -1.41166         2.30892
LJ          -0.32319        -1.25622        0.224601
LJ           1.82279        -1.37792       0.0564054
LJ          0.375286       0.0670419        -1.23747
LJ          0.909169        0.646859       0.0837964
LJ           1.81929         1.41147       -0.443228
LJ         -0.806978        0.617083         -1.4969
LJ          -2.46635      -0.0587817      -0.0196064
LJ           1.94364        0.906022        -2.28886
LJ           1.57881        0.158983         2.02183
LJ              -nan            -nan            -nan
LJ           1.55459         2.42696        0.571373
LJ          -2.39397        -1.52584         -2.0633
LJ          0.893147        0.613426        -2.48915
LJ          -1.47263         1.64879        0.697383
LJ           2.19045         1.58238         2.05396
LJ          -1.17751        -1.83736         1.17401
LJ          0.836757        -1.29762         1.32927
LJ          0.317014      -0.0678415        -2.38595
LJ           1.95631         1.23327        0.242315
LJ          -1.32079         1.29995        -1.51814
LJ            1.6908         2.33755        -1.20527
LJ         -0.880398        0.607473       -0.917472
LJ           -2.1297        -1.45768         2.28126
LJ           2.32489       -0.106569        -1.40347
LJ              -nan            -nan            -nan
LJ          0.744402        -1.60447         2.17614
LJ          0.305425      -0.0921282            1.85
LJ          -1.58093         -1.0951        0.422541
LJ          -1.54596        0.225553         0.82931
LJ           1.49489        -1.11731        0.683602
LJ          -2.37217         2.25241       -0.269097
LJ          -2.24071         1.53365         2.22726
LJ           -1.2021        -2.00864        -0.39006
LJ           1.24933        0.331064         2.54612
LJ           1.73285         1.08484        -1.93677
LJ          -1.33602         1.18957        0.944545
LJ         0.0323843         2.45405        -1.70391
LJ           -1.3723         2.43045       -0.407056
LJ          0.846742        0.643111        -1.06959
LJ          0.919495         2.10922        -1.03343
LJ           2.20154         2.14009         1.87231
LJ          0.822802        0.562614         1.64115
LJ          -2.15875       -0.587365         1.94422
LJ           0.33223         1.16566       -0.248133
LJ         -0.945852        -1.08529        -1.24361
LJ          0.140347        -2.34453        -1.38683
LJ          0.978757         1.32535         1.89823
LJ              -nan            -nan            -nan
LJ          -1.91859        0.888276         1.39903
LJ          0.287736       -0.874454          2.2955
LJ          -2.38114         1.22943        -1.45645
LJ           2.50649        -0.38536       -0.198657
LJ          0.309875        -2.22021       -0.708144
LJ         -0.608832         2.32244         1.82717
LJ         -0.482223        -0.56334        -1.71116
LJ            0.6554       -0.257701       -0.816544
LJ            2.3056        0.458164        -1.75861
LJ         -0.672637       -0.556288        0.606295
LJ           2.33358         1.67891        0.940338
LJ          -1.98972        0.567312         2.31558
LJ          0.688513         1.39181        -2.02877
LJ          -0.48925        0.926188         1.31891
LJ        -0.0316354          2.2242         1.60808
LJ          -1.82638         1.04428        0.984476
LJ              -nan            -nan            -nan
