108
#Comment!
LJ        -0.0618557        -2.30487         1.43519
LJ          0.914246         1.67584        -1.64648
LJ         -0.409035         2.31385         1.09297
LJ          -0.80462        -1.16195       0.0242215
LJ          0.304835           0.522         2.43543
LJ         -0.229368         2.39162        0.603383
LJ         -0.909879        -1.99858        0.928329
LJ          -2.24519         1.73499        -2.51642
LJ          0.412927        -2.14888         1.95188
LJ          -2.55342         -1.7926         2.44188
LJ              -nan            -nan            -nan
LJ           1.09668        -1.01829         1.35252
LJ           2.00298        0.907441        0.712259
LJ          -2.08765       -0.516437       -0.637221
LJ           2.37722       -0.558547        -1.43631
LJ           2.15714          1.7916        -1.98967
LJ              -nan            -nan            -nan
LJ              -nan            -nan            -nan
LJ         -0.103404         -1.4953        -1.95344
LJ              -nan            -nan            -nan
LJ           2.22178          2.2139         1.93853
LJ          0.642025        0.444881         2.22036
LJ            1.5217       -0.692235        -1.26742
LJ          -1.54943         0.83849        0.608918
LJ           2.55101         1.32883        -2.09608
LJ           2.47113        0.638082        0.415532
LJ           -1.7432         1.27431        0.278888
LJ          0.102821        -1.94143         2.15166
LJ         -0.258168         2.25075       -0.293959
LJ           1.56647        0.615173        -2.28455
LJ           1.71345        -1.81566       -0.471382
LJ          0.393769         1.55896         2.27997
LJ              -nan            -nan            -nan
LJ         -0.708319       -0.638295        -1.87791
LJ              -nan            -nan            -nan
LJ           -1.8453       -0.994528        0.930996
LJ           1.75907        -1.96007        -1.54964
LJ           2.41845        -2.17439       -0.984562
LJ          0.459576         1.72289        -2.13873
LJ           1.03782        -1.06624         1.56154
LJ         -0.536096       -0.179966       -0.279257
LJ          0.822709         1.20654        -2.42514
LJ           1.97775       -0.956141        0.695532
LJ         -0.675012       -0.638695        -1.02444
LJ           2.22824         1.04979         -1.0284
LJ          0.155242        0.303804          1.4434
LJ           2.19598         -2.2088          1.4395
LJ           1.60545        -0.91374       -0.200712
LJ           1.68571        0.577864         1.61262
LJ        0.00959898         2.05182        0.597481
LJ           0.72785       -0.956769        -2.49294
LJ          0.682736         1.99405        -1.29844
LJ              -nan            -nan            -nan
LJ           1.08034         -2.3086        -1.94098
LJ          -1.72047         1.00994       -0.707246
LJ           1.07669         2.00919        -2.14171
LJ         -0.952598        -1.96377        -1.99146
LJ            1.9574         1.79822       -0.478343
LJ           1.37332         2.31062         -1.8754
LJ           1.21198        0.253786       -0.267768
LJ          -2.29512         2.19314        -1.82143
LJ          0.671672         2.17123       -0.672578
LJ         -0.405379         1.02684        0.491492
LJ           -1.2155        -2.34707       -0.240807
LJ          -2.53269        0.458853        -2.43775
LJ          -2.05803        -1.41203        0.848393
LJ          -2.16727       0.0347583         -1.1515
LJ              -nan            -nan            -nan
LJ          -1.45003        0.946627        -1.62992
LJ          -2.19664        0.140646         1.91971
LJ           1.28483       -0.729747        -2.49967
LJ           1.30283        0.330163        0.113337
LJ          -1.09429        -1.40674        0.232492
LJ            -2.051       -0.999953         1.05792
LJ          -1.48614         -1.9901        0.415889
LJ          -2.19097        -2.00255        -1.40719
LJ         -0.614649        0.996754         -1.7326
LJ          -1.37448        0.457803       -0.210444
LJ           1.34917        -1.31227        -1.00557
LJ          -2.22581       -0.811897         2.36659
LJ           2.40262        0.119526         1.78067
LJ           1.62467         1.18289         1.13086
LJ          -1.31024           2.252       -0.656901
LJ         -0.479369         2.23396        -1.49528
LJ           1.95545         2.53921          1.7991
LJ          -1.64319        -2.11983        0.529674
LJ          -2.32266         0.43579         1.81953
LJ          -1.80589         2.30789         2.32858
LJ           1.80753        -1.41664          2.4483
LJ           2.34076         2.36147        -1.44747
LJ              -nan            -nan            -nan
LJ         -0.316917         1.38228         1.98166
LJ           -1.4265        -0.64533        -2.18695
LJ         -0.288402         1.03819         -1.3904
LJ         -0.932091         1.87476        0.522565
LJ        -0.0574354         -2.1468        -1.69949
LJ           1.11613         1.04042         1.31242
LJ         0.0155525          1.3608        -1.37315
LJ           1.04533       -0.970427        0.339038
LJ          0.571458        -1.17744        0.452825
LJ         -0.611857        -1.90098        -1.70012
LJ          0.889967        -2.29861         1.43202
LJ          0.807016        -1.73917       -0.885137
LJ           1.61752       -0.308002          2.1689
LJ          -0.90743        0.371298       -0.856939
LJ          -1.62213        -1.98658         1.69808
LJ           1.35018         1.93961        -1.60907
LJ              -nan            -nan            -nan
