108
#Comment!
LJ          0.813451      -0.0230561         1.21006
LJ           1.20567       -0.577991         2.54454
LJ           -1.5096         2.17855         1.18174
LJ          0.312521         1.79348         1.13674
LJ          0.685371         1.54087        -2.51816
LJ          0.515727         1.51009      0.00348485
LJ         -0.915685       -0.358061        0.372477
LJ          -1.69393         1.07379        -1.28327
LJ         -0.797901        -2.54107       -0.287747
LJ         0.0392462         2.52342       -0.531401
LJ              -nan            -nan            -nan
LJ          0.722559        0.977367         1.79604
LJ           0.21671        -1.55398         1.47728
LJ         -0.204393         1.30113        -1.40856
LJ           1.89859        -1.60924        0.422952
LJ          0.360829       -0.458162        -1.08117
LJ              -nan            -nan            -nan
LJ              -nan            -nan            -nan
LJ          -2.46329         1.37414        -1.71693
LJ              -nan            -nan            -nan
LJ           -1.2663       -0.688619       0.0825986
LJ          0.659828        0.445522        0.986302
LJ           2.22237       -0.932623       -0.630754
LJ            1.7065        0.607353         2.41132
LJ           -1.6203        0.502292        0.185069
LJ           2.12044        -1.01886        -1.92773
LJ           2.53803        -1.67712        -2.36485
LJ           1.65092         2.16174         1.95088
LJ            2.1625        -1.23422        -2.35961
LJ          0.531826       -0.609379         1.73686
LJ          0.656595       -0.216945        -1.75601
LJ         0.0570463        0.232254        -1.89921
LJ              -nan            -nan            -nan
LJ          0.605807        -1.76268         0.69746
LJ              -nan            -nan            -nan
LJ           1.11855         0.98985        -1.25975
LJ           2.18749        -1.70123         1.13195
LJ          -1.82484        -2.10805        0.623481
LJ          -1.94774         1.98646       0.0692526
LJ           1.96328         1.63607         1.80916
LJ          0.833976       0.0811806        -1.40555
LJ           1.29585       -0.848088        -1.09398
LJ           -1.1558       -0.360718         2.45908
LJ           0.30039       -0.799867        0.651772
LJ            1.1425         0.57057         1.17382
LJ         -0.921969         -2.0192       0.0194341
LJ           1.92805     -0.00366024       -0.311182
LJ           1.09474        0.808862       -0.966843
LJ           1.83272        -1.35517         1.33707
LJ          -2.17364        0.464166         1.99484
LJ           1.64698        -1.27291       -0.461686
LJ          -1.45688        -1.95722         2.24618
LJ              -nan            -nan            -nan
LJ           2.56374         1.21461         1.26254
LJ         -0.195836         0.68357       -0.942047
LJ          -1.27853        0.664984        -0.79385
LJ         -0.902221        0.515599         1.65555
LJ           1.22618        -1.10377        -2.39702
LJ           2.32499       -0.327425         2.31236
LJ          0.995247         1.19013        0.912385
LJ          -1.19935        -1.47517        0.113073
LJ          0.679521         2.13662         2.46144
LJ         0.0275108       0.0494162         1.63504
LJ          -1.73333       -0.188575         2.44936
LJ           2.26748         2.48918         1.88804
LJ          -2.47517        -1.68059         2.18212
LJ          -1.39637         1.53529        -1.70449
LJ              -nan            -nan            -nan
LJ          -2.54556       -0.539065        -2.36254
LJ           -0.5031         2.26995         2.27147
LJ          -2.14467         2.30175        -1.76829
LJ          0.374768        -2.28041         2.36018
LJ           1.56652          -1.544          1.0571
LJ         -0.263405         1.06859         0.85316
LJ          0.855312        -1.54706        0.107871
LJ          -1.22751         2.24693       -0.797444
LJ           1.50947         2.28805         1.11517
LJ         -0.639616        -2.38281         2.39361
LJ         -0.927551       -0.877654        -1.75129
LJ           1.25653         0.41277         1.09934
LJ          0.306547         1.53484          1.2036
LJ           1.80608       -0.633049        -2.15349
LJ          -1.13638         1.33328         -1.2609
LJ          -1.70982         2.29474        -2.27349
LJ          0.704452        -2.08865       -0.197493
LJ           1.08059        0.295703        -2.54616
LJ         -0.489535         1.77699         2.56141
LJ           2.46972         1.75334       -0.504537
LJ          0.134921         2.32902        -1.21556
LJ         -0.175263       -0.627559         2.34263
LJ              -nan            -nan            -nan
LJ          0.639781        -1.50643        0.826121
LJ          -1.05076        -1.40357       0.0575566
LJ          -1.05325        -1.84188        -2.33939
LJ           1.27539      -0.0201585        -1.89273
LJ           -2.0057        0.971725        0.519723
LJ           1.70249       0.0434213        -1.09586
LJ           0.92227        -2.32708       -0.560312
LJ           1.92722        0.222177         1.89522
LJ          -2.35243        -1.50504        0.245603
LJ          0.416493       -0.519052        -1.78652
LJ           1.20425         -2.4237      0.00249521
LJ            -1.781         -2.5176        0.347136
LJ           2.39647        0.790526         1.43812
LJ          0.207553         1.53552         2.34706
LJ           2.05772        -1.28374           1.217
LJ          -1.09365         0.32134         1.26718
LJ              -nan            -nan            -nan
