108
#Comment!
LJ          0.388172       -0.274524        -1.96885
LJ          0.762592         1.44267        0.718285
LJ          0.499971         -1.4337        -1.66566
LJ         -0.180629        -2.28401        -1.46584
LJ            1.9875          1.9381        0.303525
LJ           1.37975        0.102163       -0.412092
LJ           1.92597       -0.145721        -1.52654
LJ         -0.412758        0.516775       0.0146113
LJ           1.57314        -1.44026        -0.90545
LJ           1.41343       -0.666083        0.953164
LJ              -nan            -nan            -nan
LJ          0.633992         1.99283       -0.236353
LJ           1.29767        0.306864       -0.494028
LJ              -nan            -nan            -nan
LJ          -1.52761       -0.899913       -0.484496
LJ              -nan            -nan            -nan
LJ              -nan            -nan            -nan
LJ              -nan            -nan            -nan
LJ           1.31055        0.240694         0.74339
LJ              -nan            -nan            -nan
LJ          -1.58827       -0.876009         2.41552
LJ           0.65065      -0.0464748         1.52103
LJ         -0.710279       0.0603496        -1.35403
LJ              -nan            -nan            -nan
LJ          -1.74126        -2.26422         1.12192
LJ          -2.00499          2.0445         1.56372
LJ           1.27077          1.9407        -2.24061
LJ          -1.57204        0.621865        -2.45951
LJ           2.15075       -0.521783        -1.99846
LJ          0.752862         1.76133       0.0109313
LJ              -nan            -nan            -nan
LJ          -2.52617       -0.374423        0.312593
LJ              -nan            -nan            -nan
LJ          0.840941         1.89791        -1.08146
LJ              -nan            -nan            -nan
LJ         -0.517052        0.578397        -1.25787
LJ         -0.571845        -1.42808       -0.164108
LJ         -0.282626        -1.75698         -1.9072
LJ          -2.11939        0.398392       -0.372921
LJ         -0.207705       -0.923673       -0.230014
LJ         -0.110286        0.322039        -2.06236
LJ         0.0626883        -2.29385        0.363066
LJ          -1.65578        -1.88313        -2.20778
LJ         -0.712898         2.32888         1.76611
LJ         -0.456629        -2.40675         1.85875
LJ         -0.378056        -1.00729       -0.965134
LJ          0.844885       -0.582887       -0.936775
LJ           1.13972         -1.6505        0.488982
LJ          -0.54496        -1.16249       -0.365265
LJ           1.46486        0.327521       -0.073608
LJ          -1.23586      -0.0780729        -2.12929
LJ         -0.140817         1.22613       -0.911285
LJ              -nan            -nan            -nan
LJ           2.37936         1.41296        0.255725
LJ          -2.05017        -1.47816       -0.783546
LJ          0.382051        0.163841      -0.0868328
LJ          -1.42582        -2.17882        -1.95366
LJ          -1.44831        0.533562        0.289778
LJ          0.170924         2.34134        -1.71103
LJ           1.88321        -1.66911          1.5636
LJ         -0.604469       -0.745081         1.30113
LJ          -1.80621       -0.623018         2.37443
LJ         -0.755753       -0.844297        -0.93678
LJ              -nan            -nan            -nan
LJ              -nan            -nan            -nan
LJ           1.09098         2.02449         1.46042
LJ           0.13806        -2.39527         2.18701
LJ              -nan            -nan            -nan
LJ          -2.15057        -2.23861        0.590414
LJ          -2.02266          2.2462        -1.83255
LJ          -2.10805        -1.63412        -1.11488
LJ          0.439623        -1.78262        0.292889
LJ          -1.74047         2.06119        -1.77919
LJ           1.50837         1.46588        -2.18563
LJ          -2.48886         1.15295        -2.15163
LJ          0.997737        0.503676        0.880438
LJ           2.54638       -0.714618          0.5252
LJ           1.48415       -0.079115       -0.365354
LJ          -1.43143        -1.16365        0.945385
LJ         -0.431749        0.067847        0.381075
LJ          -1.80843         2.07695       0.0803478
LJ           1.21245       -0.415277        0.463021
LJ           2.00947         1.28869         2.06079
LJ           2.16877         1.63673       -0.438818
LJ          -1.78707       -0.238376         1.95989
LJ           1.90246           2.014        -1.45057
LJ          -1.55973         2.43263         1.40395
LJ           2.38889        -1.97274        -2.03361
LJ         -0.369646        -1.10045       -0.625814
LJ          -1.58921         -2.0983       0.0991947
LJ              -nan            -nan            -nan
LJ          0.292246        -1.77724        0.107474
LJ         -0.298674        0.590808        0.319549
LJ          0.920802         1.03151       -0.981902
LJ          -1.48235        -2.14082        0.997887
LJ         -0.894124         1.47643         1.70109
LJ          0.593722        -2.00871         2.40075
LJ         -0.414436         1.55815       -0.399625
LJ              -nan            -nan            -nan
LJ          -1.90007       -0.465926        0.429748
LJ          0.346168        -1.97099         1.62884
LJ          -0.87887         2.44741      -0.0820861
LJ          -1.20066         1.39032       -0.215648
LJ          0.224543       -0.757273        0.725614
LJ              -nan            -nan            -nan
LJ           2.33582         2.32981        -1.53688
LJ           2.48527         2.04479         1.49145
LJ              -nan            -nan            -nan
