108
#Comment!
LJ          -1.06262        0.103649        -1.51991
LJ           2.47653         1.76805        0.720717
LJ           1.04389        0.958928        -1.70412
LJ         -0.291118        0.675617        0.377474
LJ           -1.0708          2.0265        -2.08438
LJ         -0.660608       -0.471587         1.28268
LJ          -1.30184       -0.696411        -1.99052
LJ         -0.337944         2.44562        -1.92315
LJ          -1.60882        -2.23416         1.30655
LJ          0.126256        -1.88356       -0.600638
LJ              -nan            -nan            -nan
LJ           1.38699        -2.37978         2.16239
LJ          -1.61953         2.27753         1.64398
LJ         -0.372482       -0.586498         1.41809
LJ          -1.42674       -0.531611         1.75802
LJ         -0.373461         1.44726       0.0602992
LJ              -nan            -nan            -nan
LJ              -nan            -nan            -nan
LJ          0.737113        -2.40223        -2.50022
LJ              -nan            -nan            -nan
LJ          -1.70648       -0.645775         2.27568
LJ              1.35       -0.994293         1.47012
LJ         -0.950195        -1.73918         1.96072
LJ         -0.987223        -1.63941          1.8611
LJ          -1.31741        -1.52365        0.875448
LJ           1.53445        -2.22778      -0.0670696
LJ        -0.0281063          1.0565        -2.21125
LJ           2.02287        0.781609         2.15212
LJ          -1.67372        -1.46471       -0.225451
LJ        -0.0692249       -0.619563         1.41686
LJ          0.104909         2.20102         1.50661
LJ        -0.0644776         1.54698        -1.88391
LJ              -nan            -nan            -nan
LJ           1.18537         1.90866        -1.39541
LJ              -nan            -nan            -nan
LJ           1.46233        -1.55847         2.52585
LJ         -0.865089         1.54538        -1.22783
LJ          -0.85796        -2.15431        -1.26588
LJ         -0.208203       -0.454365         2.56132
LJ         -0.345911         -1.2154       -0.587347
LJ         -0.724701         2.40868       -0.717786
LJ         -0.588637          2.5159        -1.34779
LJ          -2.37527       -0.272331         1.13234
LJ          0.873041         1.08039        -1.26307
LJ           1.89302         1.58277         2.41584
LJ          0.763124          2.0933         1.01729
LJ            1.2968         1.14085       -0.766197
LJ           0.87991         1.90998        -1.74718
LJ          0.717205        0.208014        -1.31704
LJ          -1.54426       -0.876491        -1.64495
LJ           -2.2351        -1.70046         2.09654
LJ           1.46932        -1.95639         1.33599
LJ              -nan            -nan            -nan
LJ          0.770202        0.379426           1.456
LJ         -0.979715         1.14287        0.769097
LJ          -1.68632        0.451055        0.410621
LJ           -2.1326      -0.0286988        0.361296
LJ           1.51679       -0.313942         -0.2285
LJ           2.40152         1.13589      0.00862023
LJ          0.414759       -0.143354       -0.333779
LJ           2.18294        0.795829        -2.03344
LJ          -2.54663         2.43749         2.02898
LJ          0.359471         1.75351         2.34705
LJ          0.122211        0.824326         1.41453
LJ           1.13063        0.280443        -2.02472
LJ           2.44969          1.9246         1.13681
LJ           2.48047         -2.1071        -1.48613
LJ              -nan            -nan            -nan
LJ          0.657491        -1.76862      -0.0334424
LJ          -1.38937         1.82284         1.39589
LJ           2.56054         2.36226         1.34049
LJ           1.26879        -2.04292          1.1704
LJ         -0.331565       -0.399633       -0.813571
LJ           1.35617        0.191536       -0.197801
LJ           1.21975         2.53303         0.84738
LJ         -0.641492         -1.1197         1.72677
LJ           1.22392      -0.0355414         2.08944
LJ          -1.25757        -1.45116         1.88567
LJ           2.55912        -1.67061       -0.386777
LJ           -1.7623         0.31159          -0.677
LJ           1.14553       -0.656376         1.10127
LJ         -0.887323         2.07726        -1.18853
LJ          0.015472        -2.13544        0.946985
LJ          -2.22248        -2.05184        -1.03482
LJ         -0.206823         0.18511        -1.02886
LJ          0.181781        -1.43281         2.40958
LJ           2.08929        0.589556         2.10976
LJ           2.11924        0.156185         1.87779
LJ           1.32362       -0.292403        -2.31362
LJ           2.05446       -0.332356         2.52311
LJ              -nan            -nan            -nan
LJ         -0.451737        0.139452         1.14424
LJ           1.00397        -1.43072       0.0355519
LJ          0.670941         1.18251     -0.00301172
LJ          0.465254        -1.87723        0.347588
LJ           2.42774        0.335651         1.59547
LJ          -1.70947        -1.08448         2.14037
LJ          -2.26875        -0.64752        0.748531
LJ          -1.16195        -1.16714       -0.673746
LJ          -1.17004        -1.05699       -0.571382
LJ         -0.591088          1.4524         2.41527
LJ           1.06057       0.0931276       -0.573329
LJ         -0.923458       -0.167377         1.22953
LJ          0.725693         1.37041        -2.46586
LJ           -1.9165       -0.822886        -1.79743
LJ           2.47075        -1.87163        -2.11566
LJ         0.0668556        -1.99605        -1.42778
LJ              -nan            -nan            -nan
