108
#Comment!
LJ           1.77641        0.736493         1.05175
LJ          -1.16992        -1.21037       -0.563321
LJ            2.4899         1.94275          1.9249
LJ          -1.22979        0.684839        -2.05324
LJ         -0.849449         2.05401          1.2321
LJ          -2.14037         2.13062        0.941476
LJ           1.18935        -0.18788       -0.421052
LJ           2.29224        -1.93356        -1.15208
LJ          0.228851        -1.23351        -1.39518
LJ        -0.0315824         2.39427        0.281312
LJ              -nan            -nan            -nan
LJ            2.3125         1.97857       -0.736713
LJ           -1.2267        -2.40403        -1.00925
LJ              -nan            -nan            -nan
LJ          -1.59417        -1.95327      -0.0813182
LJ              -nan            -nan            -nan
LJ              -nan            -nan            -nan
LJ              -nan            -nan            -nan
LJ         -0.490021       -0.388109         1.39721
LJ              -nan            -nan            -nan
LJ          -2.38171        -1.62943         -2.3114
LJ          -1.04566         0.45868       -0.143382
LJ          -1.84069        -2.10342       -0.654838
LJ           1.02262        -1.74927        -2.11295
LJ           1.10964         2.24984        -1.60773
LJ          -1.21822       -0.172641         1.72382
LJ           1.17832          1.9719        -2.06156
LJ           0.92156        -1.07789          1.6602
LJ           2.32352         0.74329         1.71365
LJ          -2.41271       -0.528623         2.51375
LJ              -nan            -nan            -nan
LJ           2.38991        0.136321       -0.149661
LJ              -nan            -nan            -nan
LJ         -0.812495         1.40201         2.55942
LJ              -nan            -nan            -nan
LJ           1.20021       0.0342808         2.39305
LJ            1.7005       -0.881505           2.157
LJ         -0.345971        0.546942        0.275095
LJ          -1.70204       -0.100249         2.05749
LJ          -1.98509       -0.882801         1.07572
LJ          -2.30977       -0.788389        -0.65731
LJ         0.0155941         1.33546         2.23965
LJ          -2.13098         -2.1908         1.11599
LJ            1.5491         2.15122        -1.97707
LJ          0.961059        0.342722        0.281741
LJ          0.902436        0.586317        0.742633
LJ         -0.259023      -0.0950011         2.45355
LJ           1.16622        -1.71898        -1.57622
LJ          -1.07028         2.28354        -1.60459
LJ          -2.55485        0.941174         1.49429
LJ           2.36379         1.37589        0.839552
LJ          -1.75506          1.3554         2.33307
LJ              -nan            -nan            -nan
LJ          -1.68979       -0.401562       -0.262941
LJ          -1.14914        -1.14381        -1.40117
LJ           2.20035         2.30111      0.00695396
LJ          0.225198        0.201241         2.16582
LJ          -2.07315       -0.485876         2.39252
LJ           1.00687        -1.58734           1.896
LJ         -0.654282       -0.412485       -0.652205
LJ         -0.124081         1.24433        -2.45304
LJ          0.497816         -2.5126        -2.13342
LJ           1.49292       -0.847311       -0.855839
LJ          -2.12565        -1.51745          2.2549
LJ              -nan            -nan            -nan
LJ           1.71546          2.2535       0.0925424
LJ          0.596506        0.441179        -1.80825
LJ              -nan            -nan            -nan
LJ         -0.757171         1.90875       -0.426757
LJ         -0.919793        0.599356        -1.32621
LJ          -2.16713         1.27304        -1.82116
LJ           1.26707        -1.92336        -1.17778
LJ          -1.72354       -0.609492       -0.171841
LJ         -0.544274        0.977453       -0.500856
LJ           2.35588       -0.197734       -0.897607
LJ         -0.255789        -2.27453        0.263554
LJ           1.80792        -1.60416        0.301856
LJ           1.66317       0.0941238       -0.899254
LJ           2.42662        -1.22828         2.20601
LJ          -2.46662         1.48181        0.703335
LJ           2.55811         1.60293        0.371533
LJ         -0.157206         2.24736         1.81606
LJ          -1.81464       -0.690585        -1.27806
LJ           1.13452         2.18759        -0.84121
LJ           1.10112      -0.0105361        -1.82795
LJ           1.11323         2.53422        -2.27835
LJ           1.72617         1.35034        -1.73328
LJ         -0.531741        -2.48615       -0.186456
LJ         -0.889976         2.37429        -1.41367
LJ          -1.95004       -0.377621        0.623195
LJ              -nan            -nan            -nan
LJ          0.472434        -1.54552      -0.0221727
LJ           1.16368       -0.503692         2.32576
LJ          -1.66317       -0.682613         1.32855
LJ          -1.33677        -2.21592         0.79188
LJ          -1.65826        -1.55693        0.227537
LJ          -2.53895          1.8888       -0.875612
LJ         -0.150363        -2.03151       -0.877746
LJ              -nan            -nan            -nan
LJ            2.5331         1.10668        0.185687
LJ          -1.26846        -1.96168         2.05119
LJ         -0.162713       -0.567264         2.53289
LJ          -2.26792        -1.11491      -0.0718355
LJ          -0.37344         -2.1235         -0.6542
LJ              -nan            -nan            -nan
LJ           1.24762         1.27579        -2.07065
LJ          0.432904        -1.72104        0.777377
LJ              -nan            -nan            -nan
