108
#Comment!
LJ           0.34838        0.590793        0.784892
LJ          -1.89133         1.49833        -2.51925
LJ          -2.42135         1.29181        -1.13735
LJ           1.77309         2.55743       -0.764018
LJ          -1.70522         1.72726       -0.526341
LJ          -2.50149        0.546677        -1.38115
LJ          -2.56033          1.5381        -0.25726
LJ         -0.961416       -0.523112         2.37174
LJ           2.37714       -0.844671         2.41521
LJ          -2.46285       -0.710226        -1.81362
LJ              -nan            -nan            -nan
LJ           2.00963        0.563547        0.380907
LJ           1.25774       -0.959025        -1.36706
LJ          -2.50875        0.160155       -0.490759
LJ          -1.38879         2.36433        0.713863
LJ         -0.137155        -2.23782        -2.35333
LJ        -0.0176598        0.863059        -2.04432
LJ          0.895178         2.25926        0.550149
LJ          0.634595        0.231524         2.11726
LJ          -1.91173        -1.44628        -1.49331
LJ          -2.42755         -1.2837        -1.91647
LJ          0.381209        -1.36159        0.897252
LJ          -1.56666        -2.23894         -1.0224
LJ           -2.0677        -1.58347       -0.276308
LJ          -1.19784        -1.77287        0.832479
LJ          -2.17052        -1.52036        -1.73266
LJ         -0.184124        -2.41935         1.82946
LJ           2.29941       -0.373059        0.767729
LJ         -0.464758        0.465757        -2.10928
LJ          0.478142          1.7954        0.650254
LJ            1.9465       -0.676856        0.832462
LJ          -2.04152        -1.15335         1.93319
LJ              -nan            -nan            -nan
LJ           2.06908        0.331937         1.95039
LJ         -0.823295        -1.15962        -1.76904
LJ          0.202398       -0.916078        -1.73382
LJ          0.397377          2.1399        -2.44327
LJ         0.0903351        -1.89076        -1.99696
LJ           2.54076        -0.99929       -0.235703
LJ          -1.38099         1.77972        -2.11968
LJ         -0.654433         1.97688        -1.81964
LJ          -1.05567        -2.02016       -0.958134
LJ           1.80363         1.04205         2.08589
LJ          -1.62296         -2.1747         1.18333
LJ          -1.72248         2.17207       -0.407371
LJ          -1.07633      -0.0424805        0.397194
LJ         -0.490521        -1.08914        0.211056
LJ           -2.0773        -2.32491          2.0565
LJ          0.723818         2.07177       -0.751419
LJ         -0.743594         1.96278        -2.20281
LJ          -1.85029         1.16097         -1.2999
LJ          0.534818       -0.367818        0.990168
LJ            1.8107      -0.0449419       0.0367311
LJ         -0.368491        -1.95584       -0.870775
LJ          -1.42746        -1.29041         2.23506
LJ          -0.69434         1.92634        -1.57654
LJ          0.836711         2.43505        -1.21711
LJ         -0.182006         2.29666        -1.75072
LJ           1.34075        -1.08644       -0.750756
LJ         -0.350088        -1.96722        0.655783
LJ         -0.123031         2.36055         2.17688
LJ          -1.29797        0.763523       0.0846966
LJ          -1.96685        -2.28869       -0.908614
LJ           2.25446       -0.406947        -2.20864
LJ           1.29082         1.56789        0.362805
LJ          -2.29818         1.20649        0.888685
LJ           1.67717        -2.16542       0.0851062
LJ           1.21102        0.410531         1.47996
LJ           -0.5578        -1.46334       -0.615613
LJ          0.641921         0.26284         2.48126
LJ           0.46053        0.879532         1.18433
LJ           1.29797        -2.42163        -1.13283
LJ           1.55626          2.0143         0.66127
LJ          0.912097        -0.45084        0.578258
LJ            -2.485          2.3247        0.579238
LJ           1.13983       -0.989577         1.03676
LJ          -1.88045        -2.20444         1.75111
LJ         0.0236834        -1.30881         1.55787
LJ          -2.46051        -2.27868        -1.66339
LJ          0.370433         1.23664        0.482304
LJ           1.72489       0.0924006        -1.00965
LJ           1.05154         1.68217      -0.0471724
LJ           1.75301        0.560884         -1.7062
LJ          -2.14673        -2.50733       -0.773873
LJ          0.159908         1.25228       -0.500007
LJ          -1.95826        -1.37252         1.56151
LJ          -1.73334         1.86604        -1.89293
LJ          0.108915       -0.572915       -0.511568
LJ          0.314841        -1.18665         2.00395
LJ         -0.354854         1.14776        -1.13378
LJ           2.35526         1.74243       -0.135968
LJ          0.519727        -2.21475       -0.152762
LJ         -0.614513         1.51296         2.25261
LJ           1.29922        -2.50748        0.823116
LJ        -0.0825626        -1.39803       -0.616926
LJ          -1.09443         1.53213        0.434364
LJ           1.12459         1.85507       -0.452487
LJ            1.5454       -0.342018          2.4719
LJ           1.48295     -0.00461379        0.861721
LJ          -1.87976        -2.09312        0.703972
LJ           -2.2409         2.47254        -1.74644
LJ         -0.439478         1.33443         2.44209
LJ           1.14234        -1.89442         1.59533
LJ          0.583116        -1.83381        -1.01827
LJ          -1.78322        -1.01834        0.406512
LJ         -0.418796         1.23052        -1.86554
LJ           1.50269          1.0647       -0.951698
LJ           2.48761        -2.22167       -0.422334
