108
#Comment!
LJ         -0.607602        -1.28535         2.21929
LJ          0.620491       -0.463909        -1.34018
LJ           2.50663        -2.07252       -0.232028
LJ          -2.39662        -1.64426         1.32834
LJ          -1.67584       -0.568707        -1.15808
LJ           1.80742        0.642165        -1.77213
LJ        0.00933175         2.22637         2.43019
LJ          -2.26451       -0.847728         1.92853
LJ          -2.13299        -1.69658        -1.91045
LJ          -1.74859        -1.79493        -2.12801
LJ              -nan            -nan            -nan
LJ           1.15549        -2.14045        -1.33308
LJ          -0.96468         1.71796        -2.11034
LJ         -0.698952        -2.50008       -0.800084
LJ          -2.08299      0.00614195       -0.577211
LJ         0.0310393       -0.938042        -1.43933
LJ           2.23332        -1.60806        -2.44564
LJ          -2.50738         2.02541        0.308882
LJ           1.73112         1.98678       -0.298167
LJ          0.695035         1.38695         2.02302
LJ            1.8052        -1.77066        0.417582
LJ          0.248762         1.33761         1.89654
LJ           1.97412        -2.52381        -1.18067
LJ          0.836716       -0.196989        -1.16069
LJ          -1.60545       -0.947716        -2.29949
LJ          -1.50914         1.65829         1.45547
LJ           1.07299        -2.15914        -2.22069
LJ         -0.211265        -1.42105        -1.47683
LJ           2.50402       -0.612025        -1.94265
LJ         -0.859749        -2.03618       -0.174339
LJ          -0.73175        0.159252         1.43875
LJ         -0.788574        -1.91896         1.66059
LJ              -nan            -nan            -nan
LJ          0.877915       -0.294997        -1.85111
LJ         -0.525015        0.718459         1.51723
LJ          0.116147       -0.965158        -2.20883
LJ           1.57902         1.41353      -0.0807987
LJ           1.98066        -1.06646        -1.90942
LJ          -2.28156      -0.0265416       -0.435261
LJ           1.00451          0.4089         1.61519
LJ         -0.746496         2.15629         2.55443
LJ          -2.11623        0.909438        0.146642
LJ           2.32631         -2.4578        -1.64241
LJ             1.142        0.639131     -0.00506166
LJ         -0.370529         1.36665         1.08021
LJ          0.768241         2.31333        -2.42603
LJ          0.871542        0.652042         1.37519
LJ            1.4452         1.66331        -1.46039
LJ          -1.40667        -1.12949         1.49931
LJ          0.380267         1.79104        -1.66366
LJ          -2.43038         2.17421        0.278429
LJ         -0.546982      -0.0535381       -0.273013
LJ           -2.3281       0.0584827         1.18904
LJ          -1.10623        0.805004        -1.16584
LJ           1.52333        -2.10303        0.290785
LJ          0.672959         1.45937        0.516378
LJ           2.50727        -1.47144         1.42189
LJ         -0.883444         1.49537        0.745948
LJ           -1.7218         1.28314         1.84185
LJ          0.463059        -1.43775       -0.547486
LJ          0.736456         1.60521         0.12639
LJ           2.19075         1.24697       -0.886482
LJ           2.24766         1.64644        0.833112
LJ         -0.758214      -0.0765058         1.83573
LJ          -2.17854         2.46059         1.76191
LJ          -1.51135        0.335105        0.100523
LJ           2.31488        0.371733        -1.17679
LJ          0.597104        0.130714         1.30203
LJ          -1.29637       -0.236185        -1.56083
LJ          -1.25646        -0.30891         2.49772
LJ          -1.64413       -0.512964         1.95671
LJ         -0.636822         1.60937        -1.29201
LJ          0.494825       -0.880556        -2.10828
LJ          -1.00166         1.75813        0.407485
LJ           2.13649         2.37776       -0.222138
LJ          0.346582         0.75937          1.3206
LJ          0.712352         -1.4284        -2.16534
LJ            -2.107         1.73011        0.403389
LJ         -0.382544        -1.01607        -1.85228
LJ         -0.118171         2.11681        0.367175
LJ           1.38075         1.63443         -1.6659
LJ           0.70349        0.357586         1.01654
LJ           -1.6729       -0.704227         2.03754
LJ          -1.31989       -0.563855        -2.34262
LJ          -1.67714        -1.24278        0.755261
LJ         -0.671202         1.69932        -2.12603
LJ          0.792109         2.13082         1.04349
LJ           1.05183         1.91662         2.26018
LJ           2.03993        -1.44437        -2.39421
LJ           1.91467        0.520065         2.20842
LJ           2.12987         1.89242       -0.579141
LJ            2.2421       -0.291063           2.246
LJ           2.04458       -0.585871        -1.17727
LJ           2.06688       -0.651104         1.23998
LJ          -2.12264         1.51907         2.22969
LJ             2.133         1.95676        -1.53897
LJ           2.51236        -1.76823         2.54725
LJ         -0.163223        -1.64833       -0.528719
LJ           1.34892         1.92979        0.101414
LJ           1.09168         1.13235        -1.52208
LJ           1.69809        -1.52951         1.21859
LJ        -0.0104068        -2.01403         1.69473
LJ           2.49893        0.981578        -1.41995
LJ           2.00394          2.5273        -2.19625
LJ         0.0290502         2.50797        0.553609
LJ           2.46442        -2.13645         2.47691
LJ           1.44638        0.976322        0.159438
LJ          0.239536         2.46257       -0.711272
