108
#Comment!
LJ         -0.020096        -1.01426         0.96547
LJ        -0.0559411        0.511914       -0.470433
LJ           -1.0725        0.765752         2.46896
LJ         -0.188748         -1.5741         2.31505
LJ           2.22737         1.05199       -0.837046
LJ          -2.42904      -0.0558654         1.77964
LJ          -1.52564          1.7553        -2.17555
LJ         -0.955078         2.27731       -0.821534
LJ         -0.181369       -0.321699         1.95811
LJ           1.91752         2.33433          1.2799
LJ              -nan            -nan            -nan
LJ         -0.800188         2.17673        -2.43843
LJ           1.46402       -0.107764        -1.66855
LJ          0.350661          1.6396        -1.05069
LJ          -2.26441        -1.23714       -0.575208
LJ          0.806864        0.599507      -0.0838116
LJ              -nan            -nan            -nan
LJ              -nan            -nan            -nan
LJ          -2.24291        -1.14762       -0.883915
LJ              -nan            -nan            -nan
LJ           0.74279        -2.29469         1.82869
LJ           2.49831        -1.50017       -0.549186
LJ          0.798496       -0.371819        0.293693
LJ           -2.2155        0.504836        0.167776
LJ          0.594315        0.736705         2.01632
LJ         -0.387891         -2.4466         0.19084
LJ          0.225996         2.55796         1.06147
LJ           0.17908         1.26942        -1.59236
LJ          -1.62157        -1.85372       0.0238296
LJ          0.685768       -0.384496        0.944497
LJ          -1.51522        -2.24351        -1.53247
LJ          -1.95106         1.27772         1.08408
LJ              -nan            -nan            -nan
LJ        -0.0629466        0.314712         1.48083
LJ              -nan            -nan            -nan
LJ          -1.86282        0.610986        -2.30362
LJ           1.00717         1.63157        -1.02952
LJ            1.0352         2.00907       -0.715207
LJ          0.490901        0.234148       0.0248159
LJ         -0.306851        -1.70606        0.937859
LJ         0.0555109         1.49831        0.642278
LJ           0.93002          1.0151        -1.88594
LJ           0.41554        -2.26338        0.591535
LJ         -0.602243          -1.041        -2.24883
LJ          0.224718        0.597353        -0.22609
LJ          -1.47911        0.195682         1.67021
LJ          -1.13511        0.462006        0.441976
LJ         -0.623451        -2.18037         2.30471
LJ            1.2998      -0.0507845         1.66507
LJ            1.4035        0.683702         2.46367
LJ           1.29772         1.81683       -0.417335
LJ         -0.990057         -1.9384        -1.92776
LJ              -nan            -nan            -nan
LJ           1.29336        -1.36428         1.41113
LJ          -2.20864        0.186139         1.07845
LJ           2.40574         1.69145         1.43651
LJ           1.67316         0.65753        0.356584
LJ         -0.709983        0.855977        -0.68675
LJ          -1.86165        -1.58661        0.128655
LJ           1.18545        -1.53184       -0.341757
LJ            1.8161        -1.03701         1.39511
LJ         -0.526121         1.51547         2.20458
LJ           1.20748       -0.132457         2.52564
LJ          -2.04662        0.792154        0.765083
LJ           2.11949      -0.0497682         2.55789
LJ         -0.665615        -2.25578        -2.49343
LJ          -2.01046        -1.06243       -0.273216
LJ              -nan            -nan            -nan
LJ          -1.07162       -0.653215         -1.6371
LJ          0.518357         2.38693        0.331055
LJ           1.18636        -2.04143        -1.45987
LJ          -1.94307        -2.22345        -1.00659
LJ           1.93126        -1.46473         2.23247
LJ          -0.61608       -0.373205        -1.41962
LJ         -0.685501        0.383567        -1.30636
LJ         -0.327816        -2.19812         1.04958
LJ           2.53913        -1.13399         1.86085
LJ           2.09099         2.54865       -0.132441
LJ           1.40042        0.601509         2.52129
LJ          0.456689         1.64208        -2.08724
LJ          -2.21499        0.123279         -2.3295
LJ           1.89695         1.98398        0.977159
LJ          0.202127        -1.61464       -0.777675
LJ         -0.803544         1.65057         2.45867
LJ           1.32798         1.29807        -1.90219
LJ          -1.43719       -0.958484         2.51267
LJ         -0.421145       -0.330387        -1.26812
LJ         -0.109056       -0.487742        -2.05973
LJ          0.146716         2.22163        -2.10235
LJ           1.66953        -1.07185         2.02229
LJ              -nan            -nan            -nan
LJ            1.7638         1.78457       -0.790428
LJ         -0.904797       -0.959809         2.28111
LJ           2.17075         2.45383         2.44119
LJ         -0.257323       -0.578066        0.656119
LJ         -0.763493        0.822352       -0.873905
LJ          0.992529         2.09783       -0.464238
LJ          -1.89311       -0.176733         1.79523
LJ           1.21713         -2.4639        0.243042
LJ         -0.671735         2.09428         1.60849
LJ         0.0133253        -2.38732          2.3424
LJ           1.64872         1.88718         2.17416
LJ          -2.01526         -1.3017         1.54249
LJ         -0.383174        -2.37161        -2.11622
LJ           2.02102        0.590331         1.04686
LJ          -1.40208        -1.47631       -0.518054
LJ           1.54444      -0.0279858        -1.76172
LJ              -nan            -nan            -nan
