108
#Comment!
LJ          -2.33442        -1.10272         1.23819
LJ          -1.23071         -1.2685        0.999559
LJ          -1.54819       -0.346742        -2.31361
LJ          -2.42076         1.70257      -0.0957576
LJ          -1.68428         1.64885        0.747917
LJ           1.10854        -2.23589        0.659827
LJ         -0.768781         1.82457         1.49351
LJ           -1.9635        -1.89084        -2.09533
LJ          -1.41419        -1.26716        -1.27184
LJ          0.150434       -0.435919         2.48074
LJ              -nan            -nan            -nan
LJ          -2.45218       -0.269028        -1.31494
LJ           2.08003       -0.474777        -1.64334
LJ          -1.67514       -0.778541       0.0684972
LJ          0.763521        -2.32289        -2.00357
LJ         -0.139723       -0.137204        -1.75023
LJ          -1.20574        -1.46481       -0.408092
LJ           1.89385        0.403829        -2.14561
LJ         -0.949561        0.046388        -2.25442
LJ         -0.731293        -1.26819      -0.0835445
LJ          -1.08574        -0.79502        -2.10873
LJ           1.91335        -1.48944         2.47175
LJ          -1.00653        -2.46273      -0.0358504
LJ          -2.13754       -0.774146        -1.43945
LJ          -2.04248       0.0293781       0.0767129
LJ         -0.672976        0.626358         1.97569
LJ         -0.686674       -0.700239         -1.9604
LJ          -1.11005       -0.561243        -2.34599
LJ           1.26576         2.23119          2.2827
LJ           1.97806        0.209495         1.83683
LJ           2.47346         -1.4154         1.74083
LJ          0.498413         2.55245        -0.70911
LJ              -nan            -nan            -nan
LJ          -2.32567        -0.96324        -1.41655
LJ              -nan            -nan            -nan
LJ          0.897456        -1.52727          2.5368
LJ          0.251003        -2.17072       -0.286793
LJ          -2.13029         2.04344         2.52852
LJ          0.228337        -1.47006         1.39675
LJ         -0.516198         1.54778        0.345268
LJ          0.164954        -1.73533        0.707231
LJ           0.49485       -0.795649         1.27525
LJ          -2.52574       -0.352766        0.312572
LJ          -1.39515        -1.28732         2.50284
LJ           1.66457        0.412026       -0.458591
LJ        -0.0898959         1.97533        -1.17397
LJ           1.44681        -1.59751        0.878749
LJ        -0.0148838         1.73027        0.742354
LJ          -1.10544         1.55324         2.08076
LJ          0.583909         -1.4401        0.772742
LJ         -0.650748        0.796895         1.62791
LJ          0.159429       -0.379669         1.20794
LJ           2.16126        -1.59331         0.73217
LJ          0.895123         2.49125        0.932632
LJ           1.57575         1.81057         2.15947
LJ          -1.53311       -0.628604        0.412593
LJ         -0.492553       -0.352781       0.0301935
LJ           1.90776        0.766311        -2.40704
LJ         -0.484899         2.44596        -1.68356
LJ          0.377903         1.22174        -2.01322
LJ          0.115758          2.2367         2.15172
LJ         -0.129548        -1.06592       -0.872707
LJ          -2.31217        0.230456        0.199677
LJ         0.0105226      -0.0665605        0.984169
LJ           1.02016         1.08478        0.387562
LJ          -2.00455       -0.107544        -1.23182
LJ           1.70219         1.84578        0.252969
LJ              -nan            -nan            -nan
LJ           -2.5123         1.55743         1.84573
LJ          -1.28334         1.84411         2.41695
LJ          -2.40776        0.546453        0.367176
LJ          -1.52654         0.24707         2.14445
LJ          0.497093        -1.57475         0.43011
LJ          -2.10055       -0.900902         1.66303
LJ           1.84811        -1.79509        -1.48041
LJ           1.33416         0.76553        -1.92376
LJ           1.89706        -1.55355        0.254127
LJ         -0.563184       -0.395098         1.96576
LJ          -1.83046         2.31263        -1.05178
LJ         -0.427653          1.0579         0.93089
LJ           2.11468         0.94485        0.302298
LJ         -0.492418         1.41457        0.403913
LJ         -0.972104        -2.08458         1.62746
LJ           1.04052         2.02674         2.04267
LJ         -0.239271        0.466932         0.49908
LJ           1.24283        -1.34492       -0.618617
LJ          -1.17714         1.80073        -1.74659
LJ          0.421155         -1.5186        -1.38118
LJ           1.41058        -2.05146        0.944064
LJ          0.786302        -1.62722        0.534415
LJ             1.396        -1.71362        -1.24983
LJ         -0.538833         1.49732        0.789349
LJ         -0.684703          2.1759        0.423647
LJ          -1.62048         1.75975         2.24693
LJ            1.4991        0.253919       -0.293877
LJ           1.51288        -1.66799        -1.14456
LJ          0.151849        0.971164       -0.508679
LJ          -2.13216       -0.677397       0.0529388
LJ          -2.13912        -1.08614        -2.37174
LJ          0.883963         2.16491       -0.205719
LJ           2.33436         2.41363        -2.48142
LJ          0.444635         2.42691         1.88308
LJ          0.239846         1.67792        -2.18057
LJ         -0.128924        0.207389        -2.53739
LJ          -1.10246         1.76144        -0.27756
LJ          -1.73435         2.07767        0.663421
LJ          -1.02608        -2.11178         1.04084
LJ          0.526904         1.09667        -2.25406
