108
#Comment!
LJ          -2.41098       -0.717061         1.14809
LJ            1.5633       -0.439116         2.28836
LJ          -2.45228        -1.46771         1.79742
LJ          -0.28724        -1.45936         2.53669
LJ         -0.942003      -0.0812575        -1.95009
LJ           2.27507        -1.37067         1.03777
LJ          -2.13878        0.677423       -0.510096
LJ           1.93006        -1.13576         1.72331
LJ            1.1052        0.086523        -1.95218
LJ          0.478943       -0.743519        0.181268
LJ              -nan            -nan            -nan
LJ           1.07998       -0.261495        -2.43608
LJ           1.84123        0.959042        -1.55233
LJ              -nan            -nan            -nan
LJ          -2.29085        -2.45582       -0.207975
LJ              -nan            -nan            -nan
LJ              -nan            -nan            -nan
LJ              -nan            -nan            -nan
LJ           2.52409       -0.858117       -0.122438
LJ              -nan            -nan            -nan
LJ          0.937681        -2.02025       -0.532598
LJ           1.72275        0.351598        -2.00983
LJ           1.12544        -2.13199       -0.638029
LJ              -nan            -nan            -nan
LJ         -0.990878         1.46446        -2.25718
LJ          -1.40491        -1.53449        -1.22503
LJ         -0.902975         1.73993        -2.32521
LJ          -1.80061         2.45396       -0.277402
LJ           -2.2459        -2.35878        0.608303
LJ          -1.78482         1.75467        -1.14435
LJ              -nan            -nan            -nan
LJ           1.50676         1.41853        0.740597
LJ              -nan            -nan            -nan
LJ         -0.209221         -1.6965        -1.24515
LJ              -nan            -nan            -nan
LJ           2.43468       0.0495006         2.52736
LJ         0.0103532        0.347317       -0.888546
LJ          -2.45019        -1.86079         1.83056
LJ          0.280061        -2.29218         1.72891
LJ          0.566735         1.74012        0.695018
LJ          -2.09611        0.695022         -2.5559
LJ           1.86476         1.97614         1.42264
LJ          0.963001         1.56274        -1.30919
LJ          -1.03424        -1.21669        0.370047
LJ         -0.283278        -1.86115       -0.722269
LJ           2.36804        0.639286        0.250531
LJ          0.902586       -0.864197         2.29286
LJ          0.446018       -0.329774        -1.17711
LJ           1.75902         1.29752       -0.819532
LJ             1.577        0.602923        -2.48348
LJ          0.252098         2.35209        0.158457
LJ          0.734989       -0.971555        -2.15666
LJ              -nan            -nan            -nan
LJ           2.13642          2.4265         1.14687
LJ          -2.54215         2.04797        0.255382
LJ           2.36138        0.675376        -0.16089
LJ          0.512829        0.807072         2.08067
LJ          -1.34899      -0.0312425        -1.74524
LJ           2.06939      0.00904835        -2.37511
LJ           -1.4165         2.53619       -0.689644
LJ           1.40078          -0.551        0.296655
LJ          0.480881        0.700881        -2.53486
LJ           2.52934        -2.44758       0.0344269
LJ              -nan            -nan            -nan
LJ              -nan            -nan            -nan
LJ          -1.73497         1.45113       -0.445328
LJ          -2.22095         2.43166       -0.829337
LJ              -nan            -nan            -nan
LJ         -0.322411        0.481408         1.85295
LJ          -2.49991       -0.478085         1.54791
LJ           1.14634       0.0783356         1.39236
LJ         -0.683703       -0.268887         1.79112
LJ           1.30527        -1.05169         1.90947
LJ            2.3109       -0.212972         1.29009
LJ          -0.50069         0.36232        0.574627
LJ           2.10277        0.971491        -1.96394
LJ         -0.191474        0.141016        -1.15052
LJ          -2.05131        0.342377        -2.46241
LJ          -1.10268        0.274614         1.07928
LJ           2.31372         1.87066        -2.22523
LJ         -0.143838         1.25835         -1.1322
LJ           -2.1102        -1.62063        -1.50914
LJ          0.282455       -0.240176        -1.56097
LJ           2.07121         1.05751        -1.39575
LJ          0.697936       -0.299914         2.37258
LJ           1.91417         1.09426        -1.23021
LJ          0.955951      -0.0314358        0.287481
LJ          0.257949        0.617092        -1.41225
LJ          0.989813         -2.5143         1.47998
LJ         -0.718541        -0.83587        -1.20957
LJ              -nan            -nan            -nan
LJ          0.913817        -1.61261        -1.31105
LJ          -1.12633        -2.06912        -1.82685
LJ          -2.22823       0.0481631         -1.3821
LJ          -2.09682        0.629394         0.53875
LJ         -0.675083        0.492105       -0.421646
LJ          0.372507       -0.457283        -2.20489
LJ         -0.511853        -1.93007         2.36144
LJ              -nan            -nan            -nan
LJ          0.575867       -0.316066        0.611716
LJ         -0.436865       -0.051251        0.406825
LJ          0.759848        -0.65904       -0.272016
LJ         -0.445128        0.545035         1.70841
LJ           1.26912         2.44887         2.05634
LJ              -nan            -nan            -nan
LJ          0.338437        -1.92494         1.47877
LJ         -0.152829       -0.014509        -2.39581
LJ              -nan            -nan            -nan
