108
#Comment!
LJ          -1.75859         1.10925         2.12385
LJ          0.939321        0.567789        0.898064
LJ          -1.41776         2.17528        0.490117
LJ           1.15782         1.24033         1.36069
LJ           2.48708          1.6299         1.85407
LJ          -1.06502        -1.50444         2.15299
LJ         -0.310737         2.53658        0.861304
LJ          0.205401       -0.725217        -2.33889
LJ          -1.13509         1.82015        0.184369
LJ          0.758235        -1.13849        0.510068
LJ              -nan            -nan            -nan
LJ          -1.44314       -0.357971        0.758868
LJ           0.26976         1.51926         -1.5088
LJ              -nan            -nan            -nan
LJ          -1.73893         2.00461       -0.274362
LJ              -nan            -nan            -nan
LJ              -nan            -nan            -nan
LJ              -nan            -nan            -nan
LJ           2.34768       -0.521559       -0.768975
LJ              -nan            -nan            -nan
LJ            -1.065         2.12514         2.03228
LJ       -0.00157087       -0.519631        -1.83185
LJ          -1.65142        0.147096        -1.25395
LJ              -nan            -nan            -nan
LJ          0.950312        -1.37125        -2.42927
LJ           1.45396         1.90221         1.51007
LJ           1.46475        -1.48682        -1.93177
LJ           2.02828         2.53444        -1.41907
LJ          0.896691        -1.46139        0.816166
LJ           0.57057        -1.05135         1.58279
LJ              -nan            -nan            -nan
LJ         -0.312218         2.10301        0.656725
LJ              -nan            -nan            -nan
LJ           2.41639        0.901023         1.06144
LJ              -nan            -nan            -nan
LJ          -2.23124         1.50082       -0.843654
LJ          0.720987      -0.0954144         1.96856
LJ          0.352809         2.05478        0.483261
LJ           2.12616       -0.676492         2.54711
LJ          0.464183        -1.26195      -0.0260187
LJ         -0.294458         1.46129     -0.00787592
LJ           -2.0611         2.43729       -0.271031
LJ          -0.72879      -0.0920375        0.567388
LJ         -0.359188        0.932523        0.584987
LJ          0.823116        -1.17137        0.833289
LJ           -1.0325          2.3928       0.0703488
LJ           1.60238       -0.219537        -1.21931
LJ        -0.0837053          1.4565        -1.19663
LJ            1.7518        0.630148       0.0656637
LJ          -1.52424         1.32753         1.77734
LJ          -1.91361        -2.05369         2.43801
LJ          -2.43087        -1.34349        -1.76047
LJ              -nan            -nan            -nan
LJ           1.48291         2.49022       -0.313182
LJ          -1.35115         1.68831        -1.28898
LJ           2.43109       -0.912289        -1.60105
LJ          0.744103        0.247365        0.354222
LJ          -0.77113        0.138725       -0.106797
LJ         -0.714646        -1.00818        -1.15431
LJ          -2.02361       -0.454271        -1.90668
LJ          0.768526       -0.557236        -2.43347
LJ           1.14311        -2.48874         2.18864
LJ         -0.851257        -1.52391        -1.53781
LJ              -nan            -nan            -nan
LJ              -nan            -nan            -nan
LJ          0.692945       -0.303353         0.88695
LJ        -0.0545995        0.977224        -1.14834
LJ              -nan            -nan            -nan
LJ          0.107705         1.66958         1.99837
LJ          -1.40552        0.251781        -1.39748
LJ          -1.14084        -2.07186         1.52465
LJ          -2.10871         -2.1677         1.45978
LJ           0.93114         2.11404        -1.80329
LJ          -1.79421        -1.05217        -1.99443
LJ           1.31363      -0.0198901         -1.2522
LJ           1.61717        0.694443         2.26266
LJ           2.00987        -2.04967         2.00756
LJ          -2.40098       -0.449683       -0.889004
LJ          -2.16146        -1.94562         2.40638
LJ           1.80418         1.85129         1.78596
LJ          -1.51006         1.07433        -2.24782
LJ          0.139686        -1.86425       -0.320742
LJ            1.6327        -1.98438        -1.64109
LJ          -2.16999          1.9275         2.00187
LJ         -0.936891         1.35394        0.255251
LJ           2.53121         2.03373       -0.544482
LJ          0.370899        -2.34583        -2.48911
LJ           1.16708        0.786745        -1.37419
LJ          0.203157         -1.8593        -2.33813
LJ          0.659828        0.825928        0.228346
LJ              -nan            -nan            -nan
LJ          -1.00781        -1.80666       -0.785896
LJ          -1.65873        0.758605         1.30197
LJ          -2.54645        -1.42789       -0.935684
LJ             1.716         2.00006         2.31595
LJ          0.347992        0.201225        -1.44428
LJ          -1.97278         -1.4124         1.43447
LJ         -0.546566       0.0893019       -0.573355
LJ              -nan            -nan            -nan
LJ           1.38848        0.376251         1.73986
LJ           2.49619        -1.59602        0.793988
LJ           1.31529       -0.840612         0.45729
LJ         -0.526275         -1.2103        0.222707
LJ          -2.35713        -1.51058        -1.36585
LJ              -nan            -nan            -nan
LJ           1.06148         1.21217         1.25551
LJ           2.12841        -1.30361        -1.29487
LJ              -nan            -nan            -nan
