108
#Comment!
LJ          0.432014         2.06569       -0.323659
LJ          -0.70793         1.34904        0.415378
LJ           0.78693        0.559869         1.55719
LJ           2.17445         2.32964         2.37823
LJ          -2.22228         1.55525         1.02927
LJ          -1.84578       -0.194361       -0.996439
LJ          -2.42514        -1.59467        0.220284
LJ          -2.09535          2.2029         1.99403
LJ          0.163535       -0.863439       -0.631287
LJ           2.46507         2.19992        -1.36892
LJ              -nan            -nan            -nan
LJ         -0.473826         1.09457        -1.04687
LJ          -1.58932       -0.999872         2.03012
LJ           1.98174       -0.251754         1.11976
LJ          0.916911         1.99347         0.67303
LJ          -2.51962         1.17242        -1.16613
LJ              -nan            -nan            -nan
LJ              -nan            -nan            -nan
LJ          -2.06821        0.902816         1.61135
LJ              -nan            -nan            -nan
LJ           1.73627        0.929671        -1.07394
LJ           -1.8337         1.25208         1.72011
LJ           1.95881       -0.225931       -0.828077
LJ          -0.39042        -1.62177         1.34976
LJ             2.212       -0.380275        -1.91073
LJ          -2.13461       -0.750167         2.14869
LJ         -0.126481      -0.0406778        -1.46705
LJ           1.87729        -1.19103        -2.23398
LJ           1.35206        -1.12549        0.923938
LJ          0.805073       -0.188002       -0.485775
LJ           2.54618         1.09333        -1.13998
LJ          0.515361        -1.77675         2.39041
LJ              -nan            -nan            -nan
LJ         -0.830211         2.43987        0.269674
LJ              -nan            -nan            -nan
LJ          -1.30093        0.194785       -0.601039
LJ          -2.00558       0.0537008       -0.680046
LJ          -0.96686         0.42048        0.766214
LJ           1.23267         1.32515        -1.35959
LJ          -2.36405         1.09723        0.650123
LJ          0.888658       -0.348671          1.3022
LJ        -0.0604162        0.616098      -0.0322988
LJ         -0.107703         -2.2404         1.51001
LJ           -1.5722      0.00598955        -2.41525
LJ         -0.722697        -2.02915        0.182671
LJ         -0.593161         1.50945       -0.207214
LJ           1.74214         -1.0381       -0.640076
LJ           1.30442        -1.82742        0.977298
LJ           2.33185        -1.86767       -0.625019
LJ           2.32304        -2.32573        -1.19841
LJ         -0.623048       -0.113766        -1.75412
LJ         -0.259833        0.918923         1.30187
LJ              -nan            -nan            -nan
LJ          -2.55955       -0.965976       -0.299985
LJ         -0.962558        0.451357        -2.53898
LJ         -0.491587        -1.71458      0.00612263
LJ          -2.35002         1.87955        -1.70591
LJ          0.214917        -2.31833         1.88497
LJ          -1.94492       0.0613505        0.940833
LJ          -2.16658         -1.0066       -0.666269
LJ           2.14732       -0.508913        0.567446
LJ          0.860728         1.11578        -2.41813
LJ           -1.2269        -1.54967          0.8168
LJ          -1.56276        0.597364        0.993344
LJ          -1.79204          1.9081        0.239952
LJ          -1.46861       -0.375004        0.531855
LJ          -2.29017         2.04954         2.38624
LJ              -nan            -nan            -nan
LJ         0.0985363        -1.35637        0.517838
LJ          0.536156         1.92684       -0.326057
LJ           2.42004        0.550981        0.048961
LJ         -0.258117       -0.861151       -0.995768
LJ          0.314974       -0.273801        -2.49807
LJ          -2.38419         2.29901          2.1024
LJ          0.208852        -1.68949       -0.685312
LJ        -0.0654524        -1.58029        -1.52411
LJ          0.058948          -1.336        -2.08445
LJ          0.176186       -0.735324        0.112881
LJ          0.714243       -0.538331       -0.268712
LJ          -2.16641        0.341386      -0.0877509
LJ           1.70301         -2.5449         1.30319
LJ            1.2795       -0.889108        -1.74354
LJ          -0.13028       -0.678386        -1.79443
LJ         -0.426961        0.749194        0.873401
LJ          0.282766       -0.302204         1.44771
LJ          -2.31067          1.2034         1.04682
LJ          0.695377        -1.38379      -0.0461112
LJ          -1.02238        -2.00935        0.636754
LJ           1.68228         1.10011         1.35739
LJ          -1.03785        0.432012        0.937943
LJ              -nan            -nan            -nan
LJ           -1.3889         1.52154         2.46723
LJ          0.882839       -0.538695         2.50332
LJ          -1.98726        -1.35158        0.725659
LJ           1.62739        -1.81123         1.74597
LJ           1.63462        -1.47049         1.42004
LJ          0.331416         1.37623        -2.35055
LJ         -0.926395       -0.176358        0.641186
LJ          0.059468         1.34301        -2.29384
LJ         -0.953744         0.05896         -1.9146
LJ            1.0048        -1.94988       -0.552556
LJ           1.62394        0.767792          1.8602
LJ          -1.75511        -2.42597       -0.304567
LJ           2.24921       -0.804157        -1.32312
LJ           2.21277        -2.11984        -1.36377
LJ           1.50903          1.4162         0.50921
LJ          -1.18038          1.1109       -0.881166
LJ              -nan            -nan            -nan
