108
#Comment!
LJ           1.25282         2.21126         1.50991
LJ          -1.08552        -2.26788        0.558757
LJ           0.72624        0.494493         1.63621
LJ           1.89981         -1.7417        -1.66613
LJ          -1.09888        -2.07565       -0.123152
LJ          0.950278       -0.292874        -1.40233
LJ          -1.62635       0.0871864         0.99494
LJ           1.58589      0.00252845         1.10745
LJ           1.85904         1.34961        -1.74288
LJ          0.182461       -0.352864        -1.59534
LJ              -nan            -nan            -nan
LJ          -1.06564        -0.86551         1.29515
LJ         -0.765998        -1.49587        -1.59041
LJ           2.21969        -1.56499         2.31229
LJ          -1.21701        -0.82173         1.24975
LJ          -1.31649        -2.29679         1.97103
LJ              -nan            -nan            -nan
LJ              -nan            -nan            -nan
LJ         -0.503583        -2.11474        -1.74852
LJ              -nan            -nan            -nan
LJ          -1.14009        0.778461       0.0753146
LJ          0.150736       -0.199576         1.99627
LJ         0.0378106        -1.36091        0.326209
LJ           2.09739       -0.178867         0.93298
LJ         -0.677176        -1.62979        -2.21169
LJ          0.551581         2.26959         1.68353
LJ          0.123472        0.842239      -0.0230614
LJ           1.32871        -2.42993         1.39194
LJ           2.03731        0.220308         2.45435
LJ           1.23653         1.61896         1.27987
LJ          -2.05719         2.10904       -0.131249
LJ           1.97086         1.44354        -1.80412
LJ              -nan            -nan            -nan
LJ           1.29392         2.30362         -2.0665
LJ              -nan            -nan            -nan
LJ          -1.78375       -0.330084         1.37044
LJ         -0.833755         2.18962       -0.965917
LJ         0.0903918       -0.656722        -1.39613
LJ           1.23086        -1.02728        -1.02728
LJ          -1.40121         2.24213       -0.835577
LJ         -0.168667      -0.0612905       -0.162694
LJ          -2.29712       -0.112828         2.04461
LJ         -0.298581       -0.814998       0.0245464
LJ          0.494913       -0.517856        0.669913
LJ           1.05773        -2.50216         1.42858
LJ           2.02945       -0.322761        0.292555
LJ          0.466328        -1.61038         2.38972
LJ          -0.72994       -0.230388        0.140479
LJ           1.01535        0.181775        -1.20205
LJ          -1.81294       -0.893333        -1.54173
LJ           2.51535        0.808259       -0.336508
LJ          0.829291        -1.70792        -1.40543
LJ              -nan            -nan            -nan
LJ          0.799703         1.07115        -2.55361
LJ          0.473711        -1.26472         -1.8854
LJ          0.916897        -1.54546        0.156239
LJ          -1.49729      -0.0760049          1.1778
LJ          0.634425        0.814642         2.02553
LJ         -0.466608        -2.04048        -1.43526
LJ          -1.29709         2.47906         2.55533
LJ          0.368796        0.162342         2.45813
LJ          0.275572         1.93525         2.40085
LJ          -1.42549        -1.38201         1.85732
LJ         0.0188637       -0.831375        -1.77613
LJ          -1.57964       -0.334792         2.19939
LJ          -2.12142         2.11412       -0.101215
LJ          -1.24244        0.676503         0.53175
LJ              -nan            -nan            -nan
LJ          -1.04453       -0.633302        -2.54956
LJ         -0.309221        -1.75224       -0.185845
LJ           1.07586        0.042028         1.19624
LJ          0.757044         1.32322        -1.87717
LJ          0.787448       -0.556581        0.685456
LJ          0.269696         2.19146         -1.8628
LJ          -2.31094       -0.984715        0.769543
LJ         -0.371669         1.18314           1.508
LJ           1.70917        -1.64031          2.1803
LJ           0.10025       -0.097537         1.94472
LJ           1.77692        0.859553       -0.367506
LJ         -0.007687        -2.39176        0.534387
LJ           -1.7285        -2.39836        0.291722
LJ          -1.98208        -1.22845        0.706676
LJ          0.525626       -0.248644         2.00461
LJ         -0.567986       -0.443693        -1.97982
LJ          0.550664        -2.12192         1.01577
LJ         -0.454189         2.38044       0.0478841
LJ          0.335625          1.9585         -1.5035
LJ          -2.54731           1.674        -0.73847
LJ          -2.47048         1.99692         1.52709
LJ          -0.57412       -0.297295         1.45528
LJ              -nan            -nan            -nan
LJ           1.49412        -0.24397         1.90759
LJ          0.900139        0.788925         2.24025
LJ         -0.911783         -2.2784        -1.34086
LJ         -0.748586        -0.48705        -2.45822
LJ           2.25077        -2.48677        -1.97862
LJ          0.893888        -1.10847        -2.55809
LJ         -0.612766       -0.584669         2.05086
LJ          0.572032         1.99088        0.277699
LJ           2.29532         2.19023         1.86173
LJ          0.517745        0.338114        -1.58151
LJ          -1.28645        -1.04203         1.11024
LJ          0.688174        0.311812        -1.69322
LJ           2.20567        0.109619       -0.835899
LJ          -1.31145          1.7483       -0.198049
LJ          0.421329       -0.417886         -2.0591
LJ           2.36646        -1.79534        0.703025
LJ              -nan            -nan            -nan
