108
#Comment!
LJ          -1.47805         1.67612          2.5129
LJ            1.5378      -0.0575695        -1.12137
LJ            1.0756      -0.0330841        -2.50789
LJ           1.63409        -1.39558       -0.127325
LJ         -0.880847         1.91107        -1.74375
LJ            -1.724        -2.26849        -1.76447
LJ             -0.22        -1.60356        -2.21121
LJ          -2.07428        -1.13732         1.37963
LJ          -2.18017       -0.246029        0.057317
LJ         -0.491555        -2.10169        0.106767
LJ              -nan            -nan            -nan
LJ           1.71701      -0.0320222         2.42301
LJ          -1.58379       -0.317811        0.212702
LJ           2.11339       -0.225072        -1.97611
LJ         -0.138048        -1.45791        -1.45565
LJ          -1.78497         1.77931        -1.61461
LJ          0.979406        -1.71526        -1.51401
LJ          0.998397       -0.776867       0.0580743
LJ           1.09881         1.56516       -0.481517
LJ          -1.60228        0.895475         -2.1991
LJ          -1.11437         2.05468        -2.03699
LJ          -1.88616         1.82139        -1.10397
LJ          0.706583         1.87498        0.680584
LJ           1.37459          1.2189       -0.759618
LJ          -1.49402        -1.10996         -0.2202
LJ           1.13442       -0.265604       0.0164946
LJ           1.43548        -1.98203       -0.496981
LJ           2.28722        0.503578           1.007
LJ          -2.29108       -0.462242        -2.17594
LJ           -2.4022        -1.93762        0.962596
LJ           1.99045       -0.374467         2.24817
LJ         -0.755848       -0.127751        -2.11327
LJ              -nan            -nan            -nan
LJ           1.26249        -2.26916         1.55243
LJ         -0.353978         1.49179       -0.859103
LJ         -0.617624        -1.83069          1.9938
LJ           1.52722        -0.74243        -1.39184
LJ         -0.949112        -1.21659         -1.1457
LJ           1.15611       -0.892251         1.90403
LJ          0.981841          1.4684        -1.27077
LJ          -1.12456        -1.43844       0.0843711
LJ          -1.80226          1.8524       -0.763076
LJ          -0.79909        -1.29239         2.00673
LJ          0.849875          0.4512        -2.14384
LJ         -0.715803        -1.97775       -0.651033
LJ           1.42247        -1.41589        -1.78345
LJ         -0.699527        -2.13501        0.411111
LJ            1.5401       -0.881744         1.89976
LJ         -0.597653         1.94333         1.04351
LJ           1.61142        -1.15571       0.0692217
LJ           1.10621       -0.274672        0.967108
LJ           2.47325        -1.01101       -0.770534
LJ         -0.909532         2.25115         2.13038
LJ         -0.524995        -2.30284         -2.1655
LJ         -0.467296        0.480194        0.488043
LJ          0.789623        0.295289       -0.212117
LJ         -0.200334       -0.214907       -0.508883
LJ          0.842931      -0.0606506       -0.703494
LJ         -0.249005       -0.847928         2.41619
LJ          0.625699       -0.247211       -0.478852
LJ          -1.11267        0.394096       0.0570298
LJ         -0.375359         1.61867        -1.83778
LJ          0.853484       0.0552236         2.40577
LJ          -2.28648       -0.393625      -0.0385804
LJ          -1.63779        0.325688         -1.2879
LJ          0.715538        -1.11211        -2.34353
LJ           0.17219        -2.17827        -1.13319
LJ          -0.79912       0.0658187        0.783129
LJ          0.947449        0.472908        -2.21442
LJ          -2.06926        -1.44199        -1.50438
LJ           1.30854        -1.83365        -1.67633
LJ           2.36216         1.49042        -2.38363
LJ          -1.53568        0.719004         2.32204
LJ           1.17258       -0.731246        0.164236
LJ         -0.765717       -0.712339        -1.14918
LJ          0.182079        -1.96997      -0.0355125
LJ           2.49527         1.99757       -0.502517
LJ          0.719591     -0.00208238         2.21778
LJ          0.812685        -1.97868        0.572877
LJ           2.53066        -2.40842          1.9923
LJ          0.927679        -1.92602        -2.42994
LJ           2.09215         1.61609         0.79396
LJ          -2.41094        -1.05164       -0.470052
LJ          -1.53967        0.998184      -0.0199011
LJ          -1.66811        0.627086        -1.99941
LJ          -1.91182       -0.713631        -1.79827
LJ         -0.544207        -1.45537        0.344302
LJ          -2.40368        -1.55302       -0.483586
LJ          -2.33921          1.2637       0.0818344
LJ          -1.63722        0.727104         1.80207
LJ          0.979207         2.07617        -2.43088
LJ           1.83672         2.40993         2.25752
LJ          -1.09009        0.997086       -0.682966
LJ            -2.174        -1.74733       -0.842295
LJ          -1.20714          1.9534        0.980644
LJ          -2.53139        -1.95869       -0.499803
LJ          0.955704       -0.826348        -1.33385
LJ           2.45662        -2.27453        -2.23768
LJ         -0.603776        -1.53881       -0.996148
LJ         -0.576675         1.44541        0.410326
LJ          0.545581        -2.15321       -0.265325
LJ          0.408182         2.44328         1.01632
LJ         -0.950518        -1.74816       -0.835838
LJ           -1.9693      0.00893506       -0.480997
LJ          -2.49477        0.999151       -0.830455
LJ          0.977591        0.683195        0.569274
LJ           1.28442        -2.39666       -0.583499
LJ         -0.207754        0.951544        0.739722
