108
#Comment!
LJ         -0.651444        -1.01908         2.28574
LJ          -1.74404        -2.49101       -0.895106
LJ          -2.35824        -0.49161         2.35715
LJ           1.27055       -0.452607        0.808523
LJ          0.645387         2.20833       -0.615496
LJ           2.07143         2.11322        -1.25726
LJ          0.719486        0.976583        0.261481
LJ         -0.913031        -1.99035         1.09481
LJ           1.95821        0.605837         1.11304
LJ          -2.12091        0.669828         0.80413
LJ              -nan            -nan            -nan
LJ           2.44451        -2.31713       -0.939471
LJ           1.57277        0.223868         1.06109
LJ              -nan            -nan            -nan
LJ          -2.35314        0.610728         1.91949
LJ              -nan            -nan            -nan
LJ              -nan            -nan            -nan
LJ              -nan            -nan            -nan
LJ          0.931897         1.92794           2.538
LJ              -nan            -nan            -nan
LJ          0.954149        -2.28541        -1.82178
LJ           1.33698        -1.45134        -2.30514
LJ          -0.18179         1.32581         1.38267
LJ              -nan            -nan            -nan
LJ         -0.425089        0.788452        -2.28998
LJ           1.11544        0.224748         1.90661
LJ           2.34374         -2.5473         2.35149
LJ          0.467469         2.26532          2.0623
LJ          -2.21947        -2.27037        0.345055
LJ           1.82014         2.43175         2.09808
LJ              -nan            -nan            -nan
LJ          0.877145          -2.036         0.39716
LJ              -nan            -nan            -nan
LJ          -1.01495       -0.561451         1.35929
LJ              -nan            -nan            -nan
LJ         0.0529123        0.250024         -1.4121
LJ           -1.7619         1.41453       -0.488057
LJ           1.95323       -0.119005        -2.10214
LJ        0.00331786        0.148606       -0.316097
LJ           2.34367        -2.01226       -0.686966
LJ          -1.55491         2.13477        -1.85905
LJ          -1.33679        -1.71403        0.948833
LJ           2.47576        -0.44569       -0.890299
LJ           2.40496         1.18728         1.14997
LJ          -1.36843       -0.167185        -1.88625
LJ           1.92492         1.63598      -0.0091429
LJ           -1.5862         2.44806       -0.679911
LJ           2.06868        -2.51615         1.54395
LJ          -1.33373         1.99948         1.11649
LJ          -1.34547        -2.12314          2.5378
LJ          -2.24532        0.290149        -0.50435
LJ          0.761178       -0.277238        -2.49911
LJ              -nan            -nan            -nan
LJ          0.400757        -2.07864        -1.39422
LJ            1.3088        -2.26964         2.52188
LJ           1.20263        -1.08847        -1.49613
LJ          -2.12713         1.85342        0.785876
LJ           1.20716         -2.5135        -2.03041
LJ          0.631478       0.0158203        -2.35985
LJ         -0.115021         1.08532         2.15759
LJ           1.11299       -0.949878       -0.281148
LJ          -2.31037        -2.14843        -2.09903
LJ          0.384159        0.277206        0.341906
LJ              -nan            -nan            -nan
LJ              -nan            -nan            -nan
LJ         -0.246364        -1.38094       -0.616147
LJ           1.14073        -2.03116        -0.27738
LJ              -nan            -nan            -nan
LJ           -1.9255        0.849883         1.18242
LJ           2.20372          1.6303        -1.53482
LJ           2.24328         -1.5088       0.0559643
LJ         -0.760873        -1.21628        0.934764
LJ           0.70387        -1.41727        0.344483
LJ         -0.884989        -1.63144         2.46143
LJ         -0.149403         2.16585        -2.34383
LJ         -0.938477         -1.6042         1.97099
LJ           2.40293        -2.52898        0.388913
LJ           1.98235         1.90931       -0.710162
LJ          0.905642        0.949014       -0.270084
LJ           2.02378         1.03829         1.86661
LJ           1.44907         1.42582         1.06459
LJ         -0.615553         2.29142         1.69636
LJ           1.08928        0.541377          1.7984
LJ           -0.4219       -0.402297       0.0683913
LJ          0.974823        0.227814         2.17104
LJ          0.345583        0.175423        -2.54491
LJ          0.176521        -1.11049         1.00564
LJ          -1.67634         1.64289        -2.32433
LJ           1.76746         1.08205         1.62831
LJ           1.76936         2.35402        0.640964
LJ              -nan            -nan            -nan
LJ           1.63347       -0.945025       -0.988729
LJ           2.21204       -0.778822         0.25822
LJ          -1.87094         1.27923         1.73351
LJ          -1.21617        -2.49183        0.113533
LJ         -0.532492         1.95523         -2.3133
LJ          0.707796        -2.22709         1.28495
LJ           1.93824        -1.34762       -0.330463
LJ              -nan            -nan            -nan
LJ          -1.53782        -1.69391         1.12254
LJ          0.812222       -0.858276          1.4685
LJ           2.34426        -2.42735        -1.39153
LJ          -1.39808        -1.90734        -0.29017
LJ           1.08103         1.03182         -2.4369
LJ              -nan            -nan            -nan
LJ           1.45947         1.89488        0.770987
LJ          -1.91462        -0.18276        -1.56711
LJ              -nan            -nan            -nan
