108
#Comment!
LJ          0.531729       -0.239237         1.36957
LJ          -1.51828        -2.00067       0.0122969
LJ        -0.0729272        -1.19615        -1.90179
LJ          0.350371       -0.940074       -0.639018
LJ           2.11498         1.87715        -1.01675
LJ          -1.01942       -0.211588       0.0705311
LJ         -0.924502       -0.185577        -2.00751
LJ            2.3222        -1.64146         1.25479
LJ           1.96935        -2.22026        0.308482
LJ          -2.40742         1.21483        -2.35102
LJ              -nan            -nan            -nan
LJ           1.96551        -2.04283         2.03992
LJ           1.13379        -2.36286        -1.81439
LJ            2.4041         1.81694        -1.93407
LJ         -0.909982         2.21866         1.70576
LJ           1.11205        0.252756        -2.18965
LJ              -nan            -nan            -nan
LJ              -nan            -nan            -nan
LJ          -1.70509         1.97571        0.164877
LJ              -nan            -nan            -nan
LJ         -0.965276        -2.43078        -1.57519
LJ          -1.62097        -2.34259       -0.434112
LJ        -0.0499979         0.55148        0.819002
LJ        -0.0942324         1.31467        -1.52462
LJ          -1.66275       -0.188457        0.262115
LJ          -2.44722          1.5302        -1.39606
LJ          -1.80088         0.53725       -0.914483
LJ          -2.48124       -0.739737         1.76769
LJ         -0.590454        -1.82121        -1.00627
LJ          -2.13177         2.24567         1.24811
LJ          -1.40485       -0.385082         1.28419
LJ          0.415433        -1.22479        -0.37134
LJ              -nan            -nan            -nan
LJ          -1.38578        0.620237        -2.21766
LJ              -nan            -nan            -nan
LJ           1.50242       -0.342275         1.12928
LJ           2.40583         1.77739         1.27658
LJ          -1.62012        0.544444        -1.98736
LJ          -1.40835       0.0402156         1.03452
LJ            2.0978         0.82938       -0.518366
LJ          -2.44198        0.529663         0.43814
LJ           1.02883       0.0461766         1.05205
LJ          -1.76338        -1.84443       -0.929785
LJ          -1.83452        -2.22226        -1.89265
LJ          -1.37857       -0.198352        -2.42842
LJ          0.695916       -0.276269       -0.147659
LJ          -2.07587       -0.459827        -0.92138
LJ          0.245672         1.92027        -1.37968
LJ         -0.278881       -0.127368       -0.978443
LJ          0.561201        0.567544        -1.11938
LJ           2.18336        -1.82441        0.530217
LJ           1.65783        -1.74315            2.33
LJ              -nan            -nan            -nan
LJ          -1.15009        -2.19581      -0.0995585
LJ           1.40807        0.696062          1.8796
LJ         -0.883018       -0.844513         1.14637
LJ           2.52831        -2.37111         1.73322
LJ          0.806402         2.52409         1.28675
LJ          -2.18847       -0.426451       -0.668548
LJ           1.61337        -2.44641        -1.38721
LJ          0.236501        0.411203         1.94182
LJ          0.087115         1.16538        -1.07613
LJ          -1.79411        -1.42438         -1.8953
LJ          -2.27942        0.263623        -1.37499
LJ          -1.76197        -1.33447          1.1321
LJ           1.63462        0.633761         1.13216
LJ          -1.96775        -1.30258        0.879664
LJ              -nan            -nan            -nan
LJ           1.26232        0.500628       -0.126679
LJ          -2.23981         1.08961        -1.67291
LJ          -2.02911          0.8305        -2.14243
LJ          0.686799        0.820086        0.930987
LJ         -0.602516          0.8184        -1.07224
LJ            2.4755        -2.01702       -0.681605
LJ          -1.55412        0.814631         1.36048
LJ          -1.72326        -1.18427       -0.141956
LJ         -0.201408         1.83981        0.826422
LJ          -1.62838          1.7733         0.53038
LJ           1.28391        0.561722        -1.24871
LJ          -1.10669         1.72417        -2.48731
LJ          -1.81688        -1.68551        -2.18961
LJ           2.25682        0.375223        -0.30478
LJ          -1.25737          2.4985       0.0380622
LJ         -0.716954         1.34778        0.600817
LJ         -0.286234         2.09905         1.33843
LJ          0.650673        -1.64014       -0.966671
LJ           1.96797         2.40129        0.760631
LJ           1.81449       -0.263801         -2.1223
LJ           2.09804       -0.886777         2.01406
LJ           1.42297         1.84572       -0.908045
LJ              -nan            -nan            -nan
LJ          0.547468         -2.0014        0.217704
LJ           1.43353       -0.492862        0.479912
LJ           1.77988       -0.318543        -2.36152
LJ           2.21431         0.63918         1.87144
LJ           1.78495        0.645711        0.565333
LJ          -1.13049         1.36191         1.69558
LJ          -1.16146         -1.2324        0.415142
LJ        -0.0743224        0.687914       -0.729358
LJ         -0.851196        0.890181        0.433293
LJ          0.676278        0.748147       -0.819682
LJ          -1.68488         1.03744        -1.57756
LJ          -1.04229         1.79485        -1.57687
LJ          -2.41389        -1.16351         1.53387
LJ          -2.11581        -2.17194        -1.99827
LJ           1.15807        -1.30523       -0.379511
LJ           1.83573        -1.83387        -1.70482
LJ              -nan            -nan            -nan
