108
#Comment!
LJ          0.257612         2.25818         1.01143
LJ          0.224512        -1.95595        -2.28035
LJ         -0.614987        -1.02141        0.583101
LJ          0.808816        0.655415        -2.32142
LJ          0.633398          -2.108        0.887062
LJ          -1.56313        -1.14798       0.0922636
LJ         -0.977709     -0.00932592         1.40603
LJ            2.4606         1.60912         1.41498
LJ          -1.84509       -0.217473       -0.151387
LJ           -2.4084         1.40711        -0.38463
LJ              -nan            -nan            -nan
LJ          -1.97857         -2.3814         2.00224
LJ         -0.342907         -2.1817        0.124313
LJ           1.88814         1.77202        0.406834
LJ         -0.357955        -1.37946         -1.1727
LJ          -1.50984         2.17189         1.95291
LJ           1.42005         0.79515         -2.2224
LJ           0.10773         2.32766         1.77748
LJ         -0.395515        -2.11264        -1.19926
LJ           0.71461         1.80005         -2.3596
LJ          -2.00442       -0.129768        -2.34069
LJ           0.53985        -2.44196        -1.41524
LJ          0.592077         2.38934        0.593649
LJ           1.39993         0.50114      -0.0189323
LJ           1.02396       -0.209799         1.29514
LJ           1.69784         1.74462        -1.22146
LJ           1.02727        -1.14356         -1.0571
LJ            1.2837      0.00902103        -1.63072
LJ           2.37499         1.65184        -2.35663
LJ          -1.43822        0.740912        0.169006
LJ          -1.82494         -1.9373        -1.51021
LJ          0.346682         2.38433         1.97718
LJ              -nan            -nan            -nan
LJ          -1.70585        0.700933         2.00066
LJ           1.46581          1.3127         1.93186
LJ           1.55518       -0.335312        -1.49797
LJ          -2.45077        0.971001        0.231586
LJ          -2.52695         1.54818          2.2916
LJ          0.293404        0.658845            1.58
LJ           2.46986         1.42066       -0.133703
LJ         -0.156614        -2.00722       -0.398614
LJ         -0.115773        -2.20853        0.606841
LJ          -1.39313         1.36314         1.72102
LJ          -1.92407        -1.34715       -0.704929
LJ          0.875558         2.42441         1.76517
LJ          -0.94746        -2.26877      -0.0768094
LJ         0.0137841           1.563       -0.481226
LJ           2.43821           1.438       0.0279572
LJ           1.30044       0.0836187        -2.05224
LJ          -1.64542         1.96834         1.91696
LJ          -0.25113         2.33788        0.929378
LJ         -0.670582         1.06413        -1.16265
LJ          -1.17007        -1.42322        0.466759
LJ         -0.894742        -1.31864        -1.51702
LJ          -1.64702       -0.923556        -1.28552
LJ          -1.68075        -2.37334         -1.2389
LJ         -0.872225         -2.0251        -2.00152
LJ          -1.67682         -1.0219        -1.16408
LJ           2.14212         1.38435        -1.71158
LJ         -0.384508         2.23993        0.322672
LJ           2.26329         2.39572        0.952865
LJ          -2.29748         2.27925        0.757171
LJ           1.16362       -0.369484          1.8609
LJ          0.115426         1.19648         1.97962
LJ           1.47348         1.40237        0.120736
LJ          -1.42758         1.36539         0.41053
LJ          0.746526       -0.105521        0.255477
LJ          0.467159         1.58808        -2.14045
LJ           1.10675       0.0841778       -0.504803
LJ           1.31347        -1.14067         2.40348
LJ          0.513565         2.37519       -0.881005
LJ          -2.16794        -0.20489         1.08463
LJ           2.38369          2.4976         2.35089
LJ         -0.464243        -2.15551         1.40116
LJ           2.43427        0.508224         1.25883
LJ          0.450046       -0.862554       -0.404559
LJ          -1.54908        0.642139        0.826673
LJ          -2.01838        -1.90738        0.635034
LJ           2.09956         1.72196          2.1792
LJ           1.69026         -1.6583         2.40328
LJ          0.266497        -1.38523         1.67704
LJ            1.1434         2.05687         2.33677
LJ          0.657103        0.574396        0.977636
LJ          -2.46002        0.261457        -2.40719
LJ        -0.0813435        0.130007         1.61048
LJ         -0.269828      -0.0344636         2.32619
LJ          -1.84017        -1.09637         1.00446
LJ          0.733729       -0.845884       0.0967521
LJ          -1.00871         2.38352        0.658179
LJ           -2.1543        0.545464       -0.839301
LJ          0.376607        0.651518      -0.0971055
LJ          -2.05436        -2.55116        -1.88236
LJ          -2.27835        -0.93386      -0.0820071
LJ         -0.878536       -0.104844         1.98388
LJ          0.331208        0.745096        -1.92778
LJ          0.707891        -1.10667         2.47029
LJ           1.16667         1.83046        -1.76284
LJ          0.169055         1.35147         1.40374
LJ         -0.503653        -1.13395          1.1942
LJ         -0.310749         1.43726       -0.472635
LJ           1.08589         2.03657        -2.00752
LJ          -1.94502        0.820588         1.82803
LJ           2.49424         1.43191        -2.49283
LJ         -0.639979          1.0764        -1.22641
LJ            1.8465        -1.31874         2.52417
LJ           1.15282        0.562197       -0.184196
LJ           2.43134       -0.220169         2.15611
LJ          -2.43157      -0.0606309      -0.0981386
