108
#Comment!
LJ          -1.39349            1.35         1.77174
LJ           2.45188          1.0058       -0.965024
LJ          -1.68856         1.34377        0.241292
LJ          0.821273         1.56622         2.48371
LJ          -1.10029       -0.631812         2.24165
LJ           2.53726        -0.73463         2.38003
LJ           1.26778        -1.70965         1.57277
LJ          -1.04868        0.824756         1.58372
LJ          -1.74743        0.428635        -2.13168
LJ           1.39876       -0.620215        0.321148
LJ              -nan            -nan            -nan
LJ           1.38732        0.398412       -0.681325
LJ          0.915003         2.38479         1.64308
LJ              -nan            -nan            -nan
LJ           1.91692        -2.52411        -1.66878
LJ              -nan            -nan            -nan
LJ              -nan            -nan            -nan
LJ              -nan            -nan            -nan
LJ         0.0193935         2.40672       -0.244847
LJ              -nan            -nan            -nan
LJ         -0.429357       -0.229084        0.643004
LJ          -2.22241        0.212728        -0.42058
LJ          -1.68406         1.64898        -1.54451
LJ              -nan            -nan            -nan
LJ          0.621159        0.758857        -1.07023
LJ          -1.06532        0.648962        -1.62023
LJ          -2.46826        0.691321      -0.0938221
LJ          -1.82912         -1.4291       -0.453543
LJ            1.6005         1.94714         -1.9885
LJ         -0.452212         1.29361         1.76894
LJ              -nan            -nan            -nan
LJ          0.975416        0.801302        -2.35724
LJ              -nan            -nan            -nan
LJ           2.47141       -0.536502       -0.829663
LJ              -nan            -nan            -nan
LJ          -2.43625        -1.72728        -2.10285
LJ          -1.25601         1.25239         2.12977
LJ           1.66164        -1.19706      -0.0846566
LJ           1.39857       -0.532945       -0.200978
LJ         0.0611912        -1.25149         1.92917
LJ          -1.57036        0.616494        -2.43294
LJ           0.69015        -1.49444          1.8175
LJ          0.920034        -1.91069         2.52739
LJ         -0.228843        0.253734        -1.66992
LJ           0.67038         1.81459       -0.100575
LJ          0.972102        -1.89229        0.561136
LJ          0.509139        -2.37123         2.48458
LJ          -2.54887        -2.50251        0.263662
LJ          -1.57368        0.723932       -0.640953
LJ           1.99449        0.140448        -1.05694
LJ          -1.65262       -0.896184         -2.3684
LJ          -1.22896      -0.0116038        -1.36342
LJ              -nan            -nan            -nan
LJ           1.20664        -1.69605       -0.490383
LJ          -1.74525         0.44198        -1.13027
LJ          -2.01433        0.914807       -0.157797
LJ            1.5574         0.47645        0.828424
LJ         -0.260209         1.19514        0.413294
LJ          -2.06762       -0.152278        0.471547
LJ           2.34985        -1.91378        0.176322
LJ           1.58021        -0.81031        -1.14308
LJ          -1.22102        0.404738         -2.2232
LJ           1.95546        0.061882         2.05537
LJ              -nan            -nan            -nan
LJ              -nan            -nan            -nan
LJ          -1.28193        -1.14669        -1.03835
LJ          -1.61929        -1.46216          1.0148
LJ              -nan            -nan            -nan
LJ          -1.55398        0.853538         1.30391
LJ          -1.04702         1.17542         1.52505
LJ           1.83238         1.17381         2.54877
LJ          -1.51369       -0.861063         1.39162
LJ           2.39519        0.254145        -1.73992
LJ           1.48044        -0.68867       -0.878074
LJ         -0.833689        -2.41046         1.53879
LJ          -1.01955        -1.94176         2.35182
LJ           1.33172        -1.46095        -1.34772
LJ           2.14242       -0.379429         1.68654
LJ           1.39522        0.781203          1.8858
LJ          -1.17941       -0.580703       0.0196241
LJ           1.93281         1.80054       -0.153467
LJ         -0.796968        0.146094        -2.34258
LJ          -1.91629        -1.23193        -2.53173
LJ          -2.36249        -1.55822        -1.16727
LJ           -2.3267          2.4144        -2.24046
LJ           1.20665        0.180455        -1.39368
LJ           2.19075        -1.99784        -1.47261
LJ           2.26194          2.1024         1.76468
LJ          0.604456        -2.02518         2.49832
LJ          -1.10891        -1.25384         1.05812
LJ              -nan            -nan            -nan
LJ         -0.160292        -1.13602        -0.27609
LJ          0.272392       -0.671305       -0.502878
LJ           1.74081        -2.12381        -1.16199
LJ           1.03649          1.4941         2.23013
LJ           2.14924         0.36211        -1.38706
LJ          -1.74406        -1.11581        0.670281
LJ         -0.206981       -0.214867        -1.57948
LJ              -nan            -nan            -nan
LJ          -1.79691         2.42078         1.41947
LJ           2.27708       -0.990791         1.82856
LJ           -1.0421      -0.0367192         1.43135
LJ           1.89743        0.417386        0.497194
LJ           1.36992       -0.678443       -0.623886
LJ              -nan            -nan            -nan
LJ          -2.08007         2.47368         1.00581
LJ           1.56687         1.20175         1.56432
LJ              -nan            -nan            -nan
