108
#Comment!
LJ         -0.538816         1.70746        -1.22623
LJ           2.32749        -2.26937        0.762031
LJ          -2.47094           2.536       -0.663781
LJ           2.00009         -1.7719        -2.50427
LJ          -2.14282         2.11017        0.874457
LJ         -0.646418         2.34429        -1.34276
LJ         -0.650176         2.22021         1.73698
LJ          -1.28341          1.7728      -0.0500311
LJ           -0.2989         1.26894        -2.54866
LJ           1.21483        -2.48044       -0.853311
LJ              -nan            -nan            -nan
LJ           1.29846         1.39263        -1.74548
LJ          0.180113        0.595309         1.10608
LJ              -nan            -nan            -nan
LJ          0.886137         2.34874        -0.70484
LJ              -nan            -nan            -nan
LJ              -nan            -nan            -nan
LJ              -nan            -nan            -nan
LJ         0.0996488         1.64119        -1.96528
LJ              -nan            -nan            -nan
LJ          0.309779         1.13802       -0.412684
LJ          0.946931       -0.385138         1.78986
LJ        -0.0478331       -0.434993         1.22987
LJ              -nan            -nan            -nan
LJ          -0.94964        0.317922        -2.19635
LJ          -2.00834         2.33067         1.51313
LJ          -1.24516         1.93138        -2.14599
LJ           1.33386         1.10524       -0.439071
LJ         -0.447567        -1.10305         1.48208
LJ                 1        -1.87664         2.21869
LJ              -nan            -nan            -nan
LJ          -1.90945        0.715316        0.950487
LJ              -nan            -nan            -nan
LJ           1.09331         1.57122        -2.46649
LJ              -nan            -nan            -nan
LJ         -0.774641         1.50493         1.90315
LJ          -2.22892        -2.17067         2.40949
LJ           1.38687       0.0832652         1.46738
LJ         -0.129516           2.134        -2.23338
LJ          -1.38601         1.25701        -2.49767
LJ          -1.30563        0.447135         2.52606
LJ           1.08944        -1.28199         2.48393
LJ           2.32379        -1.59123        0.504496
LJ          -1.76201       -0.612062         2.34903
LJ          -1.87825        0.173008        0.177852
LJ           2.10868        0.941772        -1.98837
LJ          -1.10007        -2.35348        -2.45082
LJ         -0.169967        0.248462        -2.41499
LJ           1.39394       -0.880309         1.07614
LJ         0.0368986        0.243523       -0.341555
LJ           1.29432        0.884347         2.38337
LJ          -1.32893      -0.0900434         1.47054
LJ              -nan            -nan            -nan
LJ         -0.189406        -1.54048       -0.515188
LJ          -1.76987       -0.595503        0.972105
LJ          -1.89717         2.11483        0.325431
LJ         -0.258082         1.56926         -1.0609
LJ           1.52777        0.535088        0.313818
LJ         -0.452391        0.389476         2.54989
LJ            1.6794        0.619328        -2.15212
LJ         -0.944918        0.989656       -0.653408
LJ           1.69139         1.60079        -1.20016
LJ          0.680124        0.396703         1.58778
LJ              -nan            -nan            -nan
LJ              -nan            -nan            -nan
LJ         -0.449911       -0.958176        -1.67763
LJ         -0.966417         2.09933       -0.179737
LJ              -nan            -nan            -nan
LJ           1.93945        0.633047        -1.68378
LJ          0.387974         1.84793         0.46164
LJ          -2.24537         1.80005       -0.491574
LJ         -0.965659        0.535674       -0.962362
LJ         0.0100646        -1.24603         1.18417
LJ           2.09367       -0.880431        0.868383
LJ           2.39765       -0.840777        0.653039
LJ         -0.818587        -2.44918        -1.58071
LJ          -2.12495         1.00637        0.320815
LJ         -0.972838       -0.512207        -2.48901
LJ         -0.566578        -1.94194         1.28522
LJ          0.801065         1.80755        -0.70466
LJ         -0.147641        0.765174        0.400872
LJ           2.48805         1.53188        -0.36392
LJ          -2.51601         1.32037        -2.00631
LJ           2.24514       -0.805803         1.79605
LJ           1.62749       -0.296399         2.53212
LJ          0.165254         1.20055         1.04805
LJ          -2.41648        0.034172        0.838349
LJ         -0.322372         1.59583        -1.91962
LJ           2.43543       -0.273337         2.53381
LJ          0.953223       -0.629684         1.42743
LJ              -nan            -nan            -nan
LJ           1.60189         2.09836         1.13873
LJ         -0.750475        -1.43909       0.0205355
LJ          -1.25391       -0.656863       -0.852766
LJ           2.04592         1.66257       -0.673687
LJ         -0.859022        -1.29738       -0.493162
LJ          -1.36042        0.380218        -1.72201
LJ         -0.285454        -1.73587         1.45175
LJ              -nan            -nan            -nan
LJ           1.18137        0.835083         2.17908
LJ          -2.12473         1.70805         1.59739
LJ          -1.20415         1.02705         1.13261
LJ           2.01067        0.304017       -0.703221
LJ            2.3549         1.13696         0.30937
LJ              -nan            -nan            -nan
LJ           2.19521        -1.61932        -1.74167
LJ          -2.41177       -0.956805           -1.46
LJ              -nan            -nan            -nan
