108
#Comment!
LJ          -1.66124         1.86214        0.845799
LJ         -0.114932         1.13715        0.292308
LJ          -0.68586        -2.12746       -0.475933
LJ          0.604086         2.33778         -1.5063
LJ          0.731518        -1.86366         1.66065
LJ          -1.50964       -0.311693          -2.368
LJ          0.727596        -1.90036        0.771464
LJ         -0.892762        -1.43408         1.98738
LJ          -1.02283        0.949993        0.950491
LJ           1.02552         1.79565        -1.70031
LJ              -nan            -nan            -nan
LJ         -0.177738        0.657727         -1.3787
LJ          0.429382         1.91944       -0.464817
LJ          -1.09177        -1.14934        0.712993
LJ          0.893782        -2.36529         2.32805
LJ          0.807673         2.03676       -0.740273
LJ          -2.23794        0.859764        -1.30532
LJ          0.666434        -0.17434       -0.143695
LJ           1.34827        -2.02184        -1.89721
LJ           2.05954        -1.36408        -1.45298
LJ         -0.331489       -0.681236       -0.904747
LJ        -0.0465006       -0.486374         2.04834
LJ          -2.42045         2.21117        -2.00023
LJ          -1.97775        0.437956        -1.67526
LJ          0.259182        0.781615        -1.60687
LJ          -2.55224        0.757978         2.19424
LJ          0.267848        -2.24164        0.660516
LJ          0.796379         1.47831        -1.77485
LJ           1.80499        0.241163       -0.532474
LJ           -2.5116        0.819837        -1.10173
LJ          -0.52441         1.41479       -0.715527
LJ           -1.4114         1.39821       -0.998958
LJ              -nan            -nan            -nan
LJ          -1.24854        0.500422         1.98955
LJ           2.28411        0.722711         1.19476
LJ          0.407084         1.07816        -2.25487
LJ          0.691673         1.32257         -1.8809
LJ            1.9276         2.49518         2.35174
LJ           1.38246        0.100201         2.08699
LJ         -0.150868         2.36181       -0.438574
LJ          0.762532       -0.090167       -0.364294
LJ          -1.82149       -0.358172        -2.16168
LJ         -0.111836        -1.99211        -2.54972
LJ          -1.02789         2.30042         2.15154
LJ           1.69637        -2.00407        0.177536
LJ          -2.03371         1.61823       -0.457057
LJ           1.24318        -1.95642        -2.44355
LJ          -1.86595        -1.68694        -2.00825
LJ          0.997516          2.4053        -1.66084
LJ           2.26074         1.32623         1.21138
LJ          -0.70368       -0.441931         2.48037
LJ           2.14783         1.57586        -1.29463
LJ          -1.50118         0.58627         2.12089
LJ          -1.23623         1.75706       -0.757861
LJ          -1.68915         -1.0582       -0.940668
LJ          0.265819         2.44893        -2.05878
LJ           2.42235        -0.15717        -1.47232
LJ          -2.31624          0.1031        -1.57316
LJ          -0.47223         1.18058         2.54923
LJ         -0.957086       -0.929103        -1.26949
LJ          -1.16458        -1.44813        -1.12364
LJ         -0.173356        0.562197        -2.03165
LJ         -0.676662        -2.16151        0.953565
LJ          0.850501         -1.7652      -0.0664652
LJ           1.10699       -0.625562         1.84314
LJ          -1.27599        -2.49891        -1.75518
LJ           2.13279         2.17418         2.34932
LJ          0.259023         2.23364        -1.41077
LJ          0.474249       -0.488516         1.03535
LJ           2.02229        -1.89223        0.231282
LJ         0.0327599         2.34078          1.0186
LJ          -1.29845       -0.452712        0.918417
LJ          0.451144       -0.760284        0.672468
LJ           2.45402       -0.515396         2.53901
LJ          0.283264        -2.43402          1.0159
LJ           2.25176        0.523067        0.741815
LJ           -1.9835       -0.311508         -1.5681
LJ         -0.431775         1.09874          2.3155
LJ          0.144041          1.6805       -0.439862
LJ           1.45001       -0.790115       -0.875532
LJ          0.626395         2.16287      0.00556926
LJ          -1.03517          1.2845        -2.07439
LJ          -1.04678         1.36932        -0.30817
LJ           1.08819        -2.33219        -1.19104
LJ          0.253482       -0.669759        -2.24114
LJ          -1.55134       -0.358283        0.828279
LJ          -1.37596       -0.376219      -0.0973699
LJ           0.98231        -1.39203         2.03418
LJ         -0.404875        0.287998         1.13428
LJ           1.83058         2.26601          1.9074
LJ           2.01019       -0.614051         1.70309
LJ          0.695256        0.464143           2.275
LJ           1.14167        0.826296       -0.462602
LJ        -0.0450995         1.36426       -0.474773
LJ          0.632777         1.33966       -0.658209
LJ         -0.212569         2.23341        -1.33568
LJ         -0.216664         1.30929       -0.035974
LJ          0.185863        -1.63122         1.31898
LJ          0.774552        0.995104        0.896791
LJ           -1.6096        -0.70728           1.415
LJ           2.06442        -2.12514        0.251788
LJ           1.49931         1.93005        -2.06795
LJ           -2.4538       -0.149964        0.400312
LJ           1.10647        0.535529        0.350717
LJ           1.11383         2.26036        -2.23497
LJ          -0.45403        -1.73789        -1.80472
LJ          -1.20052        -2.21177       -0.960131
LJ          0.730731        -1.61935        0.620632
