108
#Comment!
LJ           1.54855       -0.329254         -1.5233
LJ            1.6756         2.21068       -0.442067
LJ          -2.12541        0.606949         1.40837
LJ           1.90206         1.24895       -0.179342
LJ         -0.132093         0.28069        0.543192
LJ         -0.188385         1.06553         1.29906
LJ          -1.06944        -1.94097         2.47349
LJ           1.57286        0.243008         -1.6424
LJ         -0.752701        0.439831        0.775271
LJ          -1.68339        0.472963        -1.30695
LJ         -0.398132       -0.844287       -0.330683
LJ           2.40655        0.166136       -0.333237
LJ          0.227188        -1.21006          1.8945
LJ            2.3661        -1.49285       -0.735424
LJ         -0.401022       0.0119814        0.627816
LJ          0.854719        0.995231         0.86247
LJ        -0.0949815       -0.862356        -0.46666
LJ          0.957623        -2.52384        0.250652
LJ         -0.700197         2.24328          1.1045
LJ          0.784866         1.90705        -2.06032
LJ           1.83059        -1.62573        -1.50629
LJ           1.63054        -2.23974      0.00331917
LJ         -0.135884         1.41757        0.774011
LJ           1.37527        -1.21693        -1.89163
LJ           1.85449        -1.29876        -1.17723
LJ           1.67519        -0.38539        -1.04181
LJ          0.470932        0.692334     -0.00417571
LJ         -0.249709         1.20689          2.3291
LJ          -1.47031        -2.07904         2.41181
LJ           -1.0153       -0.871476         1.56342
LJ          -1.69401        0.164737        0.614288
LJ          0.567568        -1.93526       0.0333812
LJ           1.81868        0.754232        -2.46765
LJ           0.51921         1.26617        -1.42562
LJ          -0.91478       -0.460793         2.00355
LJ          0.350176         2.28585      -0.0869754
LJ            1.4915         -1.6315         2.54503
LJ           1.79365       -0.193048        0.709986
LJ          0.044691         2.33631         2.15179
LJ          -1.17373        -1.59751        -0.92574
LJ         -0.854288         1.83357         1.97073
LJ          -1.34309        -2.55002       -0.197896
LJ           1.35787        -1.03175      -0.0869216
LJ          -0.28569         1.73228        -2.49207
LJ          -2.29569        -1.05045         1.26085
LJ          -2.41499        -0.44385         1.17579
LJ           0.60717        -2.43446        -1.68203
LJ           1.70149         2.38253          1.0794
LJ           2.09915        -1.64049         1.86317
LJ         -0.923731        -1.32036         1.23182
LJ          -2.37785       0.0333972        -2.15255
LJ          0.907981      -0.0502927         2.46772
LJ         -0.926222        -1.92158       -0.804275
LJ          -1.48214         1.78741        -2.03516
LJ           1.96592        -1.08189        0.864757
LJ          -1.89023         2.06525        -2.11611
LJ          0.866902         1.13524       0.0256037
LJ           2.32825       -0.236518        -2.14832
LJ          -2.04011         2.33842        0.452448
LJ         -0.869575        0.742577       -0.899469
LJ           -1.8257        -1.25757        -2.07924
LJ           -1.3357       -0.413223         2.06443
LJ           1.56222       -0.951939         -1.1702
LJ         -0.882147         1.52135         2.53196
LJ         -0.827061        -1.11926        -1.12101
LJ          -1.10325       -0.422628         1.83726
LJ          -1.22414        0.923032       -0.611493
LJ         -0.632717        -2.32782         2.36139
LJ           1.89604         2.09456        0.240574
LJ          -2.32774        -1.71955        0.531133
LJ           2.48583         1.87171       -0.951916
LJ          -1.28866        0.925377         -2.2456
LJ         -0.660187         1.90777       -0.854367
LJ          0.449229       -0.738927        0.567268
LJ           -1.9445         1.74206         1.40973
LJ         -0.633422        -2.51612         -1.7239
LJ          -0.91192         1.54884       -0.154048
LJ         -0.612409       -0.846196       -0.239144
LJ         -0.928178         2.28089        -1.37462
LJ           2.17487        0.310636         2.14484
LJ           0.08351        -2.03697        -2.46753
LJ           1.62331       -0.527431        0.241578
LJ         -0.264645        0.877053       -0.529826
LJ         -0.512578       -0.299709         1.26286
LJ          0.828803         -1.9562        0.682939
LJ         -0.551343       -0.722141         2.40344
LJ          -1.65744        -1.94268        -2.52977
LJ          0.461108         0.72491         1.18181
LJ           2.54355       -0.312253         1.95168
LJ           1.81808        -1.61474         2.16192
LJ            2.2913       -0.360379         2.47337
LJ            2.4592         1.72148         2.06729
LJ          0.782499        0.427339        -1.06923
LJ           2.32361         -1.4308        0.456816
LJ          -2.05673        -2.50846        0.217096
LJ          -2.36987         2.36823       -0.749727
LJ          -1.07692        -1.01367        -2.40898
LJ           2.34802        -1.77177         1.06274
LJ           2.19987         1.18237         1.16435
LJ          -2.00425        -1.39266        -1.96651
LJ          -2.29432        -1.39035        0.727578
LJ          -2.22439         2.12374       -0.552925
LJ          -1.64539         2.44158         2.36059
LJ           1.14319        -0.50021        -2.55264
LJ          -0.28514        -1.93679        0.173833
LJ         -0.347521        -1.11646         0.37072
LJ         -0.883781        -2.06863        -2.00665
LJ          0.908581         2.43617        0.166922
