108
#Comment!
LJ          -1.21491         1.45939       -0.733994
LJ           2.46469         2.38601         1.39649
LJ           1.06079       -0.582694       -0.922751
LJ           1.37491       0.0704328         1.45406
LJ          0.444789        0.720592        -1.45593
LJ          -1.33151        0.541679         1.90182
LJ          -1.82027        -0.95237         1.47884
LJ         -0.633732         1.99378       -0.421263
LJ           2.33901         1.40149         1.41259
LJ           -2.0635        0.617674         1.12547
LJ              -nan            -nan            -nan
LJ            1.9539        0.364929         1.71092
LJ           2.41598        0.761187       -0.108243
LJ          -0.74446         1.46547       -0.118181
LJ          -1.46818      0.00594878         1.05328
LJ           1.10135        -1.59772         2.25056
LJ              -nan            -nan            -nan
LJ              -nan            -nan            -nan
LJ           1.05697         2.05724         1.01145
LJ              -nan            -nan            -nan
LJ         0.0793275        -1.56216         1.64844
LJ         -0.757624        -1.96038        -1.67403
LJ           1.42533       -0.102053        -1.54889
LJ           0.90182         1.94698        0.552546
LJ          0.384895        -2.18911      -0.0404651
LJ         -0.976334        0.619517        -1.35831
LJ          -1.19491         2.26268        0.810567
LJ         -0.760611       -0.271793        -1.11397
LJ          -2.35861       -0.830656         2.23911
LJ           1.86522          1.2897         1.95325
LJ          -1.60845         1.44845         1.36088
LJ          -2.19071        0.725189         2.03174
LJ              -nan            -nan            -nan
LJ          -1.88654        0.831429         1.70677
LJ              -nan            -nan            -nan
LJ         -0.174912          1.5256        -1.84018
LJ          0.714501        -1.90331        0.525177
LJ          -2.56194        -1.73098        -1.45834
LJ           1.83828        -2.05997      -0.0924423
LJ           -1.5654          2.3074         2.15329
LJ          -2.10404         1.83791       -0.800412
LJ          -1.48195        -1.56568         1.23513
LJ          -2.03554         1.51421        -1.57599
LJ           2.26486        0.388161        0.476939
LJ         -0.819925        -1.65115        -2.37863
LJ           2.07098        -1.87324         1.65576
LJ         -0.120762        -1.99469         1.74181
LJ          -1.54985         1.16511        -2.08079
LJ          -0.94528       -0.462696        -2.20821
LJ           1.42979       0.0184562       -0.786619
LJ          -1.45509        -1.47257       -0.547331
LJ         -0.221319      -0.0510313       -0.139159
LJ              -nan            -nan            -nan
LJ           1.17002        -0.10822         1.56849
LJ         -0.750661       -0.230208        -2.19362
LJ          0.132307        -2.17964        -2.42569
LJ           1.45784        0.504841       -0.803439
LJ           2.33872         2.50715       -0.817638
LJ         -0.334748         2.49937        -1.11764
LJ         -0.948554        -1.10972        0.789877
LJ           1.36684         1.46922        0.948837
LJ          -2.54423         1.53664        0.700511
LJ         -0.193317       0.0923018        -1.92369
LJ           2.19457       0.0559729         1.14968
LJ          -2.30183         -2.2495         1.52045
LJ          -1.53137        -1.17636         1.25372
LJ          -1.25732       -0.199016        -1.84604
LJ              -nan            -nan            -nan
LJ          -1.75397        0.722488       -0.411355
LJ          -1.80947         1.96513        0.630063
LJ          -1.38268        0.147313        -1.35607
LJ          0.899951        -1.08586         2.35014
LJ          -1.69353         -1.3638        -1.85707
LJ          0.174978        0.619209        0.759943
LJ          -1.05401      -0.0440147        -1.63271
LJ           1.75808         1.94308        0.770612
LJ          -1.03993         2.49854       -0.294307
LJ           1.99327          -2.289         1.68008
LJ         -0.685358        -1.97992         1.19085
LJ          -1.81532        -1.44587        -1.60729
LJ          0.161782         2.51711        -1.18678
LJ          -1.00956       -0.153501        0.943191
LJ           1.64318        -1.90416         1.64891
LJ          0.341766        0.592347         1.55603
LJ          -1.23023        0.646226         1.39035
LJ          -1.61645         1.30719         2.04345
LJ           1.80426      -0.0990431        0.117047
LJ          0.360946         2.40035         2.09975
LJ          0.328865        -2.11468         1.26801
LJ           1.87128         2.55136        -1.59071
LJ              -nan            -nan            -nan
LJ          -1.65681         2.07001        0.983605
LJ          0.840897         -1.2081        -1.55057
LJ          -0.88601       -0.787989        0.783112
LJ           2.55114         2.44275        -2.03169
LJ          -1.77459       -0.512375        -1.14895
LJ         -0.702528         2.48129         0.44823
LJ           1.37541        -2.22236        0.401977
LJ         -0.342054         2.21093       -0.194464
LJ         -0.386736          1.1671        -2.47414
LJ           2.54404        0.363512        0.481259
LJ           1.08536       0.0519679       0.0740736
LJ           1.48053         2.44015        -2.40571
LJ          0.628963         1.00784        -1.07685
LJ          -1.78248        -1.24622        0.527224
LJ          0.421368      -0.0304844       -0.624936
LJ           -2.1018        -1.95291        -1.04294
LJ              -nan            -nan            -nan
