108
#Comment!
LJ          -1.01753        -1.62577        -2.48415
LJ         -0.559398       -0.344958       -0.800889
LJ          -2.01852         1.23888       -0.459646
LJ          0.794212        -1.18517        0.585571
LJ           1.98418         1.40921         -1.8734
LJ         -0.379374       -0.128118          2.2153
LJ          -2.02574        0.931348         1.00127
LJ         -0.703331        -1.65755       -0.732948
LJ          0.598411        0.655291         1.69145
LJ            1.2341        -1.79048         1.56747
LJ              -nan            -nan            -nan
LJ           2.43014         2.28897         -2.0218
LJ            1.5587       -0.520531       -0.909525
LJ              -nan            -nan            -nan
LJ           0.97609        -2.40244      -0.0941022
LJ              -nan            -nan            -nan
LJ              -nan            -nan            -nan
LJ              -nan            -nan            -nan
LJ          -2.20261        -1.90763        -1.46248
LJ              -nan            -nan            -nan
LJ           2.32683         0.85672         2.35204
LJ          -2.29943          2.5152        -1.90014
LJ          -1.42228         1.96221        0.187979
LJ              -nan            -nan            -nan
LJ           1.35116        -1.81596         1.77919
LJ         0.0982464       -0.121757       -0.322347
LJ          -1.24079        -2.24795         1.26593
LJ          0.329382         1.96019        -2.50564
LJ         -0.989828         1.31527        0.852214
LJ          -1.20153       0.0101611       -0.298777
LJ              -nan            -nan            -nan
LJ          -1.87961         2.52214        -1.40944
LJ              -nan            -nan            -nan
LJ          -2.47455         1.22652         2.51341
LJ              -nan            -nan            -nan
LJ          -2.25164         -1.9312        0.907804
LJ          -0.42943        -1.23425        -2.01028
LJ          -1.50319       -0.814369        -2.22909
LJ         -0.492976         1.49634         1.56277
LJ           2.19764       -0.958251         2.48536
LJ           2.25518         1.14625        0.584607
LJ           2.29921         2.32778         1.81327
LJ           2.04569       -0.707499          1.5605
LJ          -1.88748        -1.92894        -2.55493
LJ         -0.984099         2.04424        -2.31984
LJ           2.12292        -0.22076         2.28376
LJ          -1.34572         2.30723         1.05165
LJ           2.39516        0.404991        -1.88751
LJ          -0.35639         1.70696         1.10832
LJ          -1.19511         1.50076        0.962392
LJ           2.49303         1.17803       -0.891003
LJ        -0.0862929        -1.51094        -1.87206
LJ              -nan            -nan            -nan
LJ         -0.436375         -2.1937       0.0472989
LJ          0.984041         2.03858         1.47641
LJ          0.925811       -0.485703       -0.467705
LJ          -1.05051        -1.76714        0.432442
LJ          -1.14483        0.915168       -0.614556
LJ         -0.197999        -1.67066       -0.693694
LJ          -1.85137        0.604348         1.82505
LJ          0.172782        -1.55392       -0.665532
LJ          -1.29661       -0.329437        -2.02184
LJ         -0.748652          1.4161         2.05918
LJ              -nan            -nan            -nan
LJ              -nan            -nan            -nan
LJ          0.391413        0.281432       -0.303461
LJ          -2.03199        0.359442       -0.133543
LJ              -nan            -nan            -nan
LJ          -1.02549        0.174422         1.10323
LJ           2.26044        -0.63938        -1.71804
LJ         -0.887903        0.159328         -2.1978
LJ           -2.2025        -2.23725         2.47231
LJ         -0.639661        0.595162          2.4162
LJ          -1.18895         2.49377        -1.21667
LJ           1.18851         0.36993        -0.21841
LJ           2.53195        -1.89035        -2.32052
LJ          0.759764           1.181        -1.45226
LJ          -1.54027         2.19134        -1.23022
LJ         -0.543641         1.30097         2.26186
LJ          0.541586       -0.897982        0.051709
LJ           1.08396        -1.18932         1.94452
LJ         -0.168614         -2.4624        0.635561
LJ           -1.5474       -0.899782       -0.407755
LJ          0.277306         1.55304        -1.14923
LJ          0.171521        -1.64445        -2.08825
LJ        -0.0688708         -2.3945        0.915783
LJ          -2.48115        -2.54937       -0.598889
LJ           1.27484       -0.109198        -1.26621
LJ          -2.13571       -0.458674      -0.0247593
LJ          -1.00627         1.00308        0.740505
LJ              -nan            -nan            -nan
LJ         -0.522643        -1.28104        0.304901
LJ          -1.29125        -2.31695        0.249535
LJ          -1.12647        -2.30766        0.175429
LJ          0.901159        -1.32367       -0.790144
LJ           -2.4046        -1.73051          2.0646
LJ         -0.186164         2.51527         -1.1757
LJ          -1.79139          2.1263         1.50653
LJ              -nan            -nan            -nan
LJ          0.668653         1.09035       -0.195544
LJ         -0.821135         -1.3566        -1.43153
LJ          0.992105         2.23016         -2.1525
LJ          0.469916        0.853024        0.512403
LJ           1.23299        -0.23875        -1.65431
LJ              -nan            -nan            -nan
LJ           1.39109      -0.0507105        -1.30494
LJ         -0.754489        0.990918         1.22752
LJ              -nan            -nan            -nan
