108
#Comment!
LJ           0.63821        -2.38368        -1.16425
LJ           1.34436        -1.07031        -1.72345
LJ           1.76397        -1.95987         1.38608
LJ          0.473995       -0.364024         1.46022
LJ            1.2063          -1.077        -0.83482
LJ          -2.31184        -1.86823        0.751891
LJ          -1.15254         1.43517       -0.272723
LJ          -1.25896        -1.56836        -1.47555
LJ          0.999834        -1.37598        -1.21046
LJ         -0.323069        -0.20182         1.20491
LJ              -nan            -nan            -nan
LJ          -1.17404          0.9507       -0.500203
LJ           0.88052         1.55897         1.44806
LJ         -0.373995         2.27043      -0.0266813
LJ          -0.71482        0.735776        -2.53168
LJ          0.809002         2.42148        0.949323
LJ              -nan            -nan            -nan
LJ              -nan            -nan            -nan
LJ           1.66608        -1.84715         1.96987
LJ              -nan            -nan            -nan
LJ           1.67224         1.41567         1.87931
LJ          0.107694        -0.95178         2.25392
LJ          0.647127         1.62663        -2.22704
LJ          -1.10378         2.08603         2.35981
LJ          0.820099        -1.69111         2.34552
LJ           2.27594         2.03217        0.549442
LJ           1.35488        -1.36927        -2.31405
LJ           0.58116         -2.5036        0.155244
LJ          -1.14363       -0.470527        0.833013
LJ        -0.0101016        -2.41895       -0.161133
LJ            0.5109        -1.53103       -0.065305
LJ            1.0293        -2.51313        0.378533
LJ              -nan            -nan            -nan
LJ         -0.686334         1.80945        -0.43615
LJ              -nan            -nan            -nan
LJ           1.55791       -0.614376        0.402165
LJ          0.454603     -0.00488778        -0.51567
LJ           1.57026        0.263054         -1.6444
LJ          -1.16278         1.82495         2.17554
LJ           1.99212        -1.25496         2.15187
LJ          0.883362         1.87205        -1.24065
LJ           1.89264         1.73494        0.917101
LJ          0.436075         1.90344        0.738846
LJ           1.85651          1.6085        0.288347
LJ           2.24026        0.121588        0.748434
LJ          -0.10854          1.8407         2.42809
LJ           1.43712        -2.24733         1.11125
LJ          0.359035        0.643617        -1.57078
LJ         -0.262767         1.93893       -0.388901
LJ          0.498369        0.237605         2.05017
LJ           -1.8058        0.468684        -2.46651
LJ           2.27952       -0.969862          2.5122
LJ              -nan            -nan            -nan
LJ           -2.0585        -1.07141        -2.00219
LJ         -0.375743         2.41553        0.145474
LJ          -2.54528         2.32182         2.03356
LJ           2.36957        -1.91858         1.61023
LJ          -1.04398          1.5477        0.993845
LJ          -1.00899       -0.525387        -1.45496
LJ            0.1361       -0.429948        -1.44328
LJ          -2.30504         1.36331        -1.81687
LJ         -0.276355        -2.49174       -0.503799
LJ          -1.14411        0.192425         -1.2312
LJ          0.200262       -0.358824        -1.41088
LJ          -1.45779         2.06774         0.50921
LJ          -2.09478        -1.17485         1.33692
LJ          -1.38362      -0.0556322       -0.144926
LJ              -nan            -nan            -nan
LJ           1.39016         1.64068         1.93551
LJ          -0.61396        -2.19117        -1.62568
LJ           1.15774        -1.64904       -0.926364
LJ           1.52243       -0.684839       -0.744807
LJ           2.29586        -1.39723         2.27347
LJ           1.11093        -2.09397       -0.306082
LJ           1.28267        -1.71458         1.29716
LJ           2.49134        -2.52445        0.148092
LJ          -1.96864         2.52653       -0.745207
LJ           1.94506        -2.41717          0.8478
LJ         -0.249624       -0.627584         1.45451
LJ           2.15424       -0.666077         1.08235
LJ          -2.46442         1.01384       -0.931669
LJ         -0.442119        -2.28886        0.838244
LJ           1.83233          1.9011       -0.334627
LJ           1.83175         1.58032        -1.27078
LJ           1.48569        -1.97921        -1.75974
LJ         -0.930082        0.312447         1.11303
LJ         0.0598061       -0.461115       -0.229784
LJ          -2.49542       -0.834689        -2.38665
LJ          0.253961         -1.1248        -1.23479
LJ          -1.87327         2.15986         2.32759
LJ              -nan            -nan            -nan
LJ          -1.19174        0.146858        0.606546
LJ        -0.0537234         1.85236         0.35826
LJ          0.441422        -2.01198         2.34955
LJ          -1.73111        -2.33812       -0.678135
LJ          -2.40926        0.983726         -1.6936
LJ           1.66067          2.0952        0.744711
LJ           2.08032        0.580346         1.82097
LJ          -1.02014        -0.24554         2.34651
LJ          -2.45331        -0.66275       -0.513721
LJ          0.498914       -0.632562         1.44269
LJ          -0.37852        0.109478        0.334226
LJ           2.21337         2.30288       -0.710641
LJ           1.31712       -0.343425        0.450716
LJ             1.192         1.95337       -0.324817
LJ          -1.41018        0.884742       -0.692104
LJ          0.538126           1.103        -1.12272
LJ              -nan            -nan            -nan
