108
#Comment!
LJ          -1.61038       -0.685787        0.494985
LJ         -0.902452         0.44965        0.770896
LJ         -0.859368        -1.75977          2.0213
LJ          -0.56084        -1.39639        0.886958
LJ         -0.514296       -0.317258        -1.55853
LJ          -1.36763        -1.88721         2.11019
LJ        -0.0962825        -2.23302        -1.33297
LJ          -1.41205        -1.31292        -2.31038
LJ         -0.644702        0.754276        -1.24216
LJ           1.81085         2.55852         1.12826
LJ              -nan            -nan            -nan
LJ           1.06717        -1.81644       -0.514575
LJ          -2.00387       0.0627634        0.637785
LJ           1.70528        -1.98299        -2.51724
LJ          -2.28233        0.265516         1.84895
LJ           1.84784        -2.12307        0.287563
LJ           1.98378          1.0596       -0.480863
LJ           2.38793        -2.06115        -1.40504
LJ           0.55168          1.3662        -2.25148
LJ          -1.62992        -2.06187        -1.94623
LJ         -0.487246        0.484691         2.50533
LJ          0.394586       -0.432372        0.131685
LJ         -0.158248        0.555343        0.664377
LJ            1.6935         1.85712        0.241905
LJ         -0.736148         1.38714        -2.54522
LJ          -2.38788      -0.0951046        -1.15834
LJ        -0.0230103       -0.498384       -0.223624
LJ          -2.50725       -0.121876         1.36354
LJ           0.32247         1.72722        0.258956
LJ          0.394556       -0.689541         2.28434
LJ          -1.24621         0.12915         2.01671
LJ            2.1368        -2.53069        -2.17428
LJ              -nan            -nan            -nan
LJ          -1.78451        -1.66658        -2.12834
LJ         -0.445706         2.15622       -0.575268
LJ          0.509309      -0.0527911        -1.86008
LJ         -0.634567          1.4433       -0.990058
LJ         -0.249732        -1.87063        -1.78055
LJ           1.46462         1.44576         2.26682
LJ         -0.581787         1.05359        -1.33149
LJ         -0.348946         2.50861       -0.908836
LJ          0.389382       -0.267837         -1.7588
LJ           1.49601         -1.3353         2.20021
LJ           1.20404         1.49784        -1.85429
LJ          -2.02801        -2.21486         1.55513
LJ           2.46595       -0.729869         2.00301
LJ         -0.143104       -0.965634         1.22662
LJ           1.42594        -2.38326        -2.20475
LJ         -0.572149       -0.896909         1.71444
LJ          0.689136        0.369481        -1.75574
LJ         -0.480308        -1.83774       -0.402752
LJ           2.01755         1.92129         2.22977
LJ           1.08262         1.71524         -1.6905
LJ           1.46433       -0.997039        0.607238
LJ          -1.91191        0.551134        0.620021
LJ           2.53501        0.723369        -1.13564
LJ         0.0278932       -0.645612        0.598082
LJ         -0.537563        -1.81386          1.7564
LJ           1.22168         1.38181        0.509559
LJ            1.1054        0.379223         2.15026
LJ           1.61712        -2.43201        -1.38068
LJ          -1.13178        -1.30207       -0.708451
LJ          0.970244         1.39867          1.4998
LJ        -0.0679033         1.71381        0.141608
LJ         -0.821737       -0.870907        -1.85696
LJ           2.37615         1.93469          1.0492
LJ          0.845172        -1.64668         1.26646
LJ           -2.4503        -2.27839       -0.454021
LJ           1.87417        0.113477        -2.03311
LJ           1.19507      -0.0284712        0.287189
LJ           2.35934       -0.189193         2.42358
LJ            1.7117          1.7407        0.879995
LJ           2.03262        0.893839         1.30518
LJ         -0.519314          1.3112        0.244559
LJ          0.884187         2.00543        0.995749
LJ           2.06491         2.22289       -0.759082
LJ          -2.07226       -0.726928       -0.268084
LJ          0.742958       -0.619277         2.51406
LJ           1.12187        -1.02539        -1.25401
LJ         0.0452549        0.407754        -2.52314
LJ          -1.68314       -0.263191         2.21075
LJ          -1.84195       -0.953644        0.581422
LJ          -1.90899        -0.30148         1.64685
LJ          -2.01202        -1.94192        0.699995
LJ         -0.260472         2.40181         1.29042
LJ           2.07761        -2.05246        -2.51278
LJ            1.2684       -0.441434        -1.83973
LJ          -2.26586        -2.46764       -0.672704
LJ           2.01631         1.93327         1.68579
LJ          0.996786        -0.83592        0.769968
LJ          0.356402         1.55437       -0.733677
LJ           1.28573       -0.584997        0.776642
LJ          -1.04971       0.0449497       -0.480405
LJ           1.90561        -1.09362       -0.414697
LJ         -0.504733        -2.49116         1.16973
LJ           1.04272       -0.142596       -0.392293
LJ         -0.421629        -2.53552       0.0448051
LJ           2.41785        -1.01817       -0.388853
LJ          0.281181       -0.391134         2.27124
LJ         -0.998977        0.285194        -2.12002
LJ           2.43614        -1.72389        0.442994
LJ           2.30939        -1.49118       -0.655025
LJ          0.761718        -1.16625       -0.970031
LJ         -0.018062        0.337199         1.36224
LJ           1.21953         1.35419        0.685102
LJ            2.5046        -1.55165       -0.429427
LJ          -1.40302       -0.941981         -1.2626
LJ         -0.986341        -1.53804         1.76099
