108
#Comment!
LJ           2.11296        0.157473      -0.0511506
LJ         -0.619115        -2.29642        -2.16587
LJ           -1.8645        -2.36905        -1.00073
LJ         -0.649451        -1.58524       -0.620904
LJ         -0.182126        0.303104        0.917128
LJ          0.402218        -1.68193       -0.566597
LJ          -1.01525       -0.892421         2.37094
LJ           1.28084       -0.358978        -1.38962
LJ          -1.37569        0.528587        -1.47085
LJ           1.33251         1.19146         1.09214
LJ              -nan            -nan            -nan
LJ          0.629435        -1.75299        -1.82168
LJ          0.722916         2.07381         2.38972
LJ           1.58353         1.58386        -2.54351
LJ           2.54293        0.696355        0.996224
LJ          -1.52995       -0.936677        0.149964
LJ          0.622527        -2.11423        0.950722
LJ          -1.94005         1.00448        -1.75865
LJ           2.18166        0.376802        -1.40672
LJ          -2.11022        -1.95395          1.5119
LJ          -1.06673         2.07973          1.8618
LJ          -1.48897         2.15325        -1.01632
LJ            1.1746       -0.246137        -1.24278
LJ          0.607787         1.40637       -0.790002
LJ            1.1577         -1.7679         0.11263
LJ         -0.320014       -0.147817        -1.95291
LJ           1.27239        0.402594         2.47963
LJ          -1.12013          1.7688         1.87328
LJ          0.681703         2.11101        -1.70582
LJ        -0.0580792        0.348596        0.633625
LJ           1.10733        -1.93055         2.18305
LJ         -0.906645        0.686844        -1.79379
LJ              -nan            -nan            -nan
LJ          -2.41623        -2.47058        -1.06922
LJ           1.49021         1.38148        0.171014
LJ           2.50004      -0.0147566         1.54851
LJ           -2.1752       -0.319098        -1.41184
LJ           1.38906         2.14601        -1.76659
LJ          -2.14745        -1.77486       -0.922087
LJ          0.699069         1.99401         1.51328
LJ           1.05193        -2.16947          1.2934
LJ          -1.20592        0.580112        -1.23479
LJ          -2.15629        0.498024         2.27653
LJ           1.55161        -1.42703        0.389281
LJ           2.15648        -2.50289        0.172927
LJ             2.104         1.12509         0.72259
LJ          0.176775        0.341479         2.19623
LJ           2.18386         2.13937       -0.156988
LJ          0.983626      -0.0279901      -0.0277327
LJ           1.96633         1.96045          1.8446
LJ         -0.519563       -0.947255         1.51712
LJ          -1.65128        -2.27809        0.580115
LJ          -1.02801        -1.62565       0.0504562
LJ           1.10344         1.12612         1.77662
LJ          -2.28292       -0.706393       -0.366347
LJ          -1.79142        -1.17942        -1.06754
LJ          -2.50296        0.529266        0.098178
LJ         -0.629102         2.30566         0.30794
LJ         -0.494603        0.346249          1.4276
LJ          -0.99449         1.52207         2.26531
LJ         -0.321759         1.11383        -2.30282
LJ            1.3376      -0.0557648       -0.954083
LJ         -0.575122        -2.20261         1.57591
LJ          0.244543        -1.58488         1.66103
LJ          -1.82319         1.53158       -0.312645
LJ        -0.0670473         1.73598         1.70924
LJ           2.49435          2.2804       -0.987928
LJ          0.399722        -0.46172        0.836009
LJ         0.0632256        0.998918         2.27038
LJ           2.43885         1.66019         1.90948
LJ            2.0567        -1.72569        0.498717
LJ           2.03313         2.52618         2.34648
LJ         -0.512143        -1.29147         1.55889
LJ          0.692657         1.17622       -0.708242
LJ         -0.103809       0.0550528        0.196935
LJ          -1.52251       -0.558351        -1.66491
LJ           1.49145         -1.0054        -1.14876
LJ           -1.6246         1.98497         0.61252
LJ           2.43223        0.670286        -1.56341
LJ            1.3776        -1.66465        0.378007
LJ          -1.73205       -0.737222        -2.34972
LJ         -0.471972        -2.18584       -0.551878
LJ          0.475392         2.07874        -2.51968
LJ         -0.212582         2.36264       -0.933744
LJ         -0.175053       -0.547568         1.01406
LJ           1.51744        -1.49074       -0.681714
LJ           1.86567        0.958013       0.0201826
LJ         -0.234644         -2.0958         -1.3045
LJ          0.761353        0.326355         1.45898
LJ          0.863654         2.54814        0.850314
LJ          -2.28203         1.94252         1.65287
LJ          -1.27084         2.27328        -2.15528
LJ           1.28533         1.39927        -2.25373
LJ           1.71589       -0.203503        -1.58818
LJ          0.825765        -1.37482         2.10768
LJ           1.89237       -0.749083        -2.48929
LJ            2.0359          2.0478          1.2047
LJ          -2.03454       -0.541118       -0.177777
LJ             2.287         -1.2224        -1.00039
LJ          -1.38158         0.78287         2.53371
LJ           1.72717       0.0677335        0.332251
LJ          -2.54243        -2.19426         2.55582
LJ          -2.25981       -0.905751        -2.22621
LJ         -0.745803        -1.43678        0.276077
LJ         -0.192621        -1.41831       -0.138579
LJ          -2.48583        -1.07125        -1.74145
LJ           1.72909       -0.990825        -1.39877
LJ          0.142831        0.610747         -1.0807
