108
#Comment!
LJ          -1.43524       -0.368307       0.0616884
LJ          -2.49469        0.612567         1.06457
LJ         -0.814447          1.1368        -1.98266
LJ            2.5009          2.2508         1.08947
LJ          -1.37974        -2.34499        -1.05887
LJ        -0.0117956        -1.44477        -1.25138
LJ          0.117643         1.57137        -1.66659
LJ          -2.18843       0.0268324       -0.744796
LJ          -2.23011         1.87209       -0.813039
LJ           2.38848        -1.29408        0.482057
LJ              -nan            -nan            -nan
LJ          -1.65994         2.24273         1.99628
LJ          0.101089         -1.8295        0.155274
LJ          -2.16333         2.18632         2.04732
LJ          0.271193         2.23419        0.323988
LJ           1.77009        0.555302         1.43386
LJ          -1.40593       -0.271179         1.09419
LJ         -0.360178       -0.120426        0.887349
LJ           1.04304        -2.53485        0.353917
LJ           1.90568         -1.2506        -1.21738
LJ            0.4987        0.756868        -1.77698
LJ         -0.834641         1.22828         1.26858
LJ           2.43204        0.537425       -0.607249
LJ          -1.25172        -1.23048        0.189544
LJ          -2.18602         -1.7578        -2.30839
LJ          -1.94759        -1.02899         1.62801
LJ           1.20104        -2.36048       -0.746774
LJ          0.706835        -2.30612       0.0128898
LJ          -2.37881          -2.098        -1.04898
LJ         -0.741877        -1.59013         1.23088
LJ        -0.0548803        -1.27183        0.239587
LJ          -1.97778        -1.90819       -0.184194
LJ              -nan            -nan            -nan
LJ           2.51798        -2.18519        0.155134
LJ          0.168775         1.77141          1.4298
LJ         -0.462913       -0.371099       -0.233596
LJ         -0.795607       -0.734813         1.95285
LJ           2.24252        0.702504         1.42231
LJ          -2.28604         1.79056        0.879396
LJ         -0.915356        -1.95556       0.0976095
LJ          -2.21048          1.5635        -1.99767
LJ            2.3165       0.0609312       -0.485668
LJ         -0.478554         2.31943        -2.35758
LJ         -0.276814       -0.204856       0.0482346
LJ          0.713974       -0.621842        -2.22618
LJ           1.85067        -2.10314         1.99034
LJ           1.94222        0.882181        -1.46823
LJ          -1.69838       -0.851164        -2.43375
LJ           -1.7908         1.99618        0.224471
LJ         -0.821587         0.32915       -0.800575
LJ          -2.29373       -0.414287         1.90749
LJ           1.19527        -1.51646        0.989976
LJ          0.391976         2.31259         1.73669
LJ         -0.340247        0.895763         1.63226
LJ           2.16016       -0.178469        0.368823
LJ          -1.32315       -0.259226        -1.53421
LJ          -1.25866        -2.49199         2.27373
LJ           1.80226         2.42645        -2.50975
LJ          0.172273        -2.41705       -0.221696
LJ          -1.49621        -1.87048       0.0354109
LJ           1.97617        0.833026        -1.42173
LJ           2.24674        -1.84413        0.274028
LJ           2.50709        0.534496        0.571457
LJ          -0.91254        -0.40474        -1.50978
LJ          -2.38736        0.293608      -0.0724255
LJ             -1.34       -0.891474        -1.34723
LJ          0.120513       0.0520581        -1.16917
LJ         0.0846655        -1.71809       -0.844452
LJ         -0.462572       -0.716187         1.39035
LJ          -0.49905        -1.98178         0.57641
LJ          -1.48063         1.88761        -2.42274
LJ          -1.71363         1.27866        -2.09047
LJ          -1.74625       -0.174207        -1.95196
LJ            2.1842        0.903141        -1.50213
LJ           2.41314        -1.20876        -2.42964
LJ          -2.47543         2.41416        -2.16764
LJ         -0.525416         1.59353         1.99927
LJ          0.825745        -1.60716        -1.85041
LJ         -0.530309        -1.39971         1.64585
LJ            1.9601        -1.92807        -2.53911
LJ           1.42649        -2.40324        0.458676
LJ          0.309361        -2.42936        -1.45738
LJ           2.24627         1.97191        -1.86734
LJ          0.870878        0.909275       -0.379348
LJ          0.547015        0.292133        -1.68857
LJ           -0.1684       -0.759412         1.13405
LJ          -1.45764         -2.1105       -0.242134
LJ           1.02457        -2.51993        0.312751
LJ        -0.0484736         1.57986        0.710964
LJ          0.521527        0.940028        -2.41778
LJ           -2.5486        -1.92302       -0.129263
LJ           0.27249          2.0515         1.13526
LJ           2.35112         1.24023         1.21365
LJ          0.166494          2.2045       0.0755659
LJ         -0.162531         0.72559          2.4139
LJ          -2.01068         1.22783        -1.42676
LJ         -0.297241        0.732981      -0.0222472
LJ           1.09069         2.21354         1.23653
LJ          -1.16373         2.17176         1.89884
LJ          0.846391       -0.701979         1.66116
LJ          0.819577         1.91686        -2.13798
LJ           1.97984      -0.0664324       -0.824949
LJ           0.58415         2.00749         2.02761
LJ          0.800464        0.638083        0.452063
LJ          -1.43831        0.283769       -0.764785
LJ            0.4975         1.54068        0.449476
LJ         0.0544765         2.12886        -2.52664
LJ           2.33572        0.617628        -2.07237
