108
#Comment!
LJ          -2.29703       -0.910144       -0.939275
LJ         -0.175636        0.323645       0.0141571
LJ          0.187515        0.103061        -1.38544
LJ          0.739459       -0.697309       -0.517603
LJ          -1.77255        0.102132        -2.33727
LJ          0.947082        0.453776        -1.73231
LJ        -0.0714563        -0.70658       -0.729957
LJ           1.92961        -2.43676         1.37763
LJ           2.52249         2.40171        -1.42554
LJ           1.30682        0.499128        0.677707
LJ              -nan            -nan            -nan
LJ         0.0313906        -1.20428        -1.37948
LJ          -2.47557        -2.42587         1.74173
LJ              -nan            -nan            -nan
LJ           1.49718         1.76955         -1.2476
LJ              -nan            -nan            -nan
LJ              -nan            -nan            -nan
LJ              -nan            -nan            -nan
LJ          -2.20648        0.581618        0.944816
LJ              -nan            -nan            -nan
LJ         -0.699026        -2.37793       -0.521764
LJ         -0.931302        0.923548        -2.14398
LJ          -2.06266         2.46577        -1.12232
LJ           1.81427        -1.87758          1.6304
LJ           -2.5072         1.51531        -1.67917
LJ          0.682124         2.00843         2.09582
LJ         -0.776508          1.5234        -1.21994
LJ         0.0821041       -0.513513        0.145493
LJ         -0.803405        0.197815         2.09535
LJ          -0.95367        -2.42282       -0.188286
LJ              -nan            -nan            -nan
LJ         0.0340841        -1.04454         1.00087
LJ              -nan            -nan            -nan
LJ         0.0728623         1.10792        -2.54246
LJ              -nan            -nan            -nan
LJ           -1.4515        -2.07334       -0.627033
LJ          0.241284      -0.0878444         1.06703
LJ           1.05416        -2.12897         1.79271
LJ           2.25546        -2.50424        -1.34865
LJ         -0.569614      -0.0845289        0.190083
LJ         -0.969757        -2.38405         1.61381
LJ           1.44981        -1.70269        -1.05208
LJ          -2.47979        0.441767          0.3215
LJ          -2.11042        -1.72482        0.969254
LJ          -1.56195         1.90495        0.739966
LJ          -1.74169         -2.0148     -0.00226733
LJ          0.739678        -1.44042        -1.27027
LJ         -0.493898         1.91792       -0.206575
LJ           2.25423       0.0688004       -0.720518
LJ         -0.470154        0.076426         -1.7588
LJ          -1.98393         1.90189        0.857835
LJ         -0.971839        0.626771        0.771061
LJ              -nan            -nan            -nan
LJ           1.97224        0.729549         1.93176
LJ          0.974276        -1.01817         2.05075
LJ         -0.667805       -0.630456        0.541163
LJ          -1.64766         1.27479         2.54674
LJ        -0.0484752      -0.0134535        0.399455
LJ          -2.12078        0.204962         1.87782
LJ          -2.49834        -1.46387         1.73967
LJ         -0.221512        -2.23907        0.560411
LJ          0.977954        -1.18758         1.08666
LJ          -2.13894        -2.15329        -1.03616
LJ           1.87295        -1.17255         1.29429
LJ              -nan            -nan            -nan
LJ           2.45409        -1.75834         1.77173
LJ           1.38618       0.0298064         0.53584
LJ              -nan            -nan            -nan
LJ          -0.32755         2.27952         1.43336
LJ        -0.0932924        0.915809        -2.08945
LJ          -1.44379          1.8932        -1.81682
LJ          0.295156         1.46881        -1.78641
LJ          -2.44525          1.1712        -1.86849
LJ          -2.27139        0.952595       -0.297488
LJ           1.42535         1.73174        -1.63671
LJ         -0.860615        -1.46168        -2.47786
LJ          -1.53031         2.02386        0.124363
LJ          -1.21845         -1.3254        -2.37046
LJ        0.00336744        -2.21177        0.407574
LJ          -1.48353        -2.01434        -2.01835
LJ          -1.13828      -0.0729256        -1.38806
LJ           1.33779        -2.24453       -0.997567
LJ           1.39606         0.17249         1.65516
LJ          0.109123       -0.800304         0.68691
LJ         -0.610041        0.368425         0.77276
LJ          -1.57204        -1.21258         1.77966
LJ          -1.05865        -1.16187         1.05942
LJ          0.866875         1.06907         2.22353
LJ          -1.59901         1.65995         1.12073
LJ           1.45115         1.73055         1.73983
LJ              -nan            -nan            -nan
LJ          -2.53597        -1.41312        -2.38619
LJ          -1.13092         2.38259        -2.39809
LJ         -0.547479         1.29546          2.4908
LJ         -0.170927         -2.4948       -0.470348
LJ           1.27891        0.119451        -1.02043
LJ          -2.17452         1.88044      -0.0581203
LJ          -1.07418       -0.544049        -1.08513
LJ              -nan            -nan            -nan
LJ           1.73388       -0.592732         2.53445
LJ           -1.7434         1.19596        -2.44274
LJ          -2.13063        -1.39672        -1.68075
LJ          -1.90897        -2.30576        0.500024
LJ           2.12571       0.0607171        0.404649
LJ              -nan            -nan            -nan
LJ           1.18205        -1.03603       -0.643396
LJ         0.0579262          2.2788         2.07962
LJ              -nan            -nan            -nan
