108
#Comment!
LJ         0.0765287        0.713707         2.28637
LJ         -0.349561        -2.06062       0.0761555
LJ           2.43337        -1.42511       -0.584153
LJ           1.18705        -0.91122         1.55886
LJ          -1.86922        -1.81808     -0.00491144
LJ          -2.15662        0.309526         1.00428
LJ          0.190906       0.0886204        -1.62946
LJ          -1.87139       -0.391389         1.55734
LJ          -1.25424         1.39669       -0.214929
LJ           1.99556         1.93879        -1.32033
LJ              -nan            -nan            -nan
LJ        -0.0935932         2.26746        -1.90633
LJ          -1.95704         1.26348        -2.21259
LJ           2.43513         2.40801       -0.916942
LJ         -0.241557         2.25582         1.63683
LJ           1.82797       -0.322557        -2.06627
LJ            1.3931         2.54254        -2.23826
LJ         0.0362603         1.71441       -0.605275
LJ          -1.70534       -0.992784         1.47438
LJ          0.215357         1.33697        -2.55022
LJ          -1.31115       -0.514253        0.957774
LJ          -2.28028       -0.398324       -0.605178
LJ           -1.7861        -1.68897         1.63707
LJ          -2.35657     0.000589295         2.54335
LJ            2.2152         2.49107        -1.96518
LJ           2.32982         2.38412         2.07512
LJ          -1.20765       -0.204455        -1.13329
LJ           1.81999        0.568885       -0.251557
LJ          0.878554         1.96498         1.20579
LJ          -1.99042        0.369076         1.77834
LJ           1.50462         2.10029        -1.51601
LJ           1.14389       -0.330482      -0.0849423
LJ              -nan            -nan            -nan
LJ           1.50169         1.64353       -0.220901
LJ          0.723611        -1.72172         2.08269
LJ         -0.235207        0.792729         2.15138
LJ         -0.608711         2.21977         1.11385
LJ           1.91039         1.55391        -2.53288
LJ           1.20556        -1.04812        -2.24105
LJ         -0.555299        0.697917         1.98261
LJ           1.44414         1.98117         1.29281
LJ          -1.11098         1.55534         2.14608
LJ           1.13575         1.78667         1.22344
LJ          0.189939         1.93303        -1.82191
LJ         -0.319358       -0.210714         1.06979
LJ          0.768556         1.08127        -2.18153
LJ          -2.20027         1.42077         1.73315
LJ           2.33248         0.73445         2.47578
LJ          -1.09182         1.32398        -2.21881
LJ          -1.07451       0.0595349     -0.00963358
LJ          -1.23166        -1.49641         1.07412
LJ          -2.45317        -2.56461        -1.98004
LJ          0.176902        -0.36131       -0.626418
LJ           1.61807          1.2258        0.162049
LJ          -1.67061        0.994456         2.17756
LJ          -1.05407        0.519156        -1.79937
LJ           2.15172         1.13467         1.50827
LJ          0.319294         1.20589       -0.197752
LJ          -1.36021        -2.39383        -2.43337
LJ          -1.08492       -0.764587         1.13429
LJ           0.36464         -1.6221         0.49535
LJ          -1.37211        0.673903         1.88064
LJ          -2.50008        0.538308        -1.48198
LJ          -1.70661        -1.64563       -0.232095
LJ          -2.05954        -1.21223        0.298978
LJ          -1.03399         1.52123        0.197241
LJ           0.98273         1.17916         1.60235
LJ          0.819691         1.87181       -0.432184
LJ         -0.311606        -1.32961       -0.460404
LJ          -2.34957        0.891179        -2.45723
LJ           1.41491        -1.79718       -0.762634
LJ          0.258589         1.76687         1.87656
LJ         -0.920341        -2.05429        -1.39389
LJ           1.05994         1.10631       -0.547349
LJ            1.5437        -2.41387         1.15448
LJ         -0.467312       -0.881195        -2.02058
LJ           -1.1904         -1.8824        -2.27656
LJ         -0.330337        0.584275        -1.16276
LJ          -1.47672         -2.0216       -0.532987
LJ          -2.51518       -0.647677       -0.626017
LJ          -1.01473        0.903858        0.108453
LJ          -1.64547       -0.449895        0.689259
LJ          -1.56241        -2.45325        0.186178
LJ           1.96013         2.07192        -1.39984
LJ           2.45752         0.50362       -0.941092
LJ          -1.34088       -0.610352         2.23489
LJ          -1.67076       -0.623036        -2.47146
LJ          -2.35349         2.16848        -1.92503
LJ          -1.41769        -1.94918         1.68505
LJ          -2.47972        -1.36104        0.814088
LJ          -1.30624         2.34255         1.42938
LJ         -0.295474       0.0660493         2.34511
LJ          -1.37723       -0.273387        0.353773
LJ          0.283348       -0.229614       -0.152908
LJ          0.861359         1.27482       -0.618937
LJ         -0.586129        -1.55386       -0.457088
LJ          -2.20832         2.19359        -0.36688
LJ          -1.96085         2.35156           1.101
LJ          -1.33465       -0.481661         0.20668
LJ           -1.3934         1.58041        0.888109
LJ           1.94033      -0.0653891       -0.540855
LJ          0.667637        -2.19016      -0.0223636
LJ          -2.15637        0.810054         2.29564
LJ          -0.97645        0.917081        0.466082
LJ          0.450478        0.415342        0.116987
LJ          -1.69164        -1.66489       -0.204656
LJ         0.0224189       -0.316988        -1.28072
LJ          -2.32505       0.0752843       -0.994275
