108
#Comment!
LJ          -1.76237        0.586684        0.962893
LJ          0.207212       -0.680642        -2.53696
LJ          -1.33649       -0.172666         1.59013
LJ          -2.50115       -0.726704        0.424058
LJ          0.567122        -0.97014          1.4915
LJ          0.532651         1.53785       -0.962988
LJ            -1.841        -1.30418         1.47098
LJ          0.855488         1.59031        0.019681
LJ          -1.28805        -1.44296         1.07982
LJ        -0.0281527        -1.34937        -1.91025
LJ              -nan            -nan            -nan
LJ         -0.113727       0.0376007         1.74246
LJ           1.16137        -1.64592       -0.536326
LJ          0.173485        0.540793        -0.76237
LJ          -1.13147         1.13266       -0.821601
LJ         -0.218031        -1.98136         1.50189
LJ         -0.102014       -0.685804        0.614604
LJ      -0.000786169         2.22939        -1.07208
LJ           1.84263        0.316714         1.64166
LJ          0.358091       -0.699391        -2.23562
LJ          0.352373         2.49343         2.26159
LJ        -0.0568491       -0.604108         1.65628
LJ           2.51783         2.06236        -0.54522
LJ          -1.47675         1.87725       -0.180058
LJ           0.32963        -1.74042         1.02769
LJ           1.98337        -1.36093         1.64778
LJ          -1.28261        0.338601        -2.02552
LJ         -0.176347        -2.55176         1.59294
LJ            1.0306         2.31229       0.0446328
LJ           1.31935       -0.722849        0.490508
LJ            2.1365        -1.89008         2.41377
LJ          -1.82221      -0.0808726        0.532708
LJ              -nan            -nan            -nan
LJ          -1.29198         1.48109        -2.09105
LJ              -nan            -nan            -nan
LJ             1.075         2.24783        -2.27285
LJ           1.10611        -2.41635       -0.920102
LJ          0.912806        -2.35445        -2.31321
LJ           0.69051        -2.44695         2.22883
LJ            2.0464         2.14257         1.23017
LJ          0.118769       -0.417075        -1.76504
LJ          -1.92658         2.22648        -2.08637
LJ           2.27288         1.52583        -2.08257
LJ           1.71548        -2.16762        -2.39063
LJ           2.07163       0.0627125       -0.263045
LJ            1.3562       -0.479965        0.788405
LJ         -0.740913       -0.316113          2.5535
LJ          -1.56489        -1.07118        -1.75477
LJ           -2.3666        0.318673         2.34472
LJ          0.291514         2.49821         1.32763
LJ          -1.62521        -1.88907        -2.16299
LJ           2.16651         1.03848         2.40655
LJ          -1.56762        0.520201        -2.18756
LJ         -0.518229        -1.80366         2.17385
LJ          0.321245         1.82553        0.609233
LJ         -0.412179        0.223917        -0.90424
LJ          0.305804        -1.98737        -2.31761
LJ         -0.417548       -0.519935          2.5286
LJ           1.59822        -2.37366         1.50943
LJ           -1.0003         1.84487        -1.72881
LJ          0.239352       -0.908313         2.45245
LJ          -1.55513        -1.10166       -0.436946
LJ          -1.29109        -2.15941        0.119858
LJ          -1.29424        -1.53066        0.895471
LJ          -1.37957         1.63961       0.0251995
LJ           1.88557      -0.0106076         1.16956
LJ          -2.41304        0.808114        -2.09274
LJ              -nan            -nan            -nan
LJ           1.78152       -0.559723        -2.19657
LJ         -0.220394        -1.28854         1.23959
LJ           2.46758        -1.81645         1.27799
LJ         -0.195838        0.455986        -1.06867
LJ          -2.13815         1.76861        -1.15333
LJ          -2.06141       0.0665834         2.26737
LJ           0.97834         1.21184       0.0421236
LJ         -0.749056         1.95976        -2.02183
LJ          -1.47445       0.0837529        -2.49078
LJ          -1.12069        -1.42507         1.50792
LJ          -1.72097         2.24951        -1.89286
LJ           1.80925        0.871143        0.655421
LJ         -0.481517        0.982832          0.3914
LJ          -2.31975         1.67385        -1.52314
LJ           1.85029       0.0979331       -0.350153
LJ           1.77529        -0.90683        -1.23861
LJ          0.847619        -1.50886        -1.82716
LJ          0.103977        -1.59249        0.161102
LJ          -1.04246       -0.360801        -1.44886
LJ         -0.502866       -0.273051        -2.23448
LJ         -0.729887          1.5334       -0.483135
LJ           1.25681         1.00738         1.44433
LJ           -2.3501        0.472894        -1.33666
LJ         -0.501025         -1.4409       0.0581087
LJ          -2.29378         1.08861        0.565222
LJ          -1.08162        0.376977          1.0358
LJ         -0.866821         1.97644       -0.382599
LJ           2.42963        -2.45519        -2.06083
LJ           -1.1797       -0.855409        -1.49547
LJ          -0.77999       -0.322271         1.25786
LJ           2.36044        -2.50014         -1.5113
LJ         -0.937216       -0.691722        -2.07845
LJ          -2.41064         1.45136         1.08487
LJ          -1.65174        0.225582        0.936097
LJ         -0.835158        -1.08308         2.47022
LJ          -1.25889        -2.45781         1.12825
LJ         -0.776246         1.69537         1.80537
LJ          -2.37376         2.17336        0.961887
LJ         -0.762815        -1.80064        -1.32829
LJ           2.40644         1.52392       -0.413354
