108
#Comment!
LJ          -1.44822        0.931975        0.662445
LJ          0.176633        -1.39847         1.14011
LJ          -1.62281         1.86873         2.35023
LJ        -0.0993179        -1.68798        0.691168
LJ         -0.844583          1.7775        -1.95712
LJ          0.321442        -1.40096        0.790814
LJ          0.497782        0.960182          2.4772
LJ             2.242         1.96595        -1.14028
LJ           -1.0502        -2.15593       -0.576476
LJ         -0.288564       -0.318453        -2.47544
LJ              -nan            -nan            -nan
LJ          -1.17524       -0.211751        -2.12396
LJ          0.561835        0.405373        -2.48911
LJ         -0.392719         -1.5424        -2.43176
LJ           1.66384       0.0388537       -0.766031
LJ           1.48511       -0.666205         1.93248
LJ              -nan            -nan            -nan
LJ              -nan            -nan            -nan
LJ          0.633622        0.592741        0.550278
LJ              -nan            -nan            -nan
LJ          0.177902        -1.60246      -0.0809447
LJ          -1.49101         2.23406        0.147361
LJ          0.940401        -1.28551         1.16748
LJ          0.948361       -0.263853         1.09713
LJ          -1.16461         1.32095        0.273887
LJ         -0.152747         1.13147       -0.104347
LJ          -2.27516         1.79037        -1.22976
LJ           1.61255         1.99762         -1.3664
LJ          -1.13258         1.20356         1.13514
LJ           1.06463        -2.00739       -0.886687
LJ           2.04484        0.389729        0.216979
LJ          -2.16322         2.44856        -2.16701
LJ              -nan            -nan            -nan
LJ          -1.94814        0.258761        -1.19762
LJ              -nan            -nan            -nan
LJ           1.28727       -0.760596        -0.91945
LJ          -1.30252        -1.72925       -0.356604
LJ          -2.23567        -2.09895       -0.593431
LJ          -1.26175        -2.10279         1.86177
LJ          -1.04539        0.200504         2.07989
LJ          -2.28134         2.37687       -0.554849
LJ          0.491187        0.378242         -2.1781
LJ          -2.01159        0.874059         2.45161
LJ            1.3988        0.598033         1.20353
LJ           1.15506         1.52719        -2.44864
LJ         -0.527162        0.320609         2.52534
LJ            1.1276         2.25959       -0.624844
LJ           0.69299       -0.716818         2.12969
LJ          -2.05334        -2.10541        0.381948
LJ          -1.52021         1.61695        0.532883
LJ          0.327454       -0.609623       -0.570953
LJ           1.43825         2.17376        -1.06449
LJ              -nan            -nan            -nan
LJ          -1.65065         2.26305       -0.644495
LJ          0.251759         -1.6683        -2.56348
LJ          -1.45908        -1.68028       -0.820776
LJ          0.601085        0.286861       -0.809237
LJ           -1.1951        -1.17178       -0.822768
LJ          0.341773        -2.38325        0.519149
LJ           2.55997        -2.26166        0.470782
LJ           1.58491       -0.397418       -0.770563
LJ           -1.6046         2.16726        0.827958
LJ           1.88944         1.53337        -1.18216
LJ           1.77997         0.74149       -0.358139
LJ           1.24786         1.86929        0.095228
LJ           -2.2242        -1.43939        -0.92092
LJ           1.48431         1.36694         1.37102
LJ              -nan            -nan            -nan
LJ          0.667952        -2.08455         2.04985
LJ         -0.625661         2.38197        -1.06844
LJ          -2.50984        -1.81447        -1.57856
LJ          0.532135         1.07411        0.651524
LJ           1.34178         2.28072        0.489666
LJ          -1.12708        -1.64419        0.127983
LJ          -2.21397       -0.165979          1.4793
LJ          -1.69938       -0.879423        -2.03157
LJ         -0.951624         2.24774       -0.624978
LJ           1.04605        0.523994        -1.81515
LJ          -2.07349        -2.18258         2.07425
LJ         -0.856031         1.99448         2.27785
LJ          -1.49832         1.60106        -1.76739
LJ           2.21027        -1.38394        -1.91407
LJ           -1.1047        0.820224         2.43509
LJ           -2.5249        -1.28611      -0.0996992
LJ          0.601935        0.704207        -1.53924
LJ         -0.323771        -2.24065       -0.499352
LJ           1.03574        -1.15257        -1.06849
LJ           1.67931       -0.585547         1.92145
LJ         -0.319837        -2.24399        -2.05029
LJ          -2.02091      -0.0151115        -1.52774
LJ              -nan            -nan            -nan
LJ          0.354271         0.34675        -1.34964
LJ         -0.169609         2.03723         1.71147
LJ         -0.687142        0.671255         1.53224
LJ          0.649898         1.99703       -0.851995
LJ          -1.61047        -1.55264       -0.157465
LJ          -1.94805        0.942978         1.41192
LJ          0.584948        -1.63974        -1.03666
LJ          -2.43495       -0.132606        -2.40429
LJ          -0.64669        -2.16519       0.0244369
LJ          0.310298         2.42071         1.73433
LJ          -2.04318        0.668191       0.0276934
LJ          0.858278      -0.0255653        -1.70388
LJ          0.455522        0.729707        0.872042
LJ           1.68189        0.859751         1.53298
LJ         0.0518037         2.41959        -2.28063
LJ            1.8766        -1.28721         1.84671
LJ              -nan            -nan            -nan
