108
#Comment!
LJ          0.707533        -1.70582         2.28557
LJ          -2.31532       0.0404791         1.92192
LJ           0.16399        0.107892         1.33931
LJ          0.940025        -2.50222         2.12888
LJ          0.128881         1.61275        -2.37678
LJ           2.13653       -0.925617        -2.12052
LJ         -0.979985        -2.23766        -2.04089
LJ         -0.275733        0.178485       -0.243899
LJ         -0.911859         2.37238         2.32718
LJ          -1.80489         1.11632       -0.666616
LJ              -nan            -nan            -nan
LJ            2.5347        0.265712         1.81832
LJ          0.416632         1.73792         2.16745
LJ              -nan            -nan            -nan
LJ          0.591484        -1.96711       -0.193792
LJ              -nan            -nan            -nan
LJ              -nan            -nan            -nan
LJ              -nan            -nan            -nan
LJ          -2.15681        0.667558        0.999269
LJ              -nan            -nan            -nan
LJ           1.73658         -1.1526         2.33045
LJ             1.834        0.897598       -0.765995
LJ          -1.76218         2.56086        -1.13568
LJ              -nan            -nan            -nan
LJ          -2.05513        -1.20029         1.91061
LJ          -2.47709         1.59158       -0.129979
LJ          0.774195       -0.340542         1.19847
LJ         -0.972687        -1.42749       -0.149023
LJ           -1.1156         1.87645        0.480694
LJ          -2.25461         0.23383        -2.46899
LJ              -nan            -nan            -nan
LJ          -1.37283        -1.01063      -0.0235519
LJ              -nan            -nan            -nan
LJ           1.36868         1.08965        0.684924
LJ              -nan            -nan            -nan
LJ          -1.55002          1.0199         1.61165
LJ           -1.4861        -1.44552         1.29759
LJ         -0.830755         1.72547         1.88272
LJ         -0.282254        -1.75424         2.05466
LJ          -1.69434        0.302912        0.103487
LJ          0.154699         1.86048       0.0356814
LJ          0.336188         -2.0926        -2.15961
LJ         0.0488315        -2.02263       -0.082207
LJ           1.82082         1.33423        -1.42216
LJ          -2.12037         1.89079        -2.35233
LJ          -2.19627        -1.38724       0.0271858
LJ          -2.26891        -1.33991        0.534061
LJ          0.267496         2.11724         1.90509
LJ          -1.16699         1.09716        -1.96016
LJ          -1.57554         1.78964         1.34443
LJ          -2.13419          2.3403       0.0370931
LJ           1.39663        0.648925        -1.25844
LJ              -nan            -nan            -nan
LJ           1.21059         1.88102        0.814005
LJ          -1.55698        0.641502        -2.38218
LJ           2.19698         1.32208         0.22807
LJ           1.74062         2.24477         1.66258
LJ          -1.81811        -2.51769       0.0685318
LJ           2.01955        -1.17234        -2.39732
LJ         -0.977872         1.51662         1.74814
LJ         -0.258944         0.97633       -0.400188
LJ          -1.76917        -1.57605         -1.7998
LJ          -2.56282         1.16497         1.06381
LJ              -nan            -nan            -nan
LJ              -nan            -nan            -nan
LJ         0.0292072         -1.8791       -0.549612
LJ          -1.92014       0.0231801       -0.465527
LJ              -nan            -nan            -nan
LJ          -1.27315       -0.354906        -2.27399
LJ           1.83071         1.91859       -0.847689
LJ          0.816072         1.62264       -0.162309
LJ          -1.27029        -1.74117         1.50555
LJ          0.322398         1.53059          2.2497
LJ         -0.400167        -2.18547       0.0465647
LJ          0.480475         1.03894         1.39735
LJ         -0.261415        -2.42312        -1.12781
LJ           1.61335        -1.18135        -2.12588
LJ          -2.39235       -0.797805        0.225255
LJ          -1.84213         1.48933        -2.06544
LJ         -0.225795       -0.232584        0.513582
LJ         -0.421077        -1.05448        0.425659
LJ           1.43138       -0.537339         1.88716
LJ          -2.18518        -0.46375        -2.27357
LJ          -2.32589         1.89374         1.47966
LJ           2.54687        -1.62006        -1.69703
LJ          -2.03987       -0.678815         1.68574
LJ           1.87112        -2.26184        0.357208
LJ          -2.35057        0.352714           1.999
LJ          -1.29424        -1.87102        -1.56937
LJ           0.30859         1.87846         2.03439
LJ              -nan            -nan            -nan
LJ           1.59223       -0.967479       -0.876094
LJ         -0.265884         1.40119         0.62705
LJ          0.789889         2.15867        -1.65523
LJ           1.46597        0.413724        -2.20517
LJ          0.791087        -1.82573         1.42615
LJ           1.11545        0.059732        0.624183
LJ          -1.15111        -2.38057        -1.47764
LJ              -nan            -nan            -nan
LJ          -2.39002        -2.01345         2.38461
LJ          -1.71949       -0.032686        0.745208
LJ          -1.82523        0.253159       -0.296469
LJ          0.833365         1.16909        -1.34718
LJ          0.137037        0.900832        0.127466
LJ              -nan            -nan            -nan
LJ         -0.275308        -2.34176        -0.71533
LJ          0.225753      -0.0264289         2.06428
LJ              -nan            -nan            -nan
