108
#Comment!
LJ           1.35202         2.10969         1.12226
LJ          0.691963        -1.10024         1.78036
LJ         0.0867649         2.43643        -1.48282
LJ          -2.00843         2.07131         2.20462
LJ          -2.11266       -0.694076       -0.568912
LJ            1.4292         0.37261         1.42183
LJ          -1.64081        0.742985        0.889734
LJ           1.02346        -2.13537       0.0113747
LJ           1.89621        0.592901        -2.35753
LJ          -2.20806       -0.355256        0.559662
LJ              -nan            -nan            -nan
LJ          0.978876         0.10437         1.02427
LJ           1.55958        0.756108       -0.949588
LJ              -nan            -nan            -nan
LJ           2.43585        -1.44733       -0.826603
LJ              -nan            -nan            -nan
LJ              -nan            -nan            -nan
LJ              -nan            -nan            -nan
LJ           -0.4493       -0.879342       -0.273537
LJ              -nan            -nan            -nan
LJ         -0.196899        -1.32548        -1.47785
LJ          0.913509         -2.1563        -1.26903
LJ          -1.52661        -1.23951        -1.60147
LJ              -nan            -nan            -nan
LJ          0.061758        -2.56004         2.11968
LJ          -1.71463         2.44314        -1.70109
LJ          -2.08213         1.99271         -1.7571
LJ         -0.604954         1.72338        -2.29882
LJ         0.0214885         -2.3577        0.255121
LJ         -0.475495        -2.41532      -0.0337511
LJ              -nan            -nan            -nan
LJ         -0.685319        -1.31301        -1.24592
LJ              -nan            -nan            -nan
LJ           1.46527       -0.693221        -1.60423
LJ              -nan            -nan            -nan
LJ         -0.116919        -1.94274         1.56135
LJ         -0.228417        -1.89026         2.32489
LJ           1.42134        0.709779        -1.30504
LJ           1.37457         -1.1446        -1.88697
LJ          -1.50314        0.509024         2.55873
LJ          -1.93137        -1.22433         -2.0008
LJ          -2.28368        -2.52813        0.966597
LJ         -0.165671         2.32208         -2.1413
LJ         -0.235215        -1.21421        -1.56748
LJ         -0.940053        -1.30727        -1.56353
LJ           1.39959         1.30322         2.00494
LJ          -2.15957        0.526704        -2.19449
LJ           1.59858         2.42374        0.905221
LJ         -0.255721       0.0629633        -1.72554
LJ         -0.590428        -1.72732         1.24552
LJ           1.87118         1.88131       -0.612302
LJ            1.4887        0.861492         2.56119
LJ              -nan            -nan            -nan
LJ          -1.07861         1.50021        0.734115
LJ          0.347487        0.231178         1.66531
LJ         -0.782505         1.93302        0.918513
LJ         -0.985953         2.08907        -1.45896
LJ          -1.13454         1.39237         -2.5053
LJ          0.701148        -1.72847        -2.05102
LJ          -2.34265        -1.93832        -2.13258
LJ         -0.351827        -1.23412         -2.3918
LJ          -2.28235        -2.11317       -0.621051
LJ          -1.79062         1.19418         1.38799
LJ              -nan            -nan            -nan
LJ              -nan            -nan            -nan
LJ         -0.709421        -1.79939        -1.31412
LJ          0.600071        -0.18349        -2.43579
LJ              -nan            -nan            -nan
LJ           1.91336        0.113952         0.17078
LJ        -0.0573575        -1.05518         1.51086
LJ          -1.43592        0.859147        0.560532
LJ          -1.70988       -0.839623          1.5237
LJ          -1.60433        -2.47527         1.33334
LJ           1.02575          1.4367         1.16898
LJ          0.344476       0.0807548        0.939505
LJ          -1.00834       -0.496465         2.47526
LJ         -0.657097        0.468005        0.904601
LJ         -0.235604         1.07145       -0.639756
LJ           2.22946        0.998738        -0.63372
LJ           1.00675        0.849919       -0.663402
LJ         -0.408121         1.45178         2.29004
LJ          0.295692       -0.441257       -0.073351
LJ          0.122376        -1.48256       -0.515507
LJ          0.484285         2.02731        -1.40249
LJ            1.0762         1.91382        -1.02395
LJ          -1.71154       -0.613494       -0.452198
LJ          -1.81972       -0.855677        -2.40764
LJ           1.79908         2.22983          2.1216
LJ          -1.07837        -2.07921        -2.00769
LJ          -2.14108         1.83102        0.675872
LJ              -nan            -nan            -nan
LJ          0.907555         2.14394        -1.38531
LJ           2.55556        0.713372        -2.13346
LJ         -0.104436       -0.505279        -1.60232
LJ         -0.674937         -1.3844         -2.5466
LJ           1.23024        -2.14192        -1.43805
LJ           -1.2973         1.48365         2.11578
LJ          0.771765       -0.694002       -0.815725
LJ              -nan            -nan            -nan
LJ           1.81658          1.6857        0.974803
LJ          -1.97459        0.971295         2.19397
LJ          0.622034        -2.32917       -0.387073
LJ          -1.31271          1.7059       -0.683447
LJ           0.35193       -0.463628         1.37899
LJ              -nan            -nan            -nan
LJ          -2.20199        -0.66866       -0.950391
LJ         -0.348216         2.15171       -0.232332
LJ              -nan            -nan            -nan
