108
#Comment!
LJ           1.22773        0.336739        -0.51538
LJ           2.47167       0.0143381        -1.39405
LJ          -1.24087       -0.191955        -1.53221
LJ          -1.19127       -0.194662        -2.03917
LJ          -2.40257         2.48087        -2.49917
LJ          -1.12537        0.778783          1.6341
LJ         0.0466763        -2.18906        -2.50767
LJ          0.891156         1.26921        0.798683
LJ          -1.22233        -2.48367        -2.06905
LJ           2.36822       -0.758317        0.484839
LJ              -nan            -nan            -nan
LJ           1.43092         1.96304        -2.38304
LJ         -0.919738         1.40738         1.28775
LJ         -0.205599         1.97534        -0.34812
LJ        -0.0159117        -2.43957         1.27111
LJ              -nan            -nan            -nan
LJ              -nan            -nan            -nan
LJ              -nan            -nan            -nan
LJ          0.944272        -1.67493        -2.27929
LJ              -nan            -nan            -nan
LJ          -1.15264         -1.1564         1.33505
LJ           2.36993         1.20204       -0.387878
LJ          0.899159         1.10059        -2.10845
LJ           2.53796         2.31807         2.05163
LJ         -0.583613        -2.31541         1.46857
LJ          0.509644       -0.839946        -2.08741
LJ          0.427536       0.0883015        0.486722
LJ          0.588709        -1.34918        0.818987
LJ          -1.85863         1.11963         1.55413
LJ          0.037044         2.52076        -1.94202
LJ           1.67239         2.42278        0.427795
LJ           1.18389         1.05958         1.40367
LJ              -nan            -nan            -nan
LJ          -1.99926         2.22219        0.881506
LJ              -nan            -nan            -nan
LJ         -0.178413        0.225298       -0.767012
LJ           1.30634         1.62298         1.21565
LJ           1.78034       -0.346929        0.614209
LJ         -0.387902        0.867909       -0.140903
LJ          -1.59212         2.29617        -1.73745
LJ          0.441778       -0.933904         1.03043
LJ           0.98162        -1.20586         1.54818
LJ          -0.81637         1.99848         0.51435
LJ           1.95416       -0.680586        0.377191
LJ          0.810038         -2.3075        0.683566
LJ          -1.08519        -2.10796        -1.60492
LJ           1.01728      -0.0667885       -0.728704
LJ           1.34016        0.815886       -0.985158
LJ           1.17983       -0.413537       0.0687115
LJ           1.00039         1.48264         1.78652
LJ         -0.444309          1.0474        -1.12817
LJ          0.134474        -1.75649         1.94105
LJ              -nan            -nan            -nan
LJ          -1.00892       -0.497073       -0.144531
LJ           1.45279        0.324727       -0.828451
LJ          -1.35894       -0.638159       -0.214062
LJ         -0.746021         1.51005         1.37243
LJ          -1.43936         2.42997       -0.329748
LJ          0.396102        0.909597         2.11368
LJ          -1.10714        0.912878        0.172991
LJ           -1.2162           1.916        0.755166
LJ         0.0196221        0.246346         2.47025
LJ          -1.89886      -0.0540998         1.84466
LJ          0.365281      -0.0340154        -0.67834
LJ          0.961535        0.348897        0.565758
LJ          0.157419       -0.329419      -0.0372867
LJ           2.44077       0.0512718        0.198804
LJ              -nan            -nan            -nan
LJ           2.39931        -0.56252        -1.54365
LJ          -1.71689        0.752369         1.24583
LJ          -2.19764         1.92194        -1.41927
LJ          -2.28278       -0.606645        -1.50951
LJ         -0.412892        -1.37057       -0.658089
LJ           2.00214      -0.0903604         1.25681
LJ           1.20112        0.396253        -2.44029
LJ          -1.04175        -2.01687         1.78514
LJ          -2.50688         -1.4031        -1.76995
LJ           2.28522        -2.27253         1.81087
LJ          -1.51199        -1.58842         2.24215
LJ           1.53762       -0.403298       0.0688697
LJ          -1.58496        0.435237         -2.1753
LJ         -0.184169         1.92914       -0.956245
LJ         -0.855672        -1.50755       -0.631653
LJ           1.40064         1.75244        -1.00052
LJ           1.83325         2.55946        -1.51013
LJ           1.17424         1.78826        0.123143
LJ         -0.601142        -1.24269         1.23335
LJ           1.42126        0.340005        -2.22474
LJ           1.45431        0.479864         1.10498
LJ          -2.06149         1.52194        0.921776
LJ              -nan            -nan            -nan
LJ          -0.50614        -1.37463        -2.19454
LJ         -0.677356         -1.9322         2.26419
LJ           2.25762        -2.40869         1.40217
LJ          -1.86715         1.06562        -1.09333
LJ          -1.41853       -0.225404        0.260244
LJ          -1.72947        -2.53673        0.844428
LJ           1.42935        -2.34005       -0.920256
LJ              -nan            -nan            -nan
LJ          -1.79165         1.88938          2.5178
LJ          -1.52493        -1.53925      -0.0672829
LJ           2.39924       0.0954815        -1.36998
LJ          0.422327         1.44856       -0.739276
LJ          0.956052        -1.60893       -0.397446
LJ        -0.0123745        -1.73497        0.515675
LJ           1.19873       -0.124455        0.356229
LJ         -0.302002        0.307782        0.600108
LJ              -nan            -nan            -nan
