108
#Comment!
LJ         -0.369911       -0.542162        0.053543
LJ          0.483601         2.22467        0.156011
LJ            1.3683         1.02351        -2.40563
LJ          -1.28547       -0.924325       -0.989545
LJ         -0.316062         1.31048         1.14421
LJ          0.309188        0.575264         1.80553
LJ          -1.47403         2.14789        0.788995
LJ         -0.975534         1.73231        0.437266
LJ          0.855201        0.492224        -1.40493
LJ          0.613591         1.69284        -1.52306
LJ              -nan            -nan            -nan
LJ          -2.13259        0.805883        -1.88453
LJ           1.00124       -0.946065        -2.19125
LJ          -1.96468       -0.589624       -0.131705
LJ          -2.04657        -1.30461        -0.73079
LJ           2.43119        -1.05337        -2.21673
LJ              -nan            -nan            -nan
LJ              -nan            -nan            -nan
LJ         -0.650297          2.3018         2.42905
LJ              -nan            -nan            -nan
LJ          0.920144         2.47994        -2.33788
LJ          0.587282        -2.14328         -1.0868
LJ          -0.46945        0.482043          1.9932
LJ          -2.23299         1.52202         2.11923
LJ          -1.67958          -2.231         1.66945
LJ          0.429257        -1.19253        -2.00392
LJ          -1.24802       -0.366776         2.29232
LJ          -2.43037       -0.705533          1.1409
LJ          -1.20157         1.07577         1.63127
LJ         -0.962532        -2.37763         1.93348
LJ         -0.912971       -0.705383       -0.701647
LJ           2.15464          0.8507       -0.739042
LJ              -nan            -nan            -nan
LJ          0.808681         1.18248        0.788415
LJ              -nan            -nan            -nan
LJ             -1.66        -2.29238         1.67636
LJ         0.0718841        -2.55306         1.40452
LJ          0.716755     -0.00873879       0.0289277
LJ           2.11111       -0.698162      -0.0353931
LJ         -0.350573       -0.549074         1.70267
LJ           1.75025        -2.37465        -1.16299
LJ           2.14226        -1.45173         1.88165
LJ          -1.98287        0.986383       -0.827737
LJ          0.454694        -2.37698         2.34375
LJ           1.58465         1.42551         1.60679
LJ           1.13672       -0.277661         1.42567
LJ          -2.18951         1.82088         1.10495
LJ           2.07542        -1.04501         1.08085
LJ           1.89169         1.64058        -1.92345
LJ          0.682751        -2.34009      -0.0344155
LJ          0.171738       -0.531041        -1.63304
LJ           -2.1819        -1.71307       -0.680988
LJ              -nan            -nan            -nan
LJ           2.36224        -2.06997         1.21393
LJ          -1.34824         2.42454         2.01464
LJ           1.72885       -0.479437         0.77072
LJ          0.512752      -0.0790988        0.662363
LJ          0.779133        -0.80644       -0.438653
LJ          0.942209         1.82466         2.25897
LJ           2.09958        0.189332         2.14205
LJ         -0.903208        0.868112         2.04357
LJ          -1.03145         1.34202         2.28812
LJ           2.44259         2.26448        -1.44694
LJ           1.72135         1.38224        -2.12265
LJ           -1.7153        -1.85853        -1.24434
LJ          -1.21116         1.41288         1.97777
LJ           2.40548       -0.138672         1.54574
LJ              -nan            -nan            -nan
LJ          0.598633         1.30646       -0.009932
LJ         -0.934093       -0.942372         2.37393
LJ         -0.149425       -0.909362         1.78522
LJ          0.978664         1.76127        -2.25937
LJ          -2.04552         1.38959        0.179046
LJ          -1.76575           1.025       -0.152385
LJ          -1.93545        -1.79834         1.13218
LJ           1.60044         1.98457           -1.23
LJ          -1.28009         1.59598       -0.576522
LJ          0.833715        0.676913         0.65823
LJ           1.12675       -0.508727       -0.211235
LJ        -0.0935829         1.40155        -1.11948
LJ          -0.89388       -0.662477        -1.16739
LJ           1.56495        -2.41492        -1.15147
LJ         -0.429138        0.981068         1.46261
LJ         -0.410326       0.0951031       -0.102694
LJ            1.2973        0.912422        -1.81011
LJ          -2.44517        -2.12657         2.45382
LJ          0.881274        0.895894        -2.27451
LJ           1.74067          2.1319         2.13648
LJ         -0.727815        -2.05382         1.11654
LJ          -1.60187         1.74885        -1.31878
LJ              -nan            -nan            -nan
LJ         -0.706987        -1.85104        -2.31119
LJ         -0.740076         -1.6478        -1.55007
LJ          -2.27309        -2.27968        0.401244
LJ           2.30622        -1.76986        -1.68375
LJ         -0.397571        -1.43126        -2.03866
LJ         -0.563187       0.0196038       -0.180053
LJ           1.86337        -1.51028         2.46402
LJ          -2.23763       -0.685348       -0.532907
LJ          0.483883        -2.24474        -2.35502
LJ           1.87094        -2.47195         1.50714
LJ           1.18521        -2.47326        0.571862
LJ           1.95431        0.934525        0.135242
LJ          0.863327      -0.0336293           2.483
LJ           0.64402         2.36854         2.23725
LJ          -1.22587       -0.832684       -0.251452
LJ          -1.67817        -1.82083         1.25855
LJ              -nan            -nan            -nan
