108
#Comment!
LJ          -1.67403       -0.966797        -2.19457
LJ           1.31171        -2.12105          1.6912
LJ          -2.51732        0.904156         1.35053
LJ          -1.50457       0.0937606         1.78524
LJ          0.972978        0.935164         0.59874
LJ           1.74376         2.02852       -0.400225
LJ            1.4935       0.0665056      -0.0699642
LJ          0.726375        -1.21719        -2.00273
LJ           1.65601         2.23249         1.98309
LJ          0.335811        -0.73548        -1.93192
LJ              -nan            -nan            -nan
LJ           2.04174        -2.47309        -1.64364
LJ           1.04925       -0.884758        -1.46601
LJ         -0.120528        -1.16671        -1.20228
LJ          -1.96195       -0.611253        -2.53231
LJ              -nan            -nan            -nan
LJ              -nan            -nan            -nan
LJ              -nan            -nan            -nan
LJ           -0.1269      -0.0342311      -0.0909491
LJ              -nan            -nan            -nan
LJ         -0.144847        0.123529        0.279159
LJ          -1.81907        0.462496       -0.932977
LJ          -0.31282         -1.2302        0.969335
LJ           1.21367      -0.0928538         1.67109
LJ           1.91138         2.00969         1.12697
LJ          -1.54427          1.1454         2.35659
LJ          -1.41103       -0.031347        -1.18127
LJ           2.09123          2.1125        0.742315
LJ          0.956474        -2.20962        0.302559
LJ           2.31912       -0.582264        0.542594
LJ           1.57553       -0.405074       -0.503449
LJ         -0.772425        -2.22847      -0.0570549
LJ              -nan            -nan            -nan
LJ           1.32535       -0.710656        0.365655
LJ              -nan            -nan            -nan
LJ          0.910896       -0.710267        -1.78822
LJ           2.09581          1.2556        -2.40981
LJ          0.466893        -1.86312        0.646294
LJ          0.777765        -1.54684         1.85322
LJ            2.1926        -2.45984        0.721694
LJ             1.102        0.969532       -0.393437
LJ           0.97415        -1.07775         2.12424
LJ           1.18087        0.109588         0.44102
LJ          0.801569        0.907185         2.00605
LJ          -1.09628       -0.850612        -2.22796
LJ         0.0351128        0.118504         2.30651
LJ           1.97698       -0.880853         1.55164
LJ        -0.0681266         1.41293         1.76575
LJ          -1.41856        -2.04559        0.263343
LJ          -1.07966        -1.52237        -1.55594
LJ          -1.78871       -0.276298         -2.1505
LJ          0.280012       0.0653742        -2.00401
LJ              -nan            -nan            -nan
LJ           1.96944        -1.18928        -1.56402
LJ          -2.54994         2.28563        -0.35514
LJ           1.93938        0.977578         1.64855
LJ           1.62442       -0.313875        -1.68158
LJ          -1.68812        -2.46113        0.747865
LJ         -0.574182         1.80539          1.3469
LJ          -1.80974         1.41789       -0.675089
LJ         -0.376021        -2.07924        0.388799
LJ           2.05974      -0.0621197        -2.21568
LJ         -0.641084          1.2489        -2.32021
LJ          -1.00839        0.946018         1.72891
LJ          -1.01383        -2.25822       -0.970559
LJ          -1.42879       -0.710686       -0.495126
LJ          0.508063        0.874097         1.56307
LJ              -nan            -nan            -nan
LJ          0.181582       -0.643172        -2.17661
LJ           1.61305       -0.941256        0.506156
LJ         -0.772246         2.44085        -1.63393
LJ           1.97283        -1.92595        -2.37441
LJ            2.0685        0.448311        -2.49465
LJ           1.06214         2.19882        -1.46197
LJ           -0.3078       -0.132368       -0.390194
LJ          -2.51237        0.345112        -2.16727
LJ         -0.141184        -1.29051        -1.64431
LJ          -1.53552         0.15897         1.82873
LJ          -2.46487        -1.80207        0.960965
LJ           -1.6045        -1.04811        -2.01702
LJ          -1.75006        -1.41099        -2.03383
LJ           1.41593        0.718702        0.840549
LJ          -2.41541        0.992724         1.70874
LJ           1.10996        0.941671         2.39434
LJ           0.76461         1.39803         1.30732
LJ         -0.280677        -1.25209         2.08635
LJ           2.24674        -2.39152       -0.275455
LJ          -2.38911       -0.110001         1.36173
LJ          -2.12879        -1.48122         2.37411
LJ           1.25071         1.45775         1.04354
LJ              -nan            -nan            -nan
LJ          -1.27874         -1.5623         2.25602
LJ          0.876494          1.0639        0.842495
LJ           1.54796        0.191278          0.5749
LJ           1.40176       -0.172691        -1.52496
LJ           0.42063        -0.84106       -0.144394
LJ          -1.41849         1.75107        -1.96568
LJ          -2.08917         2.43848        0.854188
LJ              -nan            -nan            -nan
LJ         -0.148713         0.76419        -1.89893
LJ          -0.42048         1.59389        -1.78522
LJ          -1.02939       -0.347345         1.15885
LJ          -1.58297         2.21685       -0.453759
LJ          -1.05729        -1.44217        -1.75328
LJ          -1.07123         1.18647         -2.5064
LJ           -1.5889        -2.22001     -0.00105764
LJ          0.437302        -1.84735        -1.97115
LJ              -nan            -nan            -nan
