108
#Comment!
LJ          -1.93704         1.99453       0.0859451
LJ           1.10134         1.03422        -0.98147
LJ           1.19182        -2.14095        -1.48087
LJ          0.259686         1.65874         1.82826
LJ          0.105033        -1.39968        0.902515
LJ         -0.958226        -2.22395        0.185495
LJ         0.0077741         1.33719         -1.7059
LJ          -1.46619         1.56707        -1.46566
LJ         -0.651967        0.855217        -2.22068
LJ           0.80335         1.36554         1.81372
LJ              -nan            -nan            -nan
LJ            1.3315        -1.56565         -2.4001
LJ          -1.78409       -0.753755        -2.16354
LJ            2.2866         1.71859         1.16675
LJ         -0.278707        -1.56645        -1.26396
LJ           1.82308        -1.14918        -2.09863
LJ              -nan            -nan            -nan
LJ              -nan            -nan            -nan
LJ           1.02111        0.888349          2.4418
LJ              -nan            -nan            -nan
LJ          0.517574        -2.36171         1.64874
LJ          0.994564        -2.00767        -1.17367
LJ          -1.60145         2.48109        -1.80926
LJ         0.0632939         2.43808         2.43082
LJ         -0.328157         0.59756       -0.738649
LJ          0.431074        0.214382        0.153487
LJ          -1.46587        0.197176         2.25102
LJ           2.10831         1.72363         -2.4068
LJ          -2.56358         2.04383         -2.5025
LJ         -0.374128        -1.28913        0.789286
LJ          -2.54813        0.383944         2.12791
LJ           2.34385        -1.65766       -0.863681
LJ              -nan            -nan            -nan
LJ         -0.479453        -2.12179         1.33317
LJ              -nan            -nan            -nan
LJ         -0.177663        -0.16292         2.18826
LJ         -0.653794        0.362248        -1.63808
LJ           1.29703          -2.263        -2.26791
LJ           2.07141         -2.1094        0.820324
LJ          0.907874        -1.63493        0.413876
LJ          -0.85969         1.32416       0.0746133
LJ           1.58745        -1.95528        -1.90034
LJ           2.29871        -2.12768         1.03668
LJ         -0.893454         1.73361        -1.52019
LJ           1.77316         2.43354         2.27223
LJ           2.44979       -0.360085        0.897252
LJ          -2.08064       -0.130166         2.51751
LJ          0.974141         -1.7136         2.31679
LJ           1.57063         2.04117       -0.701495
LJ           0.21071        -1.58121       -0.629715
LJ           2.17788      -0.0114319         1.32124
LJ          -1.35704          1.0337         1.69235
LJ              -nan            -nan            -nan
LJ         -0.417209         -1.8746        -0.73273
LJ         -0.924876         1.03384         1.72168
LJ          -1.30564        -2.06296        -2.09366
LJ          0.664176         2.49664         1.80908
LJ           1.76447        0.140505       -0.182324
LJ          -2.09296        -1.67837       -0.906713
LJ          0.259617         1.28396         -1.0353
LJ           2.35281         1.36924        -1.79175
LJ         -0.362293        -2.18429        -1.40351
LJ          -1.42244        -2.40625        -2.42453
LJ           0.57612       -0.709917        -1.74043
LJ           2.04297       -0.519288         -1.3598
LJ          -1.47607         1.67921      -0.0876919
LJ          -2.05132         1.61026        0.267678
LJ              -nan            -nan            -nan
LJ           1.86886        -1.46578        -2.00317
LJ          -1.85127         0.69632        0.141633
LJ           2.10391        -1.70284       -0.217459
LJ          0.822738        0.437214       -0.911271
LJ           2.18923        -2.14881        -2.21576
LJ          -1.48995       -0.355471        -2.17033
LJ          -1.69117        -1.10328        0.830364
LJ          -1.16113         2.37938         1.63426
LJ          0.113572          1.4409        -1.84966
LJ          0.697511        -2.24083         1.66357
LJ          -1.58185         1.10788        -2.31201
LJ           1.51044         1.62736        0.156523
LJ          0.454577        -1.53027        -1.34248
LJ          -1.36024         1.31071         2.35091
LJ          -2.43788       -0.522323        -2.01757
LJ          -1.99078        0.913491       -0.653908
LJ           1.26059         2.24343         -2.0514
LJ           1.13688        -1.43964        -1.38859
LJ           2.47026         2.54023         1.97531
LJ         -0.533072        -1.93486        -1.22952
LJ         -0.455981         1.29871         -1.8599
LJ          0.253266        0.402691          -1.657
LJ              -nan            -nan            -nan
LJ          0.638496          1.9863        -1.83613
LJ         -0.900571        -2.01847       -0.112399
LJ            2.2411       -0.105864       -0.987717
LJ          -1.87806        0.196481        -1.57677
LJ           1.03962         1.99869        -2.07419
LJ         -0.855976         1.74764        -1.73745
LJ          -1.99774        0.574893        -2.30777
LJ         -0.703465         1.39744        -2.48095
LJ         -0.818422       -0.521448         1.69954
LJ           1.98521        -0.96572         2.31137
LJ         -0.626222         -2.5152         1.57552
LJ           1.06745       -0.207327        -2.36408
LJ          -2.22126         1.46082        -1.32736
LJ           1.74859       -0.255716       -0.598394
LJ           1.45429         1.74724        -1.33959
LJ          0.860794          1.2272      -0.0345786
LJ              -nan            -nan            -nan
