108
#Comment!
LJ           -2.5152       -0.561669        -1.94066
LJ          -1.62714        0.178862        -1.28305
LJ         -0.704192         2.10098         2.22129
LJ           1.71853         2.46071        -2.53737
LJ           2.33612         1.43053          1.9637
LJ          0.559674        -2.24083         2.22592
LJ           2.42105        -1.22096         2.48169
LJ           0.16643        0.543613         1.20029
LJ          -1.12839         0.63357         1.46228
LJ           1.63816         1.09514          2.0909
LJ              -nan            -nan            -nan
LJ          0.954974         1.64578        0.347706
LJ           1.79063        -1.29812         2.43478
LJ           -1.9317         1.08701        -2.29138
LJ          -0.55535         0.24653         1.96525
LJ            1.5137        0.544065        -1.13269
LJ         0.0240856       -0.384277         2.42227
LJ           2.24937        -1.07632        -1.05773
LJ         -0.373147         1.08131        -2.03056
LJ          -1.98426        -1.08314         1.42323
LJ          0.625649       -0.281813          1.6152
LJ           1.44658        -1.46976       -0.199334
LJ         -0.259148        0.969501        -1.24208
LJ            2.1746         1.87006         1.81455
LJ         -0.711968        -1.33332        0.607087
LJ           1.90901        0.215342         2.28195
LJ          -2.20984       -0.152247        -0.36885
LJ           1.81338       -0.551587         2.39596
LJ           1.46628        -2.37044        -2.37773
LJ          0.521257        -2.33556        0.178142
LJ            1.9313        0.469457         1.24808
LJ          0.678453         2.16933        0.381399
LJ              -nan            -nan            -nan
LJ          -1.41046        -2.52601        -1.31991
LJ           1.42227        0.680456     -0.00281886
LJ          -2.47127       -0.323089        -1.34181
LJ          0.080294        -1.27156         2.14295
LJ          -1.41403        -2.39213         2.04206
LJ         -0.285775        -1.09418         1.68309
LJ           1.42214          1.8053        -1.69454
LJ          0.306024        0.563949         0.16424
LJ           1.70509       -0.499172         1.10163
LJ          0.671294        -2.17654        -2.23305
LJ           1.31435       -0.947686        -1.26668
LJ         -0.441398        0.210751        0.586572
LJ          0.555691        -2.17738        0.447618
LJ          0.834558       -0.991639        -2.36263
LJ           2.06866         2.07247        0.615522
LJ           1.71517         1.25497        -1.85766
LJ           1.22882          1.7408         -2.1068
LJ          -1.15875       0.0103088        -2.56048
LJ           1.29982         1.34867      -0.0657287
LJ           1.05857         1.50846        -1.89122
LJ           2.53791        -2.32053        0.296212
LJ           -2.4074         2.17813         -0.1758
LJ           1.34623         2.39304         -2.4054
LJ         -0.886673         1.12437        -2.19362
LJ          -1.02385       -0.248891         2.45273
LJ         -0.233112         1.27258        -1.56718
LJ          -1.51585         2.08012         1.90994
LJ          0.249825        0.345565       -0.920283
LJ        -0.0699658       -0.853941       -0.631643
LJ          -2.16387        0.111574       0.0451263
LJ          0.926757        -1.62439         2.51602
LJ           1.16094        -2.52487        0.359467
LJ          -1.52018        0.839356         2.38687
LJ          -0.12287        0.965851        -1.02101
LJ           1.81405        -1.05033         1.96006
LJ           0.99298         1.04758        0.423605
LJ           1.71808       -0.720978        -1.71852
LJ           2.20499        -2.20678       -0.715988
LJ          0.999114        -2.56125       -0.756227
LJ           2.07889          1.5267        -1.02571
LJ         -0.293281         2.49124         2.07536
LJ           1.03151        -1.96584       -0.284744
LJ           1.48675        -1.32919          2.2685
LJ          -2.51821       0.0186255         2.30233
LJ          -1.43162         -1.3772         2.27056
LJ           1.03462        -2.23516        0.772761
LJ          -1.15175        -0.66227        0.427645
LJ          -2.50842         1.29382         1.58777
LJ          0.266873         2.36191        -2.55214
LJ          -2.50571        -0.42561        -1.00924
LJ           1.21932        -2.51011        -1.92946
LJ            1.3952       0.0331153        -2.42112
LJ          0.385324         2.47207       -0.780627
LJ           2.01212        0.762279        0.584411
LJ          -2.31669         1.59235       -0.267039
LJ           2.14788        -2.44534        -2.17125
LJ           2.35133         1.16277         -2.5205
LJ           1.13084        -1.41587       -0.971248
LJ         -0.328316        -1.61701        0.699167
LJ           1.48726        0.496444        -0.51495
LJ          -1.11868        -2.54697       -0.286142
LJ           1.31083        -1.94012         2.21186
LJ          0.618422         2.36573        -1.57763
LJ          -1.09016        -2.46181        -2.46047
LJ          0.537204        0.873802        -0.57387
LJ          0.577213         1.71045         1.45316
LJ          -2.02769         2.16535       0.0265547
LJ           1.21208        -1.66916        -2.47544
LJ          -1.92271        -2.10111       -0.365034
LJ          -1.99212        -1.21074         1.88306
LJ          -1.84152        -0.75051       -0.876346
LJ          -0.56943       -0.163141       -0.443637
LJ           2.13871         1.36506        -2.47378
LJ          -1.98523        -1.22961         -1.5016
LJ           -1.2294          1.0025        -1.08353
