108
#Comment!
LJ            1.4254         1.94019        0.258138
LJ          -1.37084       -0.047434         2.52574
LJ           1.95154        0.661136        0.344578
LJ           2.09363         1.08358         2.44482
LJ          -1.86097        -2.56232        -1.58514
LJ          0.999963        -1.52994       -0.106364
LJ           1.23163       -0.735678         -1.4754
LJ         -0.671036         1.68413        -1.55214
LJ          0.226218        -1.21263         2.26235
LJ           2.44076         2.45003        0.985287
LJ              -nan            -nan            -nan
LJ          0.401044         1.06937        -0.01516
LJ         -0.358256       -0.991484        -1.67714
LJ           2.14995        -1.64005       -0.023691
LJ          -2.24965         1.14243        0.355659
LJ             2.213         2.38767        -1.21593
LJ              -nan            -nan            -nan
LJ              -nan            -nan            -nan
LJ          -2.24183        0.225382        -2.49569
LJ              -nan            -nan            -nan
LJ         -0.926575       -0.482635         1.07121
LJ          -1.14151         2.08038        -2.00042
LJ          0.859916        -1.84525       -0.076198
LJ          -1.95132        0.977313         1.58709
LJ          -2.50914         1.80476         1.01413
LJ           1.63582       -0.660639        -1.91721
LJ          0.224348         -1.8174        -2.55458
LJ        0.00624142        0.634674         1.09211
LJ         -0.012505       -0.210417        -1.38913
LJ           -1.5919       -0.644718         2.38565
LJ           -1.6253        -1.23639        -2.25663
LJ          0.768574         1.27535       0.0656641
LJ              -nan            -nan            -nan
LJ          0.718205         2.38689         1.35881
LJ              -nan            -nan            -nan
LJ           -1.2295         1.01107        -2.01131
LJ         -0.732963         1.27383         1.60624
LJ           2.20004         1.53959        0.690073
LJ          -1.70775        -1.56035        -1.79689
LJ          0.186273        -1.72517          1.4129
LJ          0.724382        -1.48093        0.788824
LJ          -1.35018         2.40534       -0.447793
LJ         0.0475794        -0.58057       -0.940609
LJ            2.4993        -2.37792      -0.0870535
LJ         -0.149168       -0.505533        -0.56098
LJ           1.17998        -1.83893        0.202513
LJ          0.288508         1.30808        -1.87647
LJ          -1.14337       -0.152581       -0.660057
LJ          -1.38588        0.549905         1.39525
LJ          -1.00799       -0.965319        -2.13787
LJ          0.893496       0.0563147        -1.01624
LJ         -0.958924         1.70183         1.13672
LJ              -nan            -nan            -nan
LJ          0.509112       -0.728938        -1.52252
LJ          0.832243         1.63009         1.74498
LJ         -0.373588       -0.901855       -0.653578
LJ          -2.21804        -1.44614        -2.07934
LJ          -1.54693       -0.837825          1.3247
LJ         -0.315476       -0.985065         1.49707
LJ          0.433343         2.35383       -0.828498
LJ           2.48729        -1.14861        -1.34495
LJ           1.55233         2.42375         0.44875
LJ          -2.49406        -2.20835        0.529521
LJ          0.984889        -1.93406        -2.46692
LJ           2.51682         1.28421        -1.21212
LJ         -0.712338         2.26015        -2.41708
LJ         -0.404855         1.46855        0.607154
LJ              -nan            -nan            -nan
LJ           -1.8308         2.52876       -0.818773
LJ          -2.16338         1.95889         -2.0363
LJ          0.575119        0.956341         1.61289
LJ         -0.232533        -1.09987          1.2484
LJ           1.22658        -0.41819         2.42076
LJ           1.52571        -2.00867         1.14835
LJ          0.879885       0.0115995        0.750048
LJ          -2.11498         1.18419        -2.25116
LJ          0.831613        0.392745        0.965761
LJ           1.03183         1.98953         2.06562
LJ         -0.384116         1.19832         2.13158
LJ          -2.46941        -2.28493       -0.695304
LJ          0.373856        0.166998        -1.13297
LJ         -0.986987        0.363792        -1.77756
LJ           1.48698         2.26043         1.89395
LJ          -1.44014        0.331504        0.495372
LJ          0.818912        -1.45097        0.334081
LJ          0.175861         1.45176        -0.16667
LJ          -1.43655         1.52763       -0.311273
LJ          0.318694       -0.318983       0.0446957
LJ          -1.73336        0.779851        -2.27132
LJ           1.78199        -2.11998          1.9539
LJ              -nan            -nan            -nan
LJ          -1.67852         0.98689         2.27475
LJ           2.03787        0.382323      -0.0533391
LJ           2.08846        -1.25738         1.84913
LJ           -1.6287        -1.86219        -1.41244
LJ          0.117795         1.00044        -2.41729
LJ            1.0291        -0.24061         1.95872
LJ          -1.02571        -1.08769       -0.316423
LJ         -0.458801        -0.89437         -1.8885
LJ          -1.65344         1.18819         2.01979
LJ           1.30839        0.827885       -0.237617
LJ        -0.0144433         -1.4884        -2.55427
LJ           1.80018       -0.127256         2.31427
LJ           1.94748       -0.978954        -2.21769
LJ       -0.00573989         0.84357         1.60869
LJ         0.0231504         2.38499        0.190835
LJ          0.653699         1.17298          2.0594
LJ              -nan            -nan            -nan
