108
#Comment!
LJ          -1.28795        0.637286        -1.21905
LJ           1.91605         1.75152        -1.33307
LJ         -0.776817       -0.150803         1.62877
LJ           -2.2003          1.5843        -2.55416
LJ          -1.10438      0.00997455         1.72427
LJ          0.808207         1.28793        -1.66164
LJ         -0.225118         1.02447        -1.33008
LJ          -1.83081        -1.21723       -0.961443
LJ           1.52956         1.46428        -1.78337
LJ         -0.711543        -2.35868         1.23705
LJ              -nan            -nan            -nan
LJ         -0.430986        0.519069        -1.56893
LJ          -1.08085       -0.993963        -2.20501
LJ          -2.11083         2.08097       -0.747992
LJ           1.70784       -0.677959        -1.48693
LJ          -1.59615       -0.522941        0.552338
LJ              -nan            -nan            -nan
LJ              -nan            -nan            -nan
LJ          -1.55463        -2.20828        -0.62435
LJ              -nan            -nan            -nan
LJ          -1.11587         2.11385        -1.07058
LJ          0.654784         2.24814         1.39704
LJ          -1.08051       -0.473475        0.789498
LJ          0.449276        -1.23215        -1.70142
LJ          -1.91255        -1.39173        -1.60466
LJ          -1.86686          2.1512       -0.862959
LJ         -0.616846       -0.872188        0.391988
LJ           1.34578          1.8913       -0.461944
LJ          -1.79814        -2.32793         1.05447
LJ         -0.582426       -0.495267        0.490127
LJ           0.36338        0.851463          2.3879
LJ          -1.65085        -1.17493         2.16853
LJ              -nan            -nan            -nan
LJ           1.22325       0.0155341           1.561
LJ              -nan            -nan            -nan
LJ           1.66162         1.16024       -0.168228
LJ           1.67993         -1.7934         1.99354
LJ           -1.2361         -1.3454      -0.0567048
LJ           2.08838      -0.0561533        -1.21215
LJ           1.42811         2.54455       -0.116908
LJ           -1.4273        -2.49405        -1.28283
LJ         -0.409431        -1.60344        -1.29585
LJ         -0.370321         0.25218        -2.05272
LJ            1.0526        -1.30421        -1.78633
LJ          0.855511        -2.22464         1.57817
LJ          -2.28958        -1.82897          2.0605
LJ           2.38091        -1.43358         2.08215
LJ           2.42668         1.60962        -2.18004
LJ           1.42181        -1.52901        -1.68651
LJ          -1.35038         1.82905        -2.52673
LJ          -2.26617       -0.166096       -0.537801
LJ         -0.911805         2.29202        -1.55708
LJ              -nan            -nan            -nan
LJ           1.59124        0.664924        -1.59405
LJ         -0.839925       -0.196995         1.81507
LJ          -1.28819        -2.37066         1.19715
LJ          -1.50542       0.0483235        0.303352
LJ           2.06306        -1.77762          0.3744
LJ          0.181475         2.01544       -0.712789
LJ           1.37015        -2.51916         2.13359
LJ           2.03989         1.29925        -1.23837
LJ          -2.21807         2.27202       -0.420149
LJ         -0.411925         0.10482        -2.37308
LJ           2.33223        0.672816         2.05503
LJ          -2.21899        -1.58427        -2.50537
LJ           -1.3086         1.36353         2.24298
LJ         0.0807857       -0.765662          2.2076
LJ              -nan            -nan            -nan
LJ          -1.06991          2.3205         2.12754
LJ          -0.16498         1.96656        -1.73457
LJ          -1.93803        -1.41119        -2.30188
LJ           2.39278          2.0525         1.27119
LJ           1.97974       -0.367417       -0.724429
LJ          -1.15369        0.236871        0.296645
LJ           1.13706          2.0761        0.507996
LJ           2.48241        -0.79377          0.1823
LJ           2.03746         1.42303        -1.88113
LJ          -1.66671        -1.50912       -0.213142
LJ          -2.37451          2.0195       -0.757792
LJ         -0.715596        0.290417        -1.64056
LJ         -0.165786         2.09171         1.08694
LJ           2.03356         1.42586        0.291782
LJ          -2.06502       0.0771585       -0.565146
LJ            2.1715         1.93527         1.52465
LJ          -2.54217         1.51338        -2.35502
LJ          -1.88429       -0.166019        -2.40639
LJ          -1.97103       -0.204422        -2.13908
LJ           -2.5634        -0.46103        0.632746
LJ         -0.290613        -1.71159        0.594499
LJ          -0.73162        0.966145        -2.28152
LJ              -nan            -nan            -nan
LJ          -1.80311         1.21356        -1.20247
LJ         -0.471675         0.68152        -2.29135
LJ         -0.803631       -0.935064        -1.15268
LJ           2.49745         1.45205         1.35114
LJ          0.850339        -1.02235        -2.43522
LJ           -1.4889         2.12809        0.882737
LJ          0.586715        0.324308        0.294821
LJ          -2.00316        0.952866         1.15179
LJ         -0.377502         2.14779         0.58386
LJ         -0.718696         1.12443         1.33689
LJ          -2.03914         1.36769         1.69397
LJ           2.30652       -0.899934       -0.874719
LJ          0.779164         -1.9527       -0.805539
LJ          0.661714       -0.758182       -0.699659
LJ         0.0313551        0.381568         1.58381
LJ          0.857605         1.39588         1.55597
LJ              -nan            -nan            -nan
