108
#Comment!
LJ         -0.486071         2.55121        -0.42487
LJ          0.836762        -1.22948       -0.808085
LJ           1.51828        -1.47396         1.96519
LJ           0.91853         1.56678        0.436728
LJ           -2.4936         1.67945        0.767139
LJ          -0.84056        0.132708        0.276775
LJ           2.35685        -1.56584       -0.524178
LJ            1.7858         1.39858        -1.44686
LJ         -0.317328        -1.77097        -0.58938
LJ          -1.32058       -0.323034         1.27205
LJ              -nan            -nan            -nan
LJ         -0.474443         2.40139        -2.23818
LJ          -1.46145         2.02972       -0.499771
LJ          -2.44305         0.56226     -0.00865413
LJ           -1.5537         1.41636       0.0664101
LJ              -nan            -nan            -nan
LJ              -nan            -nan            -nan
LJ              -nan            -nan            -nan
LJ          -1.07469         2.16816        0.502663
LJ              -nan            -nan            -nan
LJ          -2.26748      -0.0681485       -0.316237
LJ          -1.87829       -0.150712          1.0394
LJ          0.236682         1.58707        -2.36918
LJ           1.95097       -0.185965        0.363751
LJ         -0.709662        -2.45526        -1.00544
LJ            2.2801        -2.32574       -0.683331
LJ           1.68339        -1.67567        -2.18048
LJ         -0.976941       0.0995897        -2.02342
LJ           0.18427         2.40024       -0.156868
LJ          -1.64243       0.0431092         1.87685
LJ           1.12843        -1.69779        -0.36083
LJ           2.23173        -1.17826       -0.146182
LJ              -nan            -nan            -nan
LJ          -1.71439         1.90926         1.30645
LJ              -nan            -nan            -nan
LJ         -0.191229       -0.162653         2.13329
LJ           1.07713          -1.985         -0.7832
LJ           1.83026         2.21653          1.8842
LJ         -0.437789       -0.697401         1.79397
LJ         -0.126684        0.481785       0.0720324
LJ           1.49193         2.18455         1.49098
LJ           1.40275         1.54163         2.53481
LJ           1.50208        0.693883         1.17395
LJ         0.0875229       -0.353946       -0.456142
LJ          -1.28461       0.0711572         2.41802
LJ            2.0922        0.453519        0.280428
LJ          -2.00774        -2.07398       -0.259049
LJ         -0.431291       -0.858595        -1.43233
LJ           1.68936        -1.08701         1.42509
LJ          -2.10516        -1.68493       -0.971737
LJ          -2.02997          2.3829        -1.49825
LJ        -0.0292283        -2.19355         2.16224
LJ              -nan            -nan            -nan
LJ            2.1358        -1.70933       -0.646568
LJ          -1.21479        0.738442       -0.336649
LJ            -0.832        -2.19644         1.74184
LJ          0.978846        -1.13481        -1.75656
LJ          -2.16002         1.49272        -1.13591
LJ           2.20498       -0.493854        -1.54509
LJ          -1.99869        -1.05546         2.56458
LJ          0.704377        0.114864       -0.832484
LJ           1.51047        0.768669        -1.55564
LJ           -1.8988        0.993533        -1.68744
LJ         -0.289868        -1.53539         2.20072
LJ          -1.89792        0.766191        0.909444
LJ           2.01134         1.18257       0.0108865
LJ        -0.0525649         1.13141       -0.496885
LJ              -nan            -nan            -nan
LJ           0.78186        -1.44498         0.23379
LJ           2.16477       -0.322884         1.35131
LJ         0.0218149        0.174251        -1.39761
LJ           1.77695         1.18662         1.81382
LJ         -0.289053        -1.48953        -2.13624
LJ          -1.23143        -1.45812         -1.2931
LJ           1.27061       -0.378674        0.600153
LJ              2.24        0.829734        0.845541
LJ         -0.186713         2.13404         2.34026
LJ          0.564167         2.20896         -2.4271
LJ            1.8866        0.725312       -0.625241
LJ          0.712828        -2.33408       -0.618955
LJ          -1.25656          1.3217        -1.26349
LJ           -1.1169        -2.34895       -0.540213
LJ           1.69398         -1.4255        -1.15819
LJ         -0.515617        0.260947         2.23347
LJ         -0.701266        0.794142        -1.57159
LJ           1.19569        -2.44132        0.167692
LJ          -1.59068        0.696359         1.24869
LJ          -0.21967        -2.26734         2.28738
LJ           1.98964         1.95291         2.35209
LJ          0.713179       -0.954998        -1.63291
LJ              -nan            -nan            -nan
LJ           2.15789         1.74411        -2.12876
LJ           2.27692        -2.36118         1.45109
LJ          -2.31573        -2.17955        -1.67904
LJ         -0.460238         2.48214        -1.35365
LJ          -1.98281        -2.02736         2.51813
LJ          -2.24004        -1.27252         0.85044
LJ           1.69256        -1.29038        -2.51741
LJ              -nan            -nan            -nan
LJ          -1.70332        -1.17722         1.82736
LJ           1.04253         2.05667         2.17888
LJ         -0.518706       0.0486618        0.740356
LJ           1.87495      -0.0920842        -1.19279
LJ          0.911935         1.05067       -0.651596
LJ         -0.804001        0.721525       -0.644732
LJ           1.69591       -0.115847         1.33484
LJ          -1.13773         -1.1901         1.68328
LJ              -nan            -nan            -nan
