108
#Comment!
LJ           1.33224         0.81685        -2.55275
LJ           1.40344         2.36093         1.39954
LJ          -1.47241         1.18342         2.12767
LJ          -2.30523         1.82323        0.172077
LJ           1.83032         2.29964         2.01993
LJ        -0.0316351        -1.10034        0.995239
LJ          0.305186       -0.102033       -0.316163
LJ          0.219824         1.82222       -0.304428
LJ          0.736154         2.38487        -1.52611
LJ           0.74629         1.96441        -0.85093
LJ              -nan            -nan            -nan
LJ           1.24461         1.22499       -0.244713
LJ          -2.41754        0.582071      -0.0299276
LJ              -nan            -nan            -nan
LJ         -0.294359         1.75338        0.600437
LJ              -nan            -nan            -nan
LJ              -nan            -nan            -nan
LJ              -nan            -nan            -nan
LJ          -1.44817        0.237328        -1.49281
LJ              -nan            -nan            -nan
LJ           -1.3911        -1.73867        0.774718
LJ           2.37521        0.492656      -0.0678452
LJ          -1.71291       -0.497432        -1.09644
LJ          0.452626         2.48221      -0.0774688
LJ           1.53059          1.8405         1.83607
LJ          -1.48123         1.60147        -2.03189
LJ          0.477931        0.910021        -2.31989
LJ         -0.779653        0.819935        0.495255
LJ          0.220617          1.7188         1.18505
LJ           1.47409        0.499181         2.17539
LJ              -nan            -nan            -nan
LJ          -1.63333        0.351297         1.98655
LJ              -nan            -nan            -nan
LJ          -1.26656       -0.685837       -0.603862
LJ              -nan            -nan            -nan
LJ         -0.327537       -0.461038         -1.0659
LJ           1.59234         1.03884       -0.344455
LJ          -1.24696        0.733687        -2.08547
LJ          -2.13146        0.195975        0.617738
LJ            1.8328         1.13394        -2.04035
LJ           1.36217        0.653961        -1.59272
LJ          -1.75392        -2.06273         1.54631
LJ         -0.731744         1.79128        0.788984
LJ          -2.55179        -1.19845         1.13915
LJ          -2.51391         1.60326       -0.546399
LJ         -0.121031        -1.51596        0.534751
LJ           0.52759        -1.87044        0.731152
LJ          -2.31252        -1.98092           1.077
LJ           1.23132        0.881082         1.63858
LJ         -0.899806       -0.276013       -0.183295
LJ           2.44954        -1.39091         1.38869
LJ          0.857435         -1.5359         1.89384
LJ              -nan            -nan            -nan
LJ           1.81994        -2.32109         -2.2182
LJ           2.41049        -2.15179         1.12479
LJ          -1.50589        -2.43637        -1.20783
LJ            1.9717       -0.123562        -1.96754
LJ           2.16741        -1.40492       -0.318598
LJ          -2.08122         0.16954       -0.243994
LJ        -0.0378788         1.73908       -0.615564
LJ           1.23818         2.27644         1.75695
LJ         -0.184844        0.809021        -2.35516
LJ          -2.42923        -2.10797         2.39677
LJ         -0.386571         1.20085        -2.21509
LJ              -nan            -nan            -nan
LJ           1.56295        0.871115        -2.42483
LJ        -0.0129403       -0.512795         2.55345
LJ              -nan            -nan            -nan
LJ          -2.42468        -1.64324         2.54821
LJ          -2.53181        -2.37993         2.20378
LJ           1.20051        -2.06597        0.527468
LJ         -0.758659         0.84212       -0.369171
LJ           2.10779       -0.911614       -0.427445
LJ           1.77095       -0.584696        -2.44818
LJ          -1.96617        -1.26175      -0.0734506
LJ           1.28444         2.14536        -1.97272
LJ         -0.910593         1.22289       -0.443768
LJ           1.23625       0.0684247       -0.885386
LJ          0.405329        0.297292       -0.174936
LJ         -0.156944       -0.396515         0.50149
LJ            2.1576       -0.290296        -1.46761
LJ         -0.932549       -0.315256       -0.103455
LJ          -2.40333        0.981673        0.522498
LJ           1.70707       -0.767181         1.99808
LJ          -1.47508         -2.3522         2.43955
LJ          -1.93261         1.00533         1.96205
LJ           -1.9991       -0.271752        -1.92583
LJ           1.65031         1.33784       -0.416438
LJ            1.7728        0.559521         1.36429
LJ           2.28309        -2.41649        0.190136
LJ              -nan            -nan            -nan
LJ          0.310952         0.13623      -0.0193711
LJ         -0.170048         2.52466       -0.967494
LJ         -0.770388       -0.581345        -2.00706
LJ           2.54086       -0.799114     -0.00380999
LJ           0.41217       -0.689859        0.291797
LJ           2.23221        -2.21778         1.63227
LJ          0.900435        0.399746         1.16846
LJ              -nan            -nan            -nan
LJ          -2.04589        0.787606         2.27603
LJ          0.696192          2.0774         1.38974
LJ         -0.250771         2.39477        0.463632
LJ           1.33929        0.671115         1.97549
LJ           1.52344         1.07862         2.24979
LJ              -nan            -nan            -nan
LJ           1.04341         -1.9022         2.38276
LJ          -1.68937      -0.0192396          2.0057
LJ              -nan            -nan            -nan
