108
#Comment!
LJ           1.41015        -1.68257        -2.53704
LJ         -0.730385        -1.22157         -2.0444
LJ           2.52396         -1.9605          1.3265
LJ          -2.51169        -1.29509         1.18477
LJ           1.40299        -2.37519         1.27549
LJ           1.26485         1.29264        -1.85696
LJ          0.671995         2.46749         1.42804
LJ         0.0801066       -0.641879       -0.246941
LJ          0.932321         1.88482         1.22264
LJ         -0.286148        -1.04956        -2.13827
LJ              -nan            -nan            -nan
LJ           0.24955         1.54959        -0.58749
LJ          0.214528        -1.54685      -0.0467835
LJ            1.0374         0.94127        -1.84067
LJ         -0.269214       -0.832952         1.01239
LJ         -0.706941         1.52746         1.09275
LJ          -1.45643       -0.283445        -2.15568
LJ         -0.567909        0.307613        0.954545
LJ         -0.779217         1.94408        -1.86129
LJ          -0.70053         2.18792         2.11022
LJ          0.575041         2.22061         2.47215
LJ          -2.39132       -0.852674        0.953356
LJ         -0.840149       -0.726429         1.82541
LJ          -2.56369         2.44759        0.340319
LJ          0.931415         1.15679        -1.14366
LJ         -0.742643       -0.591613         2.13918
LJ          -1.27403         -1.6955        -1.83187
LJ          0.167553        -2.19148        0.246405
LJ          0.552379       -0.300341        0.440376
LJ           2.25794           1.463         1.69538
LJ          -1.60069        -2.51351        -1.69033
LJ         -0.636468        0.540733       -0.898093
LJ              -nan            -nan            -nan
LJ           2.33571       -0.793757        0.199681
LJ           1.67455        0.711007         2.45501
LJ          0.306351         -1.0122        -1.35708
LJ         0.0717742        -1.04881        0.163535
LJ           -1.9581       -0.937114        0.119141
LJ         -0.350732         2.21439        0.649925
LJ          0.392654        -1.39066            1.71
LJ          -1.73572         2.03689        0.549351
LJ           2.16545       -0.829811        0.416447
LJ          0.594481         1.54269        -2.21144
LJ          -1.91051         1.26591        -1.42828
LJ           1.05597         1.38684        -2.10555
LJ           2.49656         1.47584         1.02544
LJ          0.395738        -2.21334        -2.12122
LJ          -1.12079        -1.14158        -2.44319
LJ           1.98224        0.855168         2.30608
LJ          -2.10593        -2.51099         1.60809
LJ         -0.307208        -1.38718       -0.214787
LJ           1.48143         2.41632        0.126071
LJ           1.84268          1.3679        -2.34456
LJ           1.94591         2.31468         1.43065
LJ          0.832109         2.56485       -0.101114
LJ         -0.857722        0.542398        -1.60872
LJ         -0.925454         2.09317        0.206453
LJ         -0.514327        -2.38008        -2.35415
LJ         -0.862593        -1.61462       -0.934959
LJ         -0.262167         -2.5106         -1.4625
LJ           1.11348        -1.07735        0.597652
LJ           1.52359         1.94625        -2.44173
LJ         -0.524155       -0.790495        -1.78495
LJ           1.56372         2.40168         2.24363
LJ           1.43575       -0.390112           2.544
LJ          0.192104        -1.37302         1.73332
LJ           1.00962        0.876401         1.15589
LJ           1.83217         2.30906        0.877036
LJ          -1.55923        -0.26519        0.098261
LJ          -2.21272        0.676512         1.51162
LJ           -1.7616        0.715534         2.02188
LJ          -1.35641         2.14131         2.48233
LJ           2.44079         -2.2811        -2.04438
LJ         -0.589854        -1.86563        -2.47444
LJ         -0.602195        0.822165       -0.441997
LJ          -1.78154         0.10625        0.420489
LJ        -0.0717318       -0.282237         0.66318
LJ          0.176352        0.855546       -0.632898
LJ          -1.46083         1.57758         1.79934
LJ         0.0467644         2.02045        0.174792
LJ           -1.7658         1.55028          1.0943
LJ          -1.71437         1.66748        0.461866
LJ           1.59656      -0.0487789        0.991031
LJ          0.317836         1.16901        0.298637
LJ           -1.4884        0.406859         1.24019
LJ           1.13295       -0.359627        -1.22257
LJ          -1.00545        0.183553         2.24877
LJ          0.908965          1.1737        -1.71146
LJ           1.02693        -1.77348        0.631077
LJ          0.590394        -1.79645        0.258699
LJ          -1.82382         2.54141        -1.43287
LJ           1.04963         -1.0863         2.15109
LJ            1.6086        -1.94118       -0.216958
LJ         -0.759622         1.61846        -1.93445
LJ         -0.315593       -0.638349        -2.43699
LJ         -0.985362        -1.47868         1.36876
LJ         -0.544018       -0.437358         1.22399
LJ          -1.40361      -0.0733979         1.43096
LJ          -2.40075      0.00111006        -1.41856
LJ         0.0433782       -0.637343        0.120188
LJ           2.52871         1.40755         1.54077
LJ          -0.45973        0.908691        -2.46153
LJ          -1.03851         1.36318         2.42817
LJ           2.36635       -0.430012        0.417331
LJ           1.21169        -1.80807         2.55016
LJ           2.16406         1.39834        -1.12981
LJ           1.19566         2.30599        -1.28696
LJ         -0.475149         1.92423        -1.74042
