108
#Comment!
LJ           2.14086         2.22017     -0.00880131
LJ          0.674625        0.178805        0.101799
LJ           1.28717        -2.51631        -2.36046
LJ         -0.485004         1.77514        -1.19562
LJ          -1.56483        -1.76673          2.1104
LJ         -0.385689         2.47519        -1.52375
LJ          -1.53657        0.695049         2.41232
LJ            2.1646         1.92701        -0.40802
LJ           -1.3749        -2.30834        0.676925
LJ           1.31888        0.150532       -0.319553
LJ              -nan            -nan            -nan
LJ            2.5403         1.93504        -1.14661
LJ           1.19954        -0.56804          2.0339
LJ              -nan            -nan            -nan
LJ            1.5648         1.19901        -2.38635
LJ              -nan            -nan            -nan
LJ              -nan            -nan            -nan
LJ              -nan            -nan            -nan
LJ           1.07232        -1.25077         1.40933
LJ              -nan            -nan            -nan
LJ          0.520585        -2.10148        -1.67163
LJ           2.26206        -1.28781        -1.76347
LJ         -0.415051        0.361466        -2.33824
LJ              -nan            -nan            -nan
LJ          -1.16051        -1.97467       -0.900937
LJ          -1.56307         1.01061         2.23602
LJ          -1.94215         2.52438          2.2439
LJ           0.92663       -0.453324         2.43771
LJ          0.188039          0.1505         2.41034
LJ          -1.90516       -0.576189        -1.48961
LJ              -nan            -nan            -nan
LJ           0.86084        0.924785        0.208645
LJ              -nan            -nan            -nan
LJ           1.84244        0.312153         2.10542
LJ              -nan            -nan            -nan
LJ          0.301337        -1.76911        -1.98962
LJ          0.819615       -0.516414        -1.99985
LJ           1.94559        0.120896        -1.31344
LJ          -2.39352       -0.681571       -0.385111
LJ           2.37675       0.0660989       -0.641618
LJ         -0.144924        -1.94722        0.481876
LJ           2.22883       -0.749344         1.71434
LJ         -0.223971        0.647951        -1.19191
LJ           1.43619        -1.49213        -1.85559
LJ           1.58324        -0.29819        0.657846
LJ          -1.66308        -2.41005       -0.993129
LJ          -1.13646        -2.21187        0.196515
LJ         -0.145439          1.2578       -0.539691
LJ         -0.547338         1.18099        -1.08841
LJ          0.612514        -1.50407        -1.43959
LJ          0.306251          1.1263        0.390024
LJ           1.03884       -0.889822         1.82803
LJ              -nan            -nan            -nan
LJ          -1.45058       -0.147353         2.54668
LJ          -1.91927         2.35251        0.812393
LJ           0.28295       0.0248505         1.94422
LJ          -2.41444         1.41156        -1.45839
LJ         -0.231987        0.823204        -2.42806
LJ         -0.983584         1.00128       -0.381453
LJ          -0.94483         1.06504        -0.94982
LJ          -2.35856         2.10729        -2.34192
LJ            1.4173         2.10155         1.20377
LJ            1.2836         -2.5584         -2.1663
LJ              -nan            -nan            -nan
LJ              -nan            -nan            -nan
LJ           1.34744        -1.65387          -1.111
LJ           1.39198       -0.681638         1.22629
LJ              -nan            -nan            -nan
LJ           1.92137       -0.183814        0.106202
LJ          0.429842         1.22761        -1.43272
LJ          0.879823         2.47954         0.61946
LJ          0.247681        -1.42772         2.41875
LJ           1.48119         2.55148        -2.53973
LJ           2.43716        -2.31635        0.881417
LJ           -1.1687        0.395946       -0.903218
LJ          0.259262          -1.257        -2.00031
LJ           -2.1867         1.50706         1.64359
LJ           1.60043        0.126555        -1.66377
LJ         -0.222924        -2.06977         2.52735
LJ          0.745101        -1.29166        -2.45275
LJ          -1.53325         1.60788        -2.49519
LJ         -0.490205         1.28036        -1.39169
LJ           1.31167         1.12594         -2.1152
LJ         -0.434719       -0.498391         2.04052
LJ           1.01342        0.204489           2.213
LJ         -0.749709        -1.10126        -1.81826
LJ           1.27014        -1.72527         1.34037
LJ          -2.55782        -1.14834         1.54311
LJ        -0.0279459         1.80684        -1.64303
LJ          -1.87761         1.63573        -2.48976
LJ              -nan            -nan            -nan
LJ           2.47457        -1.45381          1.6079
LJ           1.73202         2.29915       -0.625532
LJ         -0.181383        0.992841        -2.10454
LJ          -1.28715         2.48344       -0.478914
LJ          -2.51263        -1.24486        -0.88738
LJ           1.87299        0.591875         1.13856
LJ           1.28196        -1.07715        -1.19869
LJ              -nan            -nan            -nan
LJ          0.257753       -0.295841        0.418801
LJ          -1.78566         1.60605       -0.697385
LJ          0.874504        -1.87317         1.22096
LJ          0.467779         1.41177         1.84488
LJ           1.21627         2.12399         1.65318
LJ              -nan            -nan            -nan
LJ           1.30304       0.0686814       -0.659081
LJ          -1.58574      -0.0706265        -2.15166
LJ              -nan            -nan            -nan
