108
#Comment!
LJ           1.99857       -0.984269        -1.81311
LJ          -2.08082         1.27776         1.61064
LJ          0.732387       -0.862452         1.61894
LJ          -1.90124        -2.38129       -0.635314
LJ          -1.07647         1.59532        -2.35128
LJ           1.17373       -0.828489        -2.10743
LJ           -2.2503        0.842146         1.07238
LJ          -1.81414        -1.15419         2.01046
LJ          -1.79709          1.3226         2.52836
LJ           2.32415        0.940989        -2.53261
LJ              -nan            -nan            -nan
LJ          0.644484        -1.94526        -1.10099
LJ           1.27076        -1.34489        -1.14377
LJ          -2.26212         0.60467        0.138625
LJ          0.432514       -0.266904       -0.387676
LJ          0.670717       -0.854776         1.55714
LJ        -0.0312964         1.17742       -0.722682
LJ          -2.53782        -2.29175         0.88668
LJ         0.0630487        -1.22468        0.248755
LJ           2.07447        -1.28237        -2.14358
LJ          -0.74597         2.08257       -0.808402
LJ           1.51821         1.78705         1.11079
LJ          -1.77097         1.46296        -1.15231
LJ           1.32026        -1.75986        -2.48466
LJ           2.01585         2.39102        -1.14466
LJ         -0.747543        -1.15357      -0.0766637
LJ            1.2284        -1.86805         2.01574
LJ          -1.96514         2.09896        -2.13775
LJ           1.04907        0.814285       -0.504502
LJ          -2.16822         -2.0578         1.36641
LJ          -2.26892       0.0583519       -0.530481
LJ          -1.47198         -2.0499        0.102917
LJ              -nan            -nan            -nan
LJ           2.49271        -2.00034         1.21669
LJ         -0.589399         0.75599         2.31705
LJ          -2.35076         1.55061         1.77704
LJ           1.64458        -1.65519        -1.61756
LJ         -0.639258       -0.640489        0.993437
LJ           1.39329         1.96241         1.15839
LJ         -0.991958        -1.45452      -0.0250437
LJ           2.06604         2.16234        -1.16873
LJ           0.43515          -1.764         1.19832
LJ           1.65004         2.39061         1.39122
LJ           1.92667        0.523545       -0.899249
LJ          -2.31976        -1.86732         1.95584
LJ           1.25449         1.61288         1.36802
LJ           -1.4123        -1.10442        -1.66119
LJ         -0.277602         -2.3207      -0.0892571
LJ           0.88214       -0.297984       -0.944424
LJ         -0.162345         1.88539        0.622647
LJ           -0.3226        0.601445        0.958949
LJ          0.626122         1.72537       -0.381046
LJ          0.490124        0.270062        -1.23262
LJ         0.0839247         2.04193        -1.07785
LJ          0.421407         1.07599        -2.06949
LJ           -1.9337        0.420114        -1.07109
LJ            2.2079         1.70744         1.76816
LJ           1.76205         1.16992         2.10528
LJ          -1.94744       -0.324964         2.44915
LJ           2.17165         1.20094        -2.37106
LJ          -1.72069        0.847078         -2.2246
LJ          -1.74441         1.83094        -2.53278
LJ          -1.51888         1.67311       -0.929643
LJ           1.79032         2.12956        0.169807
LJ          -2.48243        -2.49918       -0.756113
LJ           1.87251        -1.59131         2.41025
LJ         -0.290574       0.0668539       -0.709075
LJ          0.510145        -1.02791        0.231796
LJ          -1.08855        -1.92583        -1.96333
LJ           1.24737        0.743482         2.36708
LJ           1.73022        0.273064        -1.79007
LJ          0.160358        -1.31658         1.39959
LJ          -1.70781        0.255208       -0.714446
LJ          -2.50096         2.11507        0.779118
LJ          -1.41073       0.0915231        0.571245
LJ          0.358449       -0.907369         1.62486
LJ           1.69661        -1.80013         0.91768
LJ          0.457275        -2.24881        -0.88396
LJ           2.56055        -2.50008        -1.51086
LJ           2.02826       -0.449706         2.54039
LJ         -0.134191        0.869811         2.44654
LJ         -0.281197         1.83308        -2.18581
LJ        -0.0507631       -0.357963        -1.45942
LJ          0.703605        0.219593        -1.26996
LJ           1.52796        0.673273        -1.91167
LJ          -1.22718        -1.49505        -2.54983
LJ         -0.452918        0.320296         1.83337
LJ        -0.0070613         1.50435        0.912772
LJ          -2.09085     -0.00885325        0.241302
LJ         -0.556607         2.37516         2.32055
LJ          -1.41249         2.32429         1.81678
LJ          -1.68451        0.362167         1.01742
LJ         -0.723012       -0.442997        -2.33899
LJ           -1.6239         1.88865        -2.55682
LJ          0.727591         1.93108         1.58157
LJ           1.00842       0.0736418        -1.82794
LJ          0.735374        -1.00483         2.12217
LJ           1.37157        -1.47943        -1.00134
LJ        -0.0716593        0.501937         2.07935
LJ          -1.94545         1.03594       -0.276566
LJ          0.647569         1.52186       -0.365501
LJ           1.88483       -0.515973        0.361708
LJ          -1.92883        -1.71714         0.14193
LJ           1.69625        -2.37214         2.14642
LJ           2.28053         2.26454        -2.42137
LJ           1.32338         1.42025        -1.04847
LJ         -0.834545        -1.84693        0.882757
LJ         -0.733712       -0.311707        0.128187
