108
#Comment!
LJ          0.809187        -2.35313       -0.728179
LJ          -1.41754       -0.174842         2.43191
LJ           2.49371        -2.13335         1.36441
LJ           2.36525        -1.12068        -1.42009
LJ           2.47644        0.274671         1.69984
LJ           2.25863        0.283789         2.23451
LJ          -1.41844         1.86451        -1.82964
LJ          -1.97171        -2.52139         2.29528
LJ          -2.32693        0.761331        0.157734
LJ           1.26529        0.517734        0.449163
LJ              -nan            -nan            -nan
LJ           1.70106         2.38795         1.75013
LJ         -0.478102         1.36857        -1.03629
LJ           2.20354         1.68633         1.21856
LJ           1.04217        0.526127         1.68877
LJ          0.200658        0.324071        -2.03235
LJ         -0.245786         1.48999         1.61539
LJ          -1.06336        -1.15889         2.42317
LJ          -2.33581        0.777186        0.384016
LJ         -0.343044        -2.30675        0.451132
LJ           0.33905        -1.27581          2.5404
LJ          -2.23061        0.661562        0.439721
LJ         -0.722248        -2.52751        -2.26298
LJ          0.526179         2.53736       -0.845212
LJ          0.459842        0.825772         1.98075
LJ          0.699915        -1.23166         2.44447
LJ          0.273141       -0.513806          2.3884
LJ          -0.58161        0.679561        -2.11856
LJ           1.06694        -1.00293        -1.44236
LJ           2.24388        -2.26159        -1.85867
LJ          0.401533        0.653303         2.13751
LJ          0.179846        0.681928       0.0480696
LJ              -nan            -nan            -nan
LJ           1.47345         1.62562        -2.04989
LJ          -2.24349         1.08966         2.32055
LJ          -1.94285       -0.255214       -0.618949
LJ           2.04794        0.716119         1.83868
LJ         -0.153857         -1.9129         1.51429
LJ           1.92317       -0.800472        -2.32244
LJ          0.700558        0.954475         -1.1988
LJ        -0.0680037       -0.267774        -1.10617
LJ          -1.35419        0.902988        -1.71809
LJ          0.943531        -2.00516        -1.13098
LJ          -2.45385         1.18246          0.5481
LJ           1.24959         1.66926         2.56332
LJ          -1.62706        -1.49695        0.682716
LJ         -0.963109         1.50351        0.485404
LJ         -0.465056        0.535902       -0.134106
LJ          -1.66575         -1.2479        -1.18538
LJ           2.54778         2.48891         2.28967
LJ           1.34201         1.08745         1.70535
LJ          -1.23679         1.87149         2.17084
LJ          -2.20762        -1.90656        0.794536
LJ           2.32801        -1.92594       -0.503983
LJ         -0.940591         0.66217          1.7522
LJ          0.838012        0.499177       -0.867011
LJ         -0.269966         1.48916         1.11838
LJ           0.14159        -1.90855        0.946751
LJ           1.97592         1.83738         1.41231
LJ          -1.49995          2.3759        -1.59907
LJ           -1.9029        0.463951         2.50345
LJ          -1.14897         1.48452         1.53879
LJ         -0.408448         1.30555        -2.54186
LJ          -1.06861         1.40993         1.69078
LJ          0.748957        -1.31498       0.0640288
LJ           2.41439        -1.99298        -1.90958
LJ          -2.23093        0.243353       -0.575955
LJ          -1.96158        -1.07236        -2.40712
LJ         -0.623861       -0.521401       -0.389224
LJ          -2.27467        -2.47298        -1.74218
LJ         -0.942931        0.971901       -0.680526
LJ         -0.126225        -1.10897       -0.252622
LJ           1.61053        0.287821        -1.22686
LJ           2.38178         2.04847        -1.80169
LJ            1.0927       -0.730199        0.786945
LJ           1.48982       -0.880792         1.85742
LJ           -2.5204        -1.07652         1.14303
LJ         -0.975591         2.37976        0.780696
LJ           1.97486       -0.462274         2.39816
LJ          0.200227         2.34476         2.34071
LJ          0.732802         1.81136      -0.0755079
LJ          -1.65565        -1.05876        0.437732
LJ           2.41459         1.69142         1.90168
LJ         -0.444269        0.250261        -1.77775
LJ           1.59094        -2.54806        -1.35634
LJ          -0.48847          1.9703         1.86082
LJ          -2.40685       -0.341451        -1.57608
LJ          -1.14504       -0.134895        0.752932
LJ          0.692235        0.666581         -1.4833
LJ          0.710124      -0.0130106     -0.00156774
LJ           1.16155         1.62642         1.25903
LJ           1.77366         -2.1087        -0.33785
LJ          -2.20854       -0.789674         1.69586
LJ          0.440519       -0.840213         2.00016
LJ          -1.14957        -2.08855        0.404741
LJ          -1.18015         2.31012       -0.781423
LJ          0.561751        -1.58959         1.20356
LJ          -2.54639        -1.44389         1.27489
LJ           2.37241        -1.16944        0.855031
LJ           1.91036          0.7724       -0.942165
LJ         -0.264895        -1.73292         1.03385
LJ          -1.04135        0.840311       -0.327676
LJ         -0.441901         2.08549         1.64304
LJ           1.78318        -2.49907        -0.66681
LJ           1.45229       -0.969576         1.50855
LJ          -1.11649       -0.680053       -0.694577
LJ           1.95359        -1.55808       -0.444788
LJ          -1.34232         0.95491        -1.63346
