108
#Comment!
LJ          0.853713         1.33071        -1.71847
LJ          0.858612        -1.82281        0.448394
LJ          -2.27761          2.0122         1.01655
LJ           -2.0657       0.0666846        -2.36173
LJ          -1.91791         1.76143         1.69283
LJ          0.964104       -0.100284          -2.264
LJ          0.852702        -2.25541         2.26807
LJ           1.95895       -0.805196        0.724343
LJ         -0.252279        0.197855       -0.616891
LJ          -2.02181       -0.731168       -0.362654
LJ              -nan            -nan            -nan
LJ            1.4058         1.53619        0.344726
LJ          -2.47927        -2.08391        -1.57407
LJ          0.542876        -1.27617         1.81999
LJ          -1.46729         1.62197       -0.548203
LJ              -nan            -nan            -nan
LJ              -nan            -nan            -nan
LJ              -nan            -nan            -nan
LJ           2.34443       -0.619831         -2.4008
LJ              -nan            -nan            -nan
LJ          -2.19312        -2.11048         2.38676
LJ           1.40329        -1.44269       0.0564649
LJ         -0.735421        -1.35149        -1.39851
LJ          0.223264         2.22213       -0.872589
LJ        -0.0709054         1.46162         1.54684
LJ           1.38884         2.12487       -0.989855
LJ           2.01129         0.96581         1.09614
LJ           1.83621        -2.21351        -1.32216
LJ          -2.06373        -2.29962      -0.0151404
LJ          -1.50473         2.07839        -1.87309
LJ          -1.05185       -0.611591        0.901272
LJ         -0.876388       -0.406563         1.74707
LJ              -nan            -nan            -nan
LJ          -1.35103        -1.87435         1.44129
LJ              -nan            -nan            -nan
LJ           1.57973        -2.55137         1.94669
LJ           1.77284        0.843271        -2.26413
LJ           2.45734        0.559683        0.561378
LJ          -1.98024       -0.551094        0.114791
LJ          0.854368        -1.93469         2.19212
LJ           2.51807        -1.37708        0.509514
LJ          0.991186         1.67559        -1.16391
LJ           1.65757         2.51324        -1.15488
LJ           1.03059         1.71551         2.47191
LJ           1.29035         2.03458        0.480778
LJ           2.56338         1.64118         2.22359
LJ           1.43376          1.2819       -0.351083
LJ         -0.258197         1.62244       -0.718977
LJ           2.35091         2.35711       -0.275016
LJ         -0.322528        0.663161        0.307558
LJ           1.38592        -2.43228         1.40246
LJ         -0.992128       -0.436667       -0.780235
LJ              -nan            -nan            -nan
LJ          -2.20413         1.46921       -0.644639
LJ           2.22894         2.09927        -1.47528
LJ          0.290089         1.39857         2.01976
LJ          -1.93239         1.76919        -1.14571
LJ          -0.88169       -0.557451        0.111081
LJ         -0.652667          2.2114       -0.915484
LJ            1.4119        -1.93077         2.21732
LJ            2.4059         0.33644       -0.379179
LJ         -0.951812         1.93726         2.16038
LJ          -2.15798         -1.7576       -0.367645
LJ           1.32969        -2.55926         -1.5546
LJ           1.48816        -2.33388         1.71372
LJ          -2.05201        0.488185         1.04641
LJ          0.590921          2.4825         1.72237
LJ              -nan            -nan            -nan
LJ           1.86231       -0.304535        -1.22727
LJ           1.57799       -0.170131        -1.68394
LJ          -1.60997       -0.709078          2.1549
LJ           1.37255         1.91111        -1.65093
LJ         -0.904168       -0.728294        -0.46385
LJ          -1.65711         1.52073         2.27588
LJ           1.72338        0.264549       -0.111859
LJ          0.967955         1.58191       -0.493721
LJ          0.597807        0.586022        -1.21044
LJ         -0.447471        0.079134           2.158
LJ         -0.730436        0.558664      0.00756586
LJ           2.29469         -1.0428       -0.590839
LJ           1.01618         2.42132          1.0663
LJ          -1.06668           1.471         2.07524
LJ           0.10973        -1.55485         1.11021
LJ        -0.0219131        -1.50018         1.05758
LJ          0.107134        -1.61155        0.305149
LJ          -1.00198        0.320033        -1.47778
LJ          -0.28416       -0.811394        -2.24761
LJ         -0.658394        -1.76619        0.183534
LJ          -2.35756       -0.980904        0.343098
LJ          -2.39059       -0.788684        -1.45578
LJ              -nan            -nan            -nan
LJ          -1.86532         2.40981        0.442627
LJ          0.901005         1.63701       -0.342909
LJ           1.99806         1.66475        0.668524
LJ         -0.298338        -2.20067        0.484462
LJ           2.51407         1.44666        -1.00287
LJ         -0.475475        0.527653       -0.187496
LJ          -1.44585        -1.63657        -1.88008
LJ              -nan            -nan            -nan
LJ          0.734987        -1.22095        0.905257
LJ           0.30333         1.57947        0.465448
LJ            1.9817        -2.04575        0.685769
LJ          -0.71455      -0.0747898       0.0573548
LJ          -1.84086          1.8504        -2.35331
LJ           2.38025        0.237469        -0.12625
LJ          -1.39216        -1.86136        -1.51213
LJ          -2.27772        -2.33886        -1.19075
LJ              -nan            -nan            -nan
