108
#Comment!
LJ         -0.966671        -1.84031          1.1939
LJ           1.91992       -0.144613        -1.08263
LJ          -1.32812         2.55805        -1.94165
LJ          -1.35904       -0.847467        -2.47618
LJ            1.4263       -0.712261       -0.732705
LJ           2.36099       0.0216956        0.752641
LJ           1.41227       -0.416497         2.32468
LJ         -0.920488         1.05411      -0.0759532
LJ          -1.37904        -2.34258        -1.68802
LJ          -1.31291       -0.765148        0.703272
LJ              -nan            -nan            -nan
LJ           1.03968        0.475834        -1.53598
LJ          0.224619        -2.01923        -2.45227
LJ          0.156328      -0.0602194       -0.355391
LJ         -0.702641       -0.666981       -0.220378
LJ          -2.44726         2.18963        -1.58242
LJ          -2.46077        -1.17727         1.90411
LJ         -0.876019        -1.23715        0.530202
LJ         -0.888641         1.61917        0.805851
LJ         -0.401349         1.78127         2.42647
LJ           1.50528        0.965021        -2.31919
LJ          -1.67514        -1.82245        0.232384
LJ           1.85471        0.890315        0.371079
LJ         -0.404135        0.172506        0.145968
LJ         0.0969043        -2.21303         1.62909
LJ         -0.302207        -1.77951         0.49525
LJ          0.995361         2.38829        0.307524
LJ           2.32544        -2.09899        0.887213
LJ           1.69085         2.21618        -2.40544
LJ           1.95829        -2.04963         1.18643
LJ           1.82448       -0.636858        -2.24592
LJ           2.37617         1.04772       -0.912765
LJ              -nan            -nan            -nan
LJ         -0.793474       -0.376859        -2.25276
LJ         -0.481399         1.34542        0.125727
LJ           2.32448          1.7651        0.145441
LJ          0.631057         1.30373       -0.310423
LJ          -2.49911         1.61906          1.8737
LJ          -1.72541         1.59689         -2.3915
LJ          -1.27828        -1.04474         1.17144
LJ         -0.373975        -2.15737       -0.209592
LJ           2.35349        -1.94823        0.997684
LJ          -0.46063       0.0440552         1.64143
LJ          -2.52934        -1.09124         2.27767
LJ           1.80622         1.98901       -0.174445
LJ             1.738         2.25536        -1.65839
LJ          -2.31394         1.89343         1.05188
LJ         -0.657581        0.159911       -0.135477
LJ          -1.63215       -0.780976         1.39265
LJ          -1.59779       0.0211864        0.593807
LJ          0.989404        -2.39517        0.979601
LJ         -0.283176        0.909106         -1.4995
LJ          -1.66067        0.280181        -1.87358
LJ             1.104           1.193         1.01112
LJ         -0.718876        0.313124        -1.28867
LJ          -2.47525        -2.05788        -2.50605
LJ          0.784347        0.633932         1.47887
LJ          0.109462        -2.04014       -0.448088
LJ           2.49098        -2.10411         1.56331
LJ          -2.18843        0.358442       -0.998321
LJ          0.689023        -2.51695        -2.39953
LJ          -2.23665         2.02929        -1.83412
LJ         -0.313904        -2.12965         -1.7386
LJ         -0.320195       -0.634042        0.844053
LJ        -0.0289594        0.605894        0.232946
LJ           2.15782       -0.942466        -1.03183
LJ          0.240683          1.4953        -1.96044
LJ          0.878543        -1.41049          1.4557
LJ           1.55348        -1.33597      -0.0577509
LJ         -0.482914        -1.97701        0.788011
LJ          0.631895       -0.627531        0.248699
LJ            1.8829        -1.01486         1.21373
LJ         -0.380968       -0.437994          1.7738
LJ          0.527776         1.26532         2.36512
LJ           2.10036         1.06591        -1.87328
LJ         -0.873913        -1.82757        -2.41635
LJ          -0.67073         2.39756         1.44505
LJ          -2.01455        -1.65452        0.288917
LJ          -2.40024        0.303928        -2.19125
LJ         -0.321631      -0.0748657         1.78708
LJ          -2.36335       -0.179166       -0.386189
LJ           1.84376       -0.906784        0.157138
LJ         -0.567507        -1.89059        -2.20517
LJ          -1.24494        0.956929       -0.375155
LJ           1.37688         1.01305       -0.647135
LJ         -0.208169        -1.18414         0.88221
LJ           1.83842         1.01225         1.84886
LJ          -0.86905        -1.30095       0.0322897
LJ           1.02558       -0.423399        -2.40594
LJ          -2.21592        -1.91407       0.0632454
LJ           1.56027        -1.90513        0.662873
LJ           1.52533        -1.99813          1.4402
LJ            1.2247          1.2107       0.0168474
LJ           1.70428        -0.69079         2.55086
LJ         -0.703437         2.33049         2.51078
LJ           1.94543       -0.234362         1.03355
LJ           1.68241        0.314824       0.0354999
LJ           -1.7686        -0.28501        0.960589
LJ          0.959866        -2.55069         2.07482
LJ          -2.24775         1.41748         1.02456
LJ           -2.5312        0.876059        -1.97465
LJ         -0.913652        0.122766        0.451523
LJ          -2.40353       -0.571862        0.807655
LJ           -1.7477         2.45751        0.706928
LJ          -1.46909       -0.851037        -1.22421
LJ          -1.20468         2.06608        -2.19914
LJ           -1.8957        0.511103         -1.5184
LJ          -2.29513        0.772008         1.01571
