108
#Comment!
LJ          -2.26623         2.18397          1.3689
LJ           1.04921        -1.20542        -0.27398
LJ         0.0953444       -0.591016        -1.01563
LJ          -1.21318       -0.220249       -0.398052
LJ          0.701182          2.5104         1.85564
LJ           -1.6504       -0.329306         2.03473
LJ          -1.88509        -1.93708         2.11089
LJ          -1.63752          1.4072       -0.908986
LJ            1.7903        0.163939        0.497982
LJ          -1.53026         -1.7007      -0.0818041
LJ              -nan            -nan            -nan
LJ          0.801471          1.8167        0.280546
LJ           1.43747         1.28077       -0.536632
LJ          -2.16124        -1.58661       -0.207585
LJ          0.127137         2.04842        -0.50547
LJ          0.699156         2.43815       -0.750994
LJ              -nan            -nan            -nan
LJ              -nan            -nan            -nan
LJ           1.77151       -0.800593         1.33908
LJ              -nan            -nan            -nan
LJ          0.765676        -2.11862        -0.56078
LJ          -2.03105         1.89905       -0.506339
LJ           2.53007        -1.48885        0.202759
LJ         -0.148524         1.36902       0.0786374
LJ           2.06651         -1.8177         1.10235
LJ         -0.788116         1.50201         1.56174
LJ          -1.58733       -0.590554        -2.04081
LJ         -0.262921       -0.654754        -2.05094
LJ          -2.40948         2.26252        -1.36422
LJ          0.198367         1.40719         1.81799
LJ          -1.56887        0.518748      -0.0539892
LJ         -0.107446         1.34898       -0.712833
LJ              -nan            -nan            -nan
LJ         -0.447708         -1.2721         2.29608
LJ              -nan            -nan            -nan
LJ           2.14163       0.0793474        0.559865
LJ         -0.978706      -0.0444542        -1.14771
LJ          -1.83998         1.75681       -0.417512
LJ          -1.67699       -0.964892         1.49621
LJ         -0.565425       -0.137658         2.21322
LJ           1.64491        0.696844        0.493091
LJ           1.98246         1.92209         2.33589
LJ          -2.30012       -0.755407        -1.71326
LJ          0.680603         1.67735        -1.41074
LJ          0.775524        -2.31275        0.508731
LJ          0.767276        -1.32239         1.03734
LJ          0.320691        0.570675         2.11327
LJ         -0.917196        -2.51471         0.57505
LJ           2.52037         1.96142        -1.27118
LJ          -0.77045       0.0958121         2.04165
LJ           2.00215         2.24813         1.08249
LJ         -0.920234        -1.00574        -2.03333
LJ              -nan            -nan            -nan
LJ           1.75379       -0.132119        0.802428
LJ           2.27192         1.88096        -1.24707
LJ          -1.69998        -1.15969        -1.30337
LJ          -2.33921         1.96149         1.36962
LJ           1.86965       -0.234208        -1.82616
LJ         -0.989165       -0.522316         0.62241
LJ        -0.0533923        -1.02838       -0.754279
LJ          0.200973        -1.82483        0.927293
LJ          0.245212        -0.26986         1.01633
LJ         -0.923913       -0.868071        0.696842
LJ          -1.50569        0.749694         1.87506
LJ           2.53526       -0.601245        -2.48078
LJ           1.26221        0.200312        0.851471
LJ          -1.14034        -2.18686        -2.45379
LJ              -nan            -nan            -nan
LJ          -2.41218       -0.298802          0.9159
LJ          -2.21961        0.741103        -2.34958
LJ           2.19617        -1.59971       -0.162087
LJ           2.09859       -0.656188         2.54186
LJ         -0.798111         1.20861        0.128522
LJ          -0.67629        0.454282        -1.75573
LJ           1.71002         2.00119         1.65985
LJ          0.782419       -0.654888        0.263542
LJ            1.9658         -1.2546        -1.34458
LJ         0.0959698         -2.0022         1.68772
LJ          0.338859        -2.09441         2.28997
LJ         -0.407334          1.7708       -0.189939
LJ          -1.19098       -0.745246         2.00879
LJ           1.96273         2.14389         1.51057
LJ          -1.73432        -1.80809         2.37695
LJ         -0.832024        0.412879        -1.44094
LJ          0.841158       -0.325552        -1.68191
LJ           2.52101        -2.04407       -0.712779
LJ           -1.0601        0.688009         1.47839
LJ           1.72842        0.736914         2.48881
LJ          -2.01297          1.9599         1.46459
LJ          0.662202        0.511813         1.09866
LJ              -nan            -nan            -nan
LJ           2.55151        -1.38358         -0.3112
LJ          0.864716        -1.68006        -2.40072
LJ          -1.79544       -0.891008        -2.29541
LJ          -2.48771         1.04813        -2.55476
LJ         -0.860977         2.00866        -2.07638
LJ           1.80812        -2.37405         1.16735
LJ         -0.350313          0.4935       -0.535114
LJ         -0.464871         2.40138        -1.13419
LJ          -2.21449        -1.12777       -0.177978
LJ           1.40279          1.9182        -1.49317
LJ         -0.589738        0.992539        0.439952
LJ           2.22623       -0.918732        -1.87785
LJ         -0.797724        0.962376        -2.28703
LJ          -1.96511     -0.00890607          2.4268
LJ           1.67698         1.39592       0.0314187
LJ          -1.35519        -2.21786       -0.140038
LJ              -nan            -nan            -nan
