108
#Comment!
LJ          0.665314       -0.973694         1.79057
LJ         -0.774053        -1.82264        0.445171
LJ          0.640439        -2.33075         -1.9598
LJ          -2.26128       -0.382079        0.483077
LJ         -0.684343       -0.712863        -1.30725
LJ          0.502342       -0.222727          2.3571
LJ           -1.8581        -2.12102           1.592
LJ        -0.0460453        -0.48885        -1.24626
LJ            2.1401        -2.17444        0.690169
LJ           -2.3051         1.03092       -0.630866
LJ              -nan            -nan            -nan
LJ          -2.56078         -2.2095       -0.694662
LJ        -0.0650518         2.02576       -0.121736
LJ          -2.32212         2.52479       -0.827158
LJ          -2.12294         1.72622       -0.438178
LJ          0.319901         -2.2954        0.759778
LJ              -nan            -nan            -nan
LJ              -nan            -nan            -nan
LJ          0.536099        0.692074        0.137324
LJ              -nan            -nan            -nan
LJ           1.92787         1.02148        -0.69819
LJ          -2.38701        -1.80516        -1.27413
LJ          -0.59178        -1.74535       0.0799928
LJ          0.371589        -2.40373        -2.11586
LJ          -0.22678         1.83929      -0.0509637
LJ           -1.8283       0.0420725        -0.43144
LJ          0.280601       -0.415068         1.68762
LJ           1.50588        -1.34527        -1.89922
LJ          0.649639        -1.22169        -2.43385
LJ           1.93975        0.260219         1.06335
LJ          -2.39846        0.965919       -0.507459
LJ          0.690785       -0.662973         1.14021
LJ              -nan            -nan            -nan
LJ            1.4104       -0.853004         2.25197
LJ              -nan            -nan            -nan
LJ          -1.40332        0.332621        -1.88077
LJ         -0.407461        -1.64888         2.05221
LJ           1.43032         1.02727       -0.141333
LJ           2.51078         0.67322       -0.740528
LJ          -2.10094        0.879994        -1.39116
LJ           1.04321        -0.49763         2.19227
LJ          -1.98624         1.54988       -0.900819
LJ           2.14624        0.389167        -1.15634
LJ        -0.0383777        -1.04687        -1.51169
LJ          -1.85001          1.3868        -2.50891
LJ          -1.11698        0.920806       -0.029743
LJ          0.851608       -0.879298        0.197858
LJ          0.411809        0.220206         2.01551
LJ          -0.76112         -1.9704         1.87937
LJ           1.03289       -0.677206         1.83918
LJ          -1.98586         1.22108        0.920187
LJ           2.31688        0.673273         1.00995
LJ              -nan            -nan            -nan
LJ           1.52127       -0.837855        -1.05486
LJ           1.04884        -2.32191         1.58689
LJ          0.111809        -1.67633         2.17942
LJ          -1.40374        0.166221        -1.98205
LJ         -0.350674         2.50934         1.69437
LJ           1.96678       -0.661898        0.589851
LJ           0.80391        -2.29055       -0.867738
LJ           2.52702        -1.99646       -0.961352
LJ           2.51709          2.2314         1.32709
LJ          0.603191       -0.955377       -0.661494
LJ           1.15682         1.69827         -2.3446
LJ         -0.686108        0.343629        0.487783
LJ           1.90835        -1.05701       -0.376315
LJ           2.45551         1.93468         -2.3799
LJ              -nan            -nan            -nan
LJ         -0.636316        -0.62805        0.373592
LJ         -0.880313         1.80113       -0.214071
LJ         -0.659625        0.936341         1.95509
LJ         -0.259088        -1.14156        0.193395
LJ          0.694586         1.99015        0.690055
LJ          0.875744        0.616716          1.5291
LJ           1.83552        -1.34562         1.43563
LJ           -1.0949         1.29777        0.748115
LJ          -1.76461        0.086517         2.45854
LJ          0.881864         -2.0433        -1.37112
LJ           1.16273       -0.789341        0.688635
LJ          -1.93478         0.14613        0.400088
LJ           0.77303       -0.854891        -2.46587
LJ          0.232763        -1.17773         1.66923
LJ          -2.47641        -1.64581         2.11859
LJ           1.35967         2.12831         1.99849
LJ         -0.444371        -1.25716        -1.38326
LJ            2.1364         2.41961        0.721874
LJ           1.91444         1.52257         2.40467
LJ           2.38716       -0.040777        -2.06983
LJ           1.22358        0.268334        -1.28985
LJ          -1.31643        -2.10011       -0.418798
LJ              -nan            -nan            -nan
LJ           0.34826       -0.139371         1.64069
LJ         -0.403771        -1.89213        -1.48873
LJ           2.23961      -0.0914681         1.30831
LJ           -2.4305         2.47217       -0.878451
LJ         -0.469246        -2.38071        -1.66851
LJ          0.966094        -2.45255         1.91185
LJ           0.54153         2.27996       0.0114256
LJ           2.08007         1.43896         2.30344
LJ          0.277237       -0.684011         2.22334
LJ         -0.293879         -2.3284        -2.14379
LJ           1.70058         -1.3056        0.469883
LJ          -2.38958         1.70735        -0.46828
LJ          -1.55121       -0.496788         2.33669
LJ          -1.03727       -0.484672        -0.43405
LJ          0.392532        -1.00771         1.05417
LJ           2.33814        -1.74699       -0.994256
LJ              -nan            -nan            -nan
