108
#Comment!
LJ           1.04434         2.27162          1.0299
LJ            1.1647       -0.712123        0.548785
LJ          -1.63117        -2.15546        0.139253
LJ          0.230153         -0.2042          2.4575
LJ         -0.517973         1.54141         2.34545
LJ          -2.33015        -1.98176        -1.53583
LJ          0.296715         2.39806         1.25007
LJ           1.22257         1.06498       -0.313779
LJ         -0.227266       -0.761081        -1.87772
LJ           2.42989         2.49027         0.46866
LJ              -nan            -nan            -nan
LJ           -1.1425        -1.55502        -1.77491
LJ            1.4755        0.879764       -0.311645
LJ              -nan            -nan            -nan
LJ          0.924774         1.50229         0.20198
LJ              -nan            -nan            -nan
LJ              -nan            -nan            -nan
LJ              -nan            -nan            -nan
LJ           1.92217         2.44106         1.55889
LJ              -nan            -nan            -nan
LJ         -0.875417        -2.32944          1.0754
LJ           1.11763        -2.35367         2.05211
LJ          -2.25187        -1.15674       -0.285555
LJ           1.96159        -1.01101       -0.275546
LJ          -1.85395      -0.0406616        -2.04545
LJ           -1.1688         1.82158         2.29344
LJ          -1.75066        0.999973        -1.13345
LJ         0.0510187        0.537395        0.262922
LJ         -0.520691         2.43273        -2.11447
LJ          0.833121         1.34004        0.459669
LJ              -nan            -nan            -nan
LJ          -1.34415       -0.806961         1.08689
LJ              -nan            -nan            -nan
LJ           1.13693         1.75033       -0.742103
LJ              -nan            -nan            -nan
LJ           1.86998       -0.711633         1.94417
LJ          -1.60183         2.12082       -0.131627
LJ          0.939799         2.06824       0.0206877
LJ          -1.12773       -0.178197       0.0571568
LJ          -1.36125        -1.40185         1.87978
LJ          0.931078         1.29468        -1.20568
LJ         -0.349752        -1.56468        0.316516
LJ         -0.188124        0.944166       -0.163182
LJ          -1.01403         1.94442         2.10658
LJ          -2.13001        0.652628        -0.73911
LJ          -1.06068       -0.430948          -2.079
LJ           2.29218        0.329179         1.06629
LJ           -2.1116         2.06836       -0.898536
LJ           1.10397        -1.47926         1.48589
LJ           1.51853       -0.435812         1.78283
LJ          0.535715        -1.65395         1.30128
LJ          -0.26879        -1.30243        0.884474
LJ              -nan            -nan            -nan
LJ          0.710901         1.50909       -0.746849
LJ          -1.09049        -1.60308        -1.51657
LJ           0.76214       0.0098633         1.64376
LJ           1.83387        -1.15747         2.43455
LJ           0.91392       -0.698984       -0.842408
LJ          -1.17298         1.24406         1.88865
LJ          -0.50425        -1.77937         1.21435
LJ           1.63146        0.665744       -0.746748
LJ            1.2162         1.80481         1.77475
LJ          0.688754       0.0388617         1.89977
LJ          -2.51424        -2.23163        -2.51233
LJ              -nan            -nan            -nan
LJ           1.85482        -2.42044        -2.40341
LJ          -2.14767        0.854906         1.86812
LJ              -nan            -nan            -nan
LJ             1.426       -0.918075         2.14221
LJ           1.65831         1.33673        0.444609
LJ          -1.34139         1.11892       -0.368771
LJ           1.89661         2.25924        -1.06907
LJ         -0.797211        0.123355        -1.24479
LJ          0.490128        -1.72629        -1.42874
LJ           1.18689        -2.44286         2.20484
LJ           -0.4654       -0.969214         2.08873
LJ         -0.463409         1.77818        0.661058
LJ          0.195896        -1.97631         1.03708
LJ         -0.877962        0.519209         1.66935
LJ           1.51949       -0.959768         0.84749
LJ           2.29788       -0.682006         2.21477
LJ           2.26662        -1.81227        0.302235
LJ          -2.08509         -1.8422        -2.41012
LJ            2.1692       -0.958613         2.30796
LJ           1.49255           2.482       -0.157402
LJ          0.952415       -0.301635        -1.57973
LJ           2.39831        0.484192         2.48252
LJ           2.48307         0.19772        -1.08894
LJ           1.05517        0.544702        0.236803
LJ          -1.41322        0.743931        -1.57924
LJ              -nan            -nan            -nan
LJ           2.17101       -0.331901       -0.540054
LJ          -1.73093        0.356152         0.11149
LJ           1.34824        0.303171        -0.10865
LJ           2.40384       -0.581721        -1.45539
LJ          -1.07935         1.90578        -2.10587
LJ          -2.44944       -0.206371        -2.27276
LJ          -1.39071        0.487654         2.53646
LJ              -nan            -nan            -nan
LJ           2.43888        -1.50016       -0.492214
LJ          -2.19691        0.868961        -2.29522
LJ           2.44371       -0.634666        -1.04422
LJ           1.57439        0.123979        -1.39154
LJ          0.786757         -2.2148       -0.515182
LJ              -nan            -nan            -nan
LJ         -0.698158       -0.980958          -1.154
LJ         -0.887787        -0.54733       -0.416625
LJ              -nan            -nan            -nan
