108
#Comment!
LJ           1.55244        0.151495        -1.76445
LJ          0.186087         1.74195          2.4325
LJ          0.573149         1.48354        0.801317
LJ           1.47417         2.17828        0.970715
LJ           1.32393         -2.2643         2.01092
LJ          -1.55702        0.704672        -1.09422
LJ          -2.18658         1.07858         2.12173
LJ           -1.2335        -1.78967         1.59458
LJ          -1.89325         2.40567          1.9488
LJ          -1.39191        -1.60302         2.11962
LJ              -nan            -nan            -nan
LJ            1.5581        -2.18706        -1.26266
LJ          -1.65047         2.02067        0.907728
LJ        -0.0807279        -1.02773         1.99147
LJ           1.02803        -2.17258        -2.22792
LJ              -nan            -nan            -nan
LJ              -nan            -nan            -nan
LJ              -nan            -nan            -nan
LJ           1.26118         2.21501        -1.38739
LJ              -nan            -nan            -nan
LJ           -1.9651         1.15901         1.14432
LJ          -2.48079        -1.76238         0.59888
LJ          0.568323       -0.506992         1.58798
LJ          -2.18638           2.185        -1.58716
LJ            2.0427         0.83737       -0.265485
LJ           1.74959     -0.00175709         2.30975
LJ           2.18861        -1.61249         1.59037
LJ           2.36779        0.784761         1.33415
LJ           1.20173        -1.60901        0.433198
LJ         -0.662833         1.07939        -2.39265
LJ          -2.23548       -0.888164       -0.424592
LJ          -1.28809         2.09712        0.666568
LJ              -nan            -nan            -nan
LJ        -0.0647701         1.52445        0.621943
LJ              -nan            -nan            -nan
LJ          -1.82937         1.93971         2.36496
LJ          -2.17337        0.214781        -1.20252
LJ           1.49296       -0.193759       -0.134217
LJ         -0.878704        -0.14625         2.28379
LJ         -0.620071         2.24274        -1.30192
LJ         -0.920603       -0.712069        0.778182
LJ           1.04918          1.1757        -1.48927
LJ          0.541564         0.10022        0.323147
LJ            2.4656        -1.30556        -2.05421
LJ         -0.118753         1.00637         2.30938
LJ          -1.99746        -1.10664       -0.251239
LJ           1.93482        -2.51764        -1.96823
LJ          0.364228        -2.27245          1.7339
LJ         -0.366084         1.60783        -1.48945
LJ          -1.67535        0.556455        0.213847
LJ          -1.59966        -0.06385       -0.777801
LJ          0.752831        0.578495         1.03849
LJ              -nan            -nan            -nan
LJ          0.514344        0.876255        -1.24111
LJ           -1.6362        -1.25614        0.106681
LJ         -0.556654         -1.9317        -1.84039
LJ         -0.792832        -1.64794        -1.29423
LJ           2.21917        -2.37892        0.831173
LJ           1.02209        0.780311       -0.522969
LJ           2.22559         2.09845       -0.381436
LJ          -2.33415        -2.52834       -0.396243
LJ        -0.0858748       -0.578459         2.32951
LJ          0.534034         1.76657       -0.967007
LJ          0.729434       -0.220337        0.194551
LJ          -1.99872        -1.59199        0.234317
LJ           2.08708        -1.47866       -0.529799
LJ         -0.214462       -0.281342         2.20651
LJ              -nan            -nan            -nan
LJ          0.534528        -1.85799         1.35575
LJ           2.28876        0.276274        -2.33877
LJ          -1.11633        0.545294        0.771835
LJ          -1.22267        -1.75952        -1.71358
LJ          0.721261         1.97731       -0.488469
LJ          -1.53418       -0.683851         2.53376
LJ          -1.60324        -1.62929       -0.900521
LJ           2.40835          1.9253        -1.36616
LJ         -0.552898       -0.996774         1.36234
LJ           1.49985       -0.838114         2.51105
LJ          0.455731      -0.0687548         1.06676
LJ          0.660063        -1.29764          1.9364
LJ          -1.60897         1.41692       -0.314444
LJ          -1.59942        -1.17297       -0.441193
LJ          -2.53857         2.42768       -0.629955
LJ          -1.31867         2.30375         -1.7984
LJ          0.422549         2.50716        -1.25352
LJ            1.1336       -0.969052        -1.06153
LJ          0.337673       -0.954381        -2.01768
LJ          -1.94649        -1.39011       -0.918539
LJ           -2.1353        0.351446        -1.60137
LJ          0.923162         2.53563      -0.0866197
LJ              -nan            -nan            -nan
LJ           1.09288       -0.046303         1.49736
LJ          0.529901        -1.16393         1.73542
LJ         -0.244977       -0.132049        0.504722
LJ         -0.171908         2.31829         -1.6249
LJ          -1.34129        -1.55714         1.35218
LJ          -1.56241       0.0496995       -0.767097
LJ           1.29382         0.49741      -0.0529921
LJ              -nan            -nan            -nan
LJ          0.364536        -1.91393         0.60351
LJ          -2.11691        -1.19681        0.105913
LJ           2.06234       0.0548996       -0.881397
LJ           1.16041       -0.538922         1.40571
LJ         -0.983655         -1.2734       -0.855374
LJ           2.16433         -1.1541        -2.28716
LJ           2.40891         -1.6084       -0.559771
LJ           1.31153         1.22589        -1.45951
LJ              -nan            -nan            -nan
