108
#Comment!
LJ           1.95819        -2.34579        -2.03127
LJ          0.189926       -0.938418        -2.44952
LJ         -0.342162       -0.895778         1.92612
LJ          -2.04233        -1.40911        0.432247
LJ          0.993988       -0.468389        0.221543
LJ          0.661617        -2.46295        -2.29759
LJ           -1.0637         1.60264         2.03779
LJ          -2.46291        0.381519         1.29537
LJ          0.856496        -1.00396         2.43741
LJ          -1.14744         1.91592        -2.36604
LJ              -nan            -nan            -nan
LJ          -2.54407        -2.15062        0.306917
LJ           2.35892        -1.96061        0.906639
LJ          -2.56265        -1.47891       -0.573336
LJ          -1.39406       -0.906606         2.23589
LJ          0.846632        0.898493      -0.0457499
LJ           1.96779         2.14187       -0.372048
LJ          -2.14154        -0.84529       -0.568181
LJ          0.331706       -0.192883         -2.4019
LJ          -1.57968        -1.82583          2.2835
LJ         -0.231767          1.4468          1.3421
LJ          0.864182       -0.394837      -0.0998928
LJ           0.59414        -1.79206      -0.0147256
LJ          -2.17099        0.614018        -1.89654
LJ          0.305376        -2.43437         1.85247
LJ           2.02759        -1.20883        -2.24324
LJ          -2.23845        -1.41976         1.05073
LJ           2.13399        0.455251          1.2693
LJ          0.421849        -2.33997        -1.03078
LJ           1.28895        0.142276        -1.90208
LJ          -1.94011        -2.07959        0.547939
LJ          -1.90004        0.158107        -2.26072
LJ              -nan            -nan            -nan
LJ          -2.06192        0.221425         2.20071
LJ           2.37496         -1.9837        -1.45804
LJ         -0.935212        -1.79026        -1.40071
LJ         -0.305008         1.94784        0.733531
LJ            2.4661         1.93176       -0.443648
LJ          -1.34794         2.01758         2.19071
LJ          -1.67136       -0.676074        -1.55425
LJ         -0.819173         2.10428       -0.369409
LJ           2.18224         -1.8845       -0.230448
LJ           1.15266         -2.3738        -2.02781
LJ          0.762558        0.791225        -1.56631
LJ         -0.668031        -1.72497       -0.901117
LJ           -1.3114        -2.34163       -0.380032
LJ         -0.489469        0.831015         2.53936
LJ         -0.662286       -0.798831         2.01847
LJ         -0.784557         1.94391         1.37378
LJ         -0.199145         2.38031       -0.578361
LJ           1.66269        -1.36933        -2.03638
LJ          -1.91684       -0.208918         2.19328
LJ          0.334427         1.78074        -2.34995
LJ         -0.742497         2.33815       -0.804907
LJ           -2.1405         1.78366        -2.35512
LJ           -1.2163        -2.48332         1.78868
LJ          -1.67683       -0.408985         1.22309
LJ           1.29829        0.109955        -1.86479
LJ         -0.884945        -1.86407      0.00155651
LJ           1.09652        -1.40502       -0.631574
LJ          -1.94011        0.475404       -0.294812
LJ          -2.50732        -1.14856        -1.30283
LJ           -1.0144       -0.748855        0.808793
LJ           2.37898       -0.399618        -2.27418
LJ         -0.530243        -2.28552        0.255972
LJ         -0.674957        -0.85534        -1.82866
LJ           1.81708         2.12024        0.714459
LJ           1.80249        -2.42988         1.49614
LJ          -1.43525        -2.11697        -1.73844
LJ          0.811609       -0.363824        -1.20471
LJ           1.90796         -1.3052        0.548171
LJ           1.84676         -1.5369        0.816581
LJ           1.77359        0.566992       -0.925722
LJ          -2.29735       -0.582719       -0.449251
LJ          -1.05944        -1.78162        -2.00263
LJ           1.71164        -2.33817       -0.756742
LJ          0.539156        0.524177        -1.34573
LJ          0.272907        -2.54735         2.25775
LJ         -0.763557        -2.49708       0.0309618
LJ          0.310635          1.5953         1.39249
LJ           2.12022        -1.47381          1.6977
LJ         -0.929335         1.95302          1.5099
LJ         0.0780833        0.904164         1.70367
LJ          0.782498          1.6103         1.66246
LJ           1.39557        -2.13423        -1.63656
LJ         -0.026311         2.26973         1.15208
LJ          0.168487         1.93105         1.47517
LJ          -1.51638         1.18507        -1.14973
LJ          0.521261       -0.888286       -0.248477
LJ           1.19658        0.980515         1.68478
LJ         -0.918607         1.59123         1.25349
LJ         -0.538587         1.41862       0.0238479
LJ          0.584525         1.17557         1.19824
LJ          -1.41624        -1.58334       -0.392022
LJ           1.69471        0.389635         2.19117
LJ          -1.95107        0.372042         1.00311
LJ          -1.84486        0.783941         1.79894
LJ          0.759705        0.874603         1.37203
LJ           2.45444           2.454         1.89783
LJ         0.0581535       -0.227483         1.09782
LJ         -0.250497        -1.83372       -0.421446
LJ          -1.69542        0.696966        -2.04222
LJ           1.60696       -0.497595         0.86417
LJ           1.82178        0.409883        -1.93774
LJ          -2.00047        -2.47984        -1.54911
LJ          -2.32091        0.249046         1.77769
LJ           2.21962        -1.76492       -0.210471
LJ            1.9217        0.372805        0.309494
