108
#Comment!
LJ          -2.51468        0.825217        -1.20839
LJ          -2.09069        -1.68322       -0.119875
LJ           1.55308        -1.63072        0.637562
LJ          -1.70847         -1.7739        -0.49164
LJ         -0.897966       -0.593863        -1.60839
LJ         0.0905339         2.45435       -0.328732
LJ          0.182501        -1.39566        0.744924
LJ           2.50585       0.0113512       -0.401879
LJ          -1.38202       -0.234536        -1.63542
LJ         -0.163681        0.478914       -0.676205
LJ              -nan            -nan            -nan
LJ          -2.16758       -0.173873        0.814931
LJ           1.53398         1.46206         -1.1875
LJ           1.24853        -1.06596        -1.93169
LJ          0.641974        -1.03586         2.44343
LJ         -0.338319        -1.33385       -0.385519
LJ              -nan            -nan            -nan
LJ              -nan            -nan            -nan
LJ           0.75008        -1.11319        0.898297
LJ              -nan            -nan            -nan
LJ          -1.87607         -1.3469         1.66956
LJ         0.0520407        -2.01002       -0.441746
LJ          0.117316         1.41949        0.293723
LJ          -1.48439        0.189018         2.29192
LJ        -0.0821746        -1.91671         1.26486
LJ          -2.06408        0.956286        -1.99657
LJ           -1.6384          1.1317        -0.02604
LJ          -1.74715        0.259912        -1.12213
LJ          -1.81192         -1.7985        -2.18554
LJ          0.355635        -1.76934         2.36327
LJ           1.47592         1.29112         1.23821
LJ           2.00916         0.29213       -0.657642
LJ              -nan            -nan            -nan
LJ           1.22284        -1.94492       0.0283522
LJ              -nan            -nan            -nan
LJ           1.03432        -2.25841        0.429117
LJ           1.96217        -2.44712         1.57409
LJ           1.69192        -1.81185         1.42953
LJ          0.785622         2.19068       0.0745318
LJ           2.56338       -0.606441        0.916445
LJ         -0.905062         2.50693         1.60344
LJ          0.124094        0.952745        -0.42665
LJ          -2.41361       -0.747245         1.90765
LJ           1.87786        -2.21237         1.60507
LJ           1.73906         1.44773          1.6715
LJ           1.52051        0.816664       -0.614269
LJ         -0.373914       0.0130565         2.55079
LJ           2.21787        -1.08992         2.01124
LJ          0.767663       -0.957242        0.423392
LJ           2.03725       -0.156023        -2.12757
LJ          0.508793         1.75768        0.449877
LJ         -0.446602        -2.30488        -1.91479
LJ              -nan            -nan            -nan
LJ          -1.48674        0.397854       -0.397883
LJ           2.52833       0.0862045         1.73791
LJ           2.18102       -0.565398           0.783
LJ         -0.163019        -1.41249         1.23043
LJ          -2.00551        -1.44711        -0.12228
LJ          0.457254         1.25433         1.45731
LJ          -1.63722         2.13947        -1.67487
LJ           2.24897         -1.4887         1.19424
LJ          0.222586       -0.651457         1.19831
LJ          0.683861         2.18793       -0.797036
LJ           2.39999         1.88332         1.81847
LJ          0.904733         2.33481      -0.0933469
LJ         -0.671091         1.76185        -2.54159
LJ         -0.803189         1.09737         1.12165
LJ              -nan            -nan            -nan
LJ          -1.10697         1.69985       -0.887762
LJ           1.15192         2.25191        -1.01583
LJ          0.652014        -2.55216        -2.55655
LJ           2.47069           1.609          2.3875
LJ          -1.18237        -2.01925         1.37571
LJ           1.79011         2.14641         1.65076
LJ           2.01874       -0.959044        -1.19045
LJ         -0.396761        -2.22072        -1.24245
LJ           2.32659         -1.5251        -1.48223
LJ          -1.69851        -2.48519        -1.00073
LJ          0.358968       -0.195716        0.937378
LJ           2.10319      -0.0146649        0.440474
LJ           1.98972       0.0207034        0.539347
LJ          0.143988        -1.52987         1.17429
LJ           2.01186        -2.30979         2.23615
LJ           1.42935        -1.14392      -0.0201088
LJ         -0.460514         2.13038         2.18234
LJ          -1.32382       -0.682625         1.50753
LJ          -1.02924        -1.68191         1.78442
LJ            2.0013       -0.686243       -0.861037
LJ          -2.55703        -1.40908         -1.3227
LJ          -1.10338        -1.91739        0.237919
LJ              -nan            -nan            -nan
LJ           1.68691         1.90108        0.420051
LJ          -1.96685        -1.16146       -0.632222
LJ            1.3944        0.149944        -1.80789
LJ          -2.46094          1.5426        -1.75913
LJ           1.38534       -0.837187        -2.37682
LJ           2.21554        -1.31489       -0.280547
LJ           2.30305        -1.94499        -2.39889
LJ          0.356232        -1.89846         1.94076
LJ           1.62486       -0.126366        -2.15957
LJ          -1.84626        -2.42734         -1.7528
LJ            1.7485        -1.16108        0.182389
LJ           -1.1705       -0.722304         1.40795
LJ           1.12567        0.272695        0.737787
LJ        -0.0271073       -0.864574       -0.163855
LJ           1.70005        0.700201       -0.285465
LJ          -2.45069         1.20942         1.00173
LJ              -nan            -nan            -nan
