108
#Comment!
LJ         -0.427524        -0.27511      -0.0599839
LJ           0.15193         1.00959        -2.40973
LJ            1.0184         2.29018         1.93554
LJ          -1.69855       0.0159853         -1.0741
LJ         -0.941465         1.76708        0.955088
LJ          -1.67095        -2.01133        0.704919
LJ          -1.66488       -0.307833        0.736914
LJ           1.82146         2.40586       -0.347529
LJ          -2.10339         2.01874        0.349621
LJ            2.2412       -0.322666         1.23665
LJ              -nan            -nan            -nan
LJ           1.42452       -0.832257         0.69131
LJ          0.568373        -1.52473         1.31403
LJ         -0.639687        -1.65432        -1.67581
LJ         -0.609454         1.00338       -0.651083
LJ          0.403784        0.630282       -0.796379
LJ          -0.26923        0.263068        -2.35469
LJ         -0.278582         1.69949         1.58814
LJ           2.28548         -1.2658         1.11629
LJ          -2.00083        0.287417       0.0710676
LJ         -0.938934        -2.56062         1.37832
LJ            2.1115        -2.01915        -1.16267
LJ         -0.845405       -0.712855         -1.3187
LJ           -1.5675      -0.0896818       0.0535825
LJ           1.01803        -2.41524         2.37172
LJ          -1.55654        -1.34401        -1.32278
LJ          -1.44081        -2.37595        -2.04955
LJ          -1.75678        -1.22193        -1.02652
LJ             1.148        -1.45329         -0.9076
LJ           -2.2076        -0.33577        -1.34785
LJ          -2.21509        -1.81922        -1.72189
LJ          -2.17082        0.879063        -1.62835
LJ              -nan            -nan            -nan
LJ           1.70533         1.61616         1.65114
LJ           0.32916         -2.2836        -1.61887
LJ           1.16561         2.27194        0.719383
LJ          -2.21334         1.01446         0.94167
LJ          -2.27713        -2.27134         1.51011
LJ         -0.231712        0.681964        0.906129
LJ          0.170533         -1.0259       -0.141243
LJ           2.48008        -1.59541         -1.2178
LJ         -0.510558         1.33033        -1.56793
LJ           1.84496       -0.671072        -0.19789
LJ          0.832924        -1.33627         1.32556
LJ        -0.0241781        -2.24715        0.934528
LJ          -0.16214        0.188815         0.72483
LJ         -0.278256       -0.260326       -0.909291
LJ         -0.872429        0.896258        -1.55351
LJ         -0.246175         1.54074         2.31656
LJ           1.81116        0.645483         1.78959
LJ           1.74858         2.39021         1.45511
LJ           1.33597         1.82974        -0.14327
LJ         -0.062986         2.26798         1.92275
LJ          0.173699          2.1085         2.37262
LJ            1.1146          1.0055        -2.53053
LJ           -1.9828       -0.820653       -0.704571
LJ           0.88729         1.22077         1.81063
LJ           0.16731        -0.35816          -0.328
LJ          -2.49768       -0.187686         1.63815
LJ          -1.76964        -1.88752         1.79193
LJ           2.41121       -0.154703        -2.30576
LJ          -1.45638         1.85041         1.37072
LJ         0.0403176       -0.899616        -2.03524
LJ          -0.15075         2.49694         1.65804
LJ          0.266876         2.18531        -2.36627
LJ          -1.28074         2.17573        -1.99399
LJ           1.46936         1.50322        0.296784
LJ          0.786096        -2.48438        -2.03074
LJ           1.50564       -0.046519       -0.446824
LJ          -1.46728         0.64888         2.26605
LJ         -0.746117        0.176883      -0.0822335
LJ          -1.75131          2.3905       0.0747711
LJ          0.509161      -0.0872011        0.665052
LJ          -1.78974        -0.51623          2.2017
LJ           1.99311        0.738885       -0.930723
LJ          0.887248         -1.3066         1.32788
LJ          -1.54423        -1.68677       -0.982513
LJ         -0.340451         -1.8818        0.980916
LJ          -1.68399        -1.89123        0.116015
LJ           1.81988        -1.17197         2.16687
LJ        -0.0632977         2.36423       -0.379459
LJ          -2.00607         -2.4839         -1.0012
LJ          -2.35877        0.340897         2.54584
LJ         -0.947571        -2.07337         0.93204
LJ          0.589189       -0.493145         1.75363
LJ          -1.92972         1.40132        -1.20992
LJ         -0.917617       -0.146393        -1.20242
LJ           1.61867         1.63814        -1.45619
LJ            2.1808        0.411823         1.35808
LJ          0.573904        -0.45891         1.16819
LJ         -0.543148         1.36118         2.07061
LJ           1.26997         1.72774       0.0737365
LJ           2.31121         2.52107        -1.88897
LJ         -0.545044        -0.51556         1.99839
LJ          -0.18286         0.43964         1.12277
LJ         -0.803601         1.58949      0.00181142
LJ         0.0118527        -2.51453        -1.18681
LJ           1.14299        -1.68881        0.243303
LJ           2.35307         -2.3205       -0.439506
LJ         -0.795819       -0.513678        -1.91548
LJ          -1.62335        -2.25173        0.752176
LJ          -1.58731        0.143303        0.493537
LJ          -1.47105        -1.26323       -0.592424
LJ          -1.46189         2.07153        -1.72572
LJ           2.04818         1.24924         1.58658
LJ         -0.795947       -0.389033        0.699646
LJ          0.851801         1.68606       -0.483442
LJ          -2.17075         1.33617        -1.52014
