108
#Comment!
LJ          -2.03742       -0.833299        -2.53503
LJ          -1.15388         1.50984       0.0763659
LJ        -0.0162141        -1.92506        -1.08015
LJ          -2.02072       -0.353932         1.23789
LJ          -1.22755         1.53169        -1.49032
LJ         -0.151669        -1.39137         1.25033
LJ         -0.148168         1.97194         1.52222
LJ          -2.44978      -0.0219793         1.32353
LJ        -0.0133587        0.409978         1.44384
LJ           1.44014         1.25841         1.51648
LJ              -nan            -nan            -nan
LJ          0.825363         1.25235        0.623839
LJ          -2.33704       -0.709724        -0.98082
LJ           1.32371       -0.866063        -1.54154
LJ            1.4818        -1.46205        0.421126
LJ         -0.924066          0.1696        -1.93971
LJ           2.44486         2.37788        -1.42367
LJ         -0.728603         1.68902        -1.03487
LJ         -0.981329         2.11862         1.27155
LJ           1.96219         1.34239         1.70675
LJ           2.46859        -2.51208         1.33278
LJ            -1.919        -1.31011       -0.610134
LJ         -0.169396       -0.402078         2.18492
LJ            1.1369         1.17855        -1.47622
LJ        -0.0342604       -0.237849        0.896556
LJ          -0.47286         1.15544        0.307257
LJ           2.03972         1.52766         2.29392
LJ          -1.05816        -1.22001       -0.980389
LJ           1.65323        -2.04958       -0.187206
LJ          -2.11027       0.0860941       -0.246537
LJ         -0.804192       -0.979859       -0.578577
LJ          -2.50846         -2.5352       -0.189582
LJ              -nan            -nan            -nan
LJ         -0.918888        -2.15319      -0.0129497
LJ          -1.08366       -0.551354         1.67496
LJ           2.31727        0.575452       -0.411439
LJ          0.992137        -1.87483       -0.966355
LJ           -1.9368         2.52579         2.42692
LJ           2.39436         1.29035         2.27953
LJ          0.269046        0.759235        -1.20603
LJ          -2.40281         2.33924        -1.46408
LJ          0.491144         2.32338         1.20325
LJ           2.34842         2.20806        -1.95583
LJ           1.41593         1.89646        0.634476
LJ           1.92077       -0.205063        -2.11407
LJ           1.94216        0.990714         1.75259
LJ            1.0455         1.69401         2.18806
LJ           2.11505        -2.07193         1.27297
LJ          0.369402         2.02553       -0.367811
LJ          0.570116         1.26496        -1.03599
LJ         -0.979468         2.31345        0.867715
LJ          -2.56493        -2.34168        -2.16249
LJ          -1.18421       0.0338311        -1.72381
LJ          -0.17304        -2.28163        -2.25588
LJ         -0.496437         2.06564        -2.26152
LJ           1.84964         2.35564       -0.538012
LJ          -1.84337         2.47958        0.495033
LJ         -0.191734       -0.557257        -1.75766
LJ          -2.04307         1.18198         0.82876
LJ          0.384573        -2.15777       0.0909658
LJ         -0.449545        0.102359         2.44256
LJ          0.835141          0.9701         2.06052
LJ           1.80701        -1.85313        0.840171
LJ         -0.261705       -0.238482        0.379823
LJ           1.63664        -1.51178         1.25006
LJ           2.37681       -0.890066        0.901269
LJ         -0.298105        0.421656       -0.653014
LJ         -0.603878        -2.00789       -0.409827
LJ         -0.525069        0.144659         1.24415
LJ         -0.889239         2.30846        0.741062
LJ           1.72741       -0.725839          1.9146
LJ          -1.39636        0.310866       -0.891355
LJ         -0.177008        0.873427         2.35247
LJ          -2.04756        -1.20746          2.3079
LJ          -1.13757         2.16307         1.94657
LJ          0.744395        -2.03919      -0.0727606
LJ         -0.997775        -2.08399       -0.168899
LJ          0.862915        0.620292         2.15969
LJ         -0.359526       -0.895408         1.95023
LJ          -1.95053         2.13893        -1.37124
LJ          0.768165        -0.63381      -0.0224064
LJ          -1.57835         2.15994          1.2453
LJ         -0.976873        -1.08586        -1.26225
LJ         -0.552934       -0.593393         2.15189
LJ          -2.17474        -1.04895         1.93797
LJ           1.14632          1.2222      0.00144651
LJ          -1.87216        -1.62245       -0.965983
LJ          -1.65498       -0.302999       -0.236205
LJ           1.28754        -1.82437         1.02287
LJ          -1.00054          1.0364        -2.14391
LJ          0.989451         1.17578         0.43607
LJ           1.92521        -1.45663       -0.750791
LJ          0.649708         -2.4321        -1.19957
LJ           1.51501       -0.576408        -1.68243
LJ          0.722239       -0.319509        -1.06936
LJ          -1.46106       -0.384649         1.51486
LJ          -1.46408        -2.48994       -0.711895
LJ           1.14157        -2.47386        -2.18443
LJ          -2.43428         1.48996         -1.4682
LJ           2.00706        -2.01661         1.45757
LJ          -1.86196        -1.44839         1.08915
LJ          -1.09648        0.628761        0.500526
LJ           1.17688          2.0484          2.1064
LJ          -0.37341         1.85283       -0.545217
LJ          -1.58425        -1.75995         1.35978
LJ         -0.671835        0.122305        0.964979
LJ           1.79925       -0.163808         2.35495
LJ          -1.12524       -0.656192        -1.29723
