108
#Comment!
LJ          -0.36578         1.94779        -1.11774
LJ        -0.0270945        -1.81508        -1.26162
LJ          0.645616        0.714359         1.88832
LJ          -0.12259        -1.13371         1.20062
LJ           2.20214       -0.948774         1.94866
LJ           -1.4976        -0.52904         1.85662
LJ          -2.07532      -0.0340746        0.965332
LJ          -2.42164        -2.24782        -1.53456
LJ           2.07815        -1.91136          1.1506
LJ          0.559109         1.43593        -1.46909
LJ              -nan            -nan            -nan
LJ         -0.665245         1.12232        -0.67554
LJ          -1.79481        0.504862         1.74223
LJ              -nan            -nan            -nan
LJ           1.45075       -0.830355        -2.48445
LJ              -nan            -nan            -nan
LJ              -nan            -nan            -nan
LJ              -nan            -nan            -nan
LJ         -0.404516        0.795862         1.08407
LJ              -nan            -nan            -nan
LJ          0.788269         2.19061        0.625564
LJ           1.75908        0.160349        -1.77898
LJ          0.626984        -2.22336       -0.683756
LJ              -nan            -nan            -nan
LJ          0.643345        -1.13436       -0.239777
LJ           2.41266        -1.04442        0.977633
LJ         -0.398582        0.163225        0.936868
LJ          0.668479        -2.26501       -0.757484
LJ           1.56742          1.4227        0.297759
LJ          -2.25167        0.198766        -0.33842
LJ              -nan            -nan            -nan
LJ           2.12541         1.74859        -2.49798
LJ              -nan            -nan            -nan
LJ         -0.153955         1.43476        0.518791
LJ              -nan            -nan            -nan
LJ           2.09045         2.38019        0.933286
LJ           1.14656         2.36442         2.15362
LJ           0.39779        -2.06956      -0.0712299
LJ         -0.177377         2.38869        -2.35903
LJ           2.32206         2.28128        -1.30996
LJ         -0.626723       -0.987921        0.571503
LJ         -0.725415       0.0775847         1.50682
LJ          -1.03058        -2.52713       -0.114778
LJ           1.81817        0.799292      -0.0392536
LJ           -1.4542       -0.335857          1.8426
LJ          -2.09628        -1.25915         -1.0743
LJ          0.614865         2.55625        -2.10038
LJ           2.33293       -0.172085         1.42117
LJ        -0.0866643        -1.43073         1.56862
LJ         -0.615638        -1.30119         -1.6679
LJ          -1.03151        0.012689        0.596451
LJ          0.330881        0.999109        -2.05443
LJ              -nan            -nan            -nan
LJ          -1.85167        0.563446         1.91026
LJ           1.16466         2.26959          0.3196
LJ           2.15822        -1.91356        -2.26002
LJ          0.269062      -0.0902017         1.45745
LJ           1.27367        0.691063        0.080457
LJ         -0.614125         1.90091          2.1082
LJ         -0.551728        0.937555         1.66442
LJ          -1.43921        -1.31871         1.45885
LJ           1.45946        -1.96006        -1.54892
LJ          -0.42028        -1.29892        -2.00849
LJ              -nan            -nan            -nan
LJ              -nan            -nan            -nan
LJ         -0.394333         2.29393        -2.26307
LJ          -1.95536         1.99144        -1.70538
LJ              -nan            -nan            -nan
LJ         -0.809916        -1.65774         0.13196
LJ           2.22342         1.41321          1.1914
LJ          -0.79048        -1.85018        -1.12718
LJ          -2.18294         1.06969         0.48234
LJ         -0.475372        -0.53579       -0.744408
LJ         -0.984693         1.37831       -0.857851
LJ          0.709932       0.0835652       -0.246847
LJ          -2.50307         1.93083        -2.20553
LJ         -0.628134        -2.26957        0.506197
LJ           2.16798         2.38326         2.05122
LJ          -1.48026       -0.542093       -0.933551
LJ         -0.403214       -0.393717        -2.31499
LJ           1.88293      -0.0193707         1.37974
LJ           1.83064        0.568657         1.93824
LJ          0.655352        -1.32081        0.483237
LJ          0.619754        -0.50802        -1.97239
LJ           1.33573         -1.2885        -1.71637
LJ         -0.354389       0.0906054         1.93882
LJ           0.37301       -0.599205        -1.46348
LJ          -1.79042       -0.858566       -0.871638
LJ          0.552722         1.12003       -0.769867
LJ           1.86678        -2.27013       -0.641955
LJ              -nan            -nan            -nan
LJ         -0.829814         -2.5435        0.549948
LJ        -0.0472648         1.71396       -0.312779
LJ           2.13908        -1.85853         1.39812
LJ          -1.52985         1.53891        0.447434
LJ          -1.45744         1.09667       -0.492869
LJ          -0.62162       -0.826242         2.36529
LJ          0.976885         1.45593       -0.643314
LJ              -nan            -nan            -nan
LJ         0.0185276        -1.85886        -2.11113
LJ           1.90357        -2.51144        -1.26787
LJ          0.974977        -1.56011        -1.77631
LJ         -0.359779         1.75309        -1.55399
LJ           1.24831       -0.231633        0.878545
LJ              -nan            -nan            -nan
LJ         -0.856057         2.48931       -0.594691
LJ           2.07282       -0.424886        -1.09852
LJ              -nan            -nan            -nan
