108
#Comment!
LJ          0.200016        -1.23722         1.44417
LJ          0.630489        -1.69677        -1.03026
LJ         -0.596594        0.565936         1.20038
LJ           1.60177         1.58194        0.878022
LJ         -0.957997       -0.997791         0.15212
LJ          0.369137         0.60055        0.020707
LJ           1.52054        -1.20757         1.67052
LJ         -0.875638        0.233138        -1.94318
LJ           -1.3215        -2.12816          1.4165
LJ           -0.7789       -0.315105        -1.90947
LJ              -nan            -nan            -nan
LJ           2.16579         1.48711         1.73951
LJ          -2.20406           2.486        -2.03175
LJ          -0.51873       -0.945029        -1.13645
LJ          -1.76587         -2.5217        0.302679
LJ           1.79205        -1.57098         -1.1207
LJ          0.905471         1.19944          1.3869
LJ           1.67274        0.149349        -1.53647
LJ          -2.43558         1.90303        -1.32862
LJ          -0.50747        0.413898         1.75824
LJ           1.62262         1.69314        0.356745
LJ           1.70894         1.37286         1.82228
LJ           2.34777        -2.22441       -0.333507
LJ           1.04381       -0.238314         2.09057
LJ         -0.201708        0.336271        0.438729
LJ         -0.710632        0.681051        -1.67683
LJ           1.41051         0.75192        -1.35351
LJ            1.5835        0.468028        -1.05788
LJ         -0.534966        0.736335           1.319
LJ           1.27806         -2.0746         2.16731
LJ        -0.0847064         -1.5892        0.795916
LJ          -2.35707        -1.78019        -1.18221
LJ              -nan            -nan            -nan
LJ         -0.821478         1.68518        0.558405
LJ           2.51171         2.21242        -1.96515
LJ           1.91758       0.0945109        -1.32676
LJ          0.739714       -0.261885        -1.54792
LJ          -0.44467         -1.8731       -0.587621
LJ           1.26149          1.0223         2.45206
LJ           1.82184        -1.73236        0.881788
LJ           2.16503        -2.16729         1.89384
LJ          -1.98896          1.6251         1.11407
LJ          0.171651       -0.424737       -0.484742
LJ        -0.0195247        -1.01277       -0.776959
LJ           2.52513        -1.90945        0.122277
LJ           1.72651       -0.138636        -1.06331
LJ           1.75044        -0.74898        0.610086
LJ          -1.02733        -1.94515        -2.16217
LJ          0.336526        -2.30272        -1.75488
LJ          -2.32417        -1.05229         1.86644
LJ           0.38432         1.77851        -1.38719
LJ         -0.791231        -1.47164         1.83931
LJ           2.55716        -2.25584        -2.10452
LJ           1.74396       -0.538267        -1.98366
LJ          0.590676        0.974927        -1.49122
LJ         0.0186609         2.25844        -1.59426
LJ          0.509666        -1.85843        -1.59768
LJ          -1.83793        0.443108        -1.68504
LJ           1.09607        -1.77575       -0.610212
LJ         0.0626675        0.620714        -1.06906
LJ            2.2482        0.517322         1.01809
LJ         -0.416413         2.35737         2.24325
LJ          0.764702        -1.03099          1.4863
LJ            2.3008           -1.03         1.10847
LJ         -0.976584        -1.87926         2.21743
LJ           2.19579         2.32543          1.0465
LJ          -1.32128       -0.610697        -1.50924
LJ         0.0901571        0.842295        -1.99069
LJ           1.33568        -2.52148          2.0329
LJ           1.27009         1.42298        -1.81322
LJ          -1.93702       -0.817972        0.565321
LJ           1.61356        0.174662          1.4117
LJ          0.632092         1.42166         1.97374
LJ          -1.61046        -2.14958         1.48935
LJ          -1.99869       -0.658294       -0.638769
LJ         -0.614758         1.57509         2.34087
LJ          -2.22673        0.722194        0.914621
LJ           1.01629         1.80106       -0.497323
LJ          -1.98553       -0.263549        -1.35858
LJ           1.95845         2.49643       -0.700704
LJ           1.98572        -1.18564         2.19489
LJ          -1.47519         -2.1709         2.50381
LJ           1.37761       -0.970438         2.23332
LJ          0.384315       -0.521787       -0.977045
LJ           2.22783        0.848998        -1.56338
LJ          -1.93779       -0.236753        0.114963
LJ           1.75192        0.509746         1.73317
LJ          0.935012         1.69929       -0.357351
LJ          -2.14663        -2.30665       -0.651045
LJ           1.80037         -1.8273          1.3571
LJ          -1.16425       -0.912906        -1.76941
LJ          0.657202       0.0793092        0.593192
LJ          -1.95337        -1.28775         -1.1274
LJ           1.67977        0.442647         1.89463
LJ           1.53141       -0.018061         -1.8699
LJ          0.768498       -0.984563        -2.39288
LJ          -2.01541        -1.98348        0.145833
LJ           -1.2149       -0.388951         2.45088
LJ            2.3965        -1.69713        -2.27281
LJ           2.08496        -2.00558        -1.20832
LJ        -0.0388233          1.0315       -0.480489
LJ          -1.19182        -1.00589        0.309431
LJ          0.984941        -2.21269       -0.896832
LJ           2.30708         1.18547        -0.32692
LJ         -0.575905         -1.9122       -0.600049
LJ          -1.08476       -0.351128        -1.79612
LJ          0.907434         1.50813        -1.62304
LJ          -1.39586         2.11878        -2.44593
