108
#Comment!
LJ           1.85206        -1.31556       -0.106998
LJ          -2.46149       -0.272651         2.13085
LJ          0.775861        0.826592        -2.39989
LJ           2.08626        -1.86303         1.85989
LJ           -1.4862        -1.62572        -2.39992
LJ         0.0728883        0.961908         1.56823
LJ          -2.56009         1.90686         1.09106
LJ         -0.810882        -1.54895       -0.546386
LJ          -1.05116       -0.904379       -0.476729
LJ           1.92445       -0.646452       -0.775467
LJ           1.45236         1.46203        -2.03708
LJ          -1.53261         1.81368        -1.50667
LJ          0.753886        -1.23365        -1.47782
LJ          -2.45984        -0.87016         1.19622
LJ         -0.517897        -2.31309        -2.02638
LJ        -0.0473916        -1.26251        -1.31993
LJ          0.280838       -0.309516       -0.886502
LJ          0.395554         1.86078        0.285726
LJ         -0.188568        -1.22072         1.99606
LJ          -2.35495         2.44194         1.52537
LJ          0.899094       -0.380163       -0.564512
LJ        -0.0445477         2.07996         1.82064
LJ           1.01851      -0.0923937       -0.698307
LJ          -2.19165         2.24672        -1.67617
LJ           1.62766         1.77599       -0.942794
LJ          -1.22511         2.03785          0.1071
LJ          -1.36971         1.68795        -1.48236
LJ            -1.552        -2.18198        -1.67101
LJ       -0.00145207        0.141796        0.963672
LJ           1.81658        0.722429         0.65436
LJ         -0.606488        -2.02547         2.35536
LJ          -1.05885       -0.621307          1.4973
LJ          -1.78096          2.1107        -0.89418
LJ           1.42505        -1.09631         2.18645
LJ         -0.464981        -0.63935       -0.818011
LJ          0.912572        -1.50401        0.838813
LJ           0.57827         2.11202        -1.65916
LJ           0.25678       -0.714923         1.88486
LJ           1.92231        -0.23752         2.11448
LJ           1.26243        -1.17207         1.91254
LJ          -0.54172        -2.22766          2.1004
LJ          -1.55616         1.29198       0.0530918
LJ           0.42553        0.634807        -2.09973
LJ           1.44763        0.515748         -1.0871
LJ          0.310431         1.05536         1.68037
LJ          -1.57745       -0.669306         2.24543
LJ          -1.68133        -1.18554        0.858598
LJ           2.04374        0.410571       -0.865304
LJ          0.802921        -1.45961        -1.35323
LJ           1.88546         1.17271        -2.37032
LJ         -0.297303        -2.32786        0.033426
LJ          -2.22588        -2.36113         2.19359
LJ           1.43438        -2.05016       -0.777081
LJ          0.112207       -0.863401       0.0502514
LJ          0.371854       -0.185626         2.22407
LJ          0.631812         1.00407        0.111949
LJ           2.04606         2.32038         1.64399
LJ         -0.654032         1.72052         2.00213
LJ           2.15192      -0.0846909        0.684108
LJ           2.06606         2.45264          2.3684
LJ          0.446742      -0.0343906        0.543391
LJ          0.382273       -0.810337         2.51701
LJ          -2.37791        -1.55636         -1.6939
LJ          -1.36141        0.408397         1.84965
LJ           -1.0354         2.16164          2.1205
LJ          -1.05344        -1.13511        -2.39881
LJ          -1.62793        0.483169         1.90455
LJ          -1.07314        0.233847         2.12189
LJ           1.81741       -0.694133         1.39724
LJ           2.03355       -0.613343       0.0451445
LJ           2.53454        -2.31864         0.45796
LJ          0.531874        -2.51169        -2.03965
LJ          0.573259         0.47537        0.190862
LJ           -1.5324        -2.14617        0.316264
LJ          -2.42191         2.41057         2.42492
LJ          -1.18615         1.71022        0.356703
LJ          -2.01438        0.258485       -0.213703
LJ           2.01358       -0.312479          1.8801
LJ          -1.65883        0.824365         2.23537
LJ           1.78277        0.204285         1.96866
LJ          -1.50024        0.747401       0.0405336
LJ           1.86229      -0.0229684        -1.68138
LJ           1.34587        -1.50727        -2.38185
LJ            1.8457          1.1155        0.107711
LJ          -1.29187        0.700135        -1.15631
LJ         -0.400357        0.857486        -1.57283
LJ          -1.55337         1.69285         1.11691
LJ          0.891985        -2.37408        -1.01471
LJ           1.25682         -1.4313        -1.06096
LJ          -1.50954       -0.143307       -0.995898
LJ          0.279434        0.793483        -1.33911
LJ          -2.12447         1.38036        -1.09872
LJ          -1.02105        -1.07011        -2.39658
LJ           2.33777         1.75529        0.396619
LJ           2.34454          2.5587        -1.18291
LJ         -0.876153         1.82274        -1.79521
LJ         -0.418792        -1.31223        -1.67065
LJ         -0.459246         2.07829        -1.36217
LJ           2.15006        -1.97892         1.29362
LJ          0.419151      -0.0781573        0.440277
LJ         -0.854322        0.842986       -0.655874
LJ         -0.254097        -1.32935         2.03995
LJ          -1.31619        0.346053          2.5484
LJ           -1.3799         1.41148         1.02601
LJ           0.83089         2.42688          2.1599
LJ            2.2208        -1.57451        -2.52793
LJ           -1.2777        -2.14393         1.41131
LJ          0.781381        0.961799        0.477481
