108
#Comment!
LJ          -1.04959         2.34526         1.74137
LJ           1.47054          1.0952        0.926448
LJ          -1.10389       -0.533793        0.878894
LJ          0.522124       -0.443239        -1.62964
LJ          -2.19919        0.507731         1.03868
LJ         -0.324749         2.30042         2.04169
LJ           1.32884        -1.62117        -1.22846
LJ            2.5623        -2.47969       -0.326046
LJ           2.43395        0.585402        -1.12768
LJ           1.60018       0.0416109        -2.53851
LJ              -nan            -nan            -nan
LJ           1.06405       -0.983742         2.48708
LJ         -0.679305         2.22598         -1.8351
LJ          -1.86062        0.105119        -0.86377
LJ           0.75448         2.32744         2.19707
LJ         0.0493624         1.98788          1.6579
LJ         -0.133388       0.0834728         1.73851
LJ           0.91711         -1.5768        -1.43581
LJ          0.606046         2.52072        0.652473
LJ          -2.49381        -1.07927        -2.45292
LJ          -1.26999         1.12296        -2.46619
LJ          -2.35265      -0.0824381          2.3253
LJ           0.10288        -1.64494        -1.53521
LJ           1.51399        -1.29443        0.809719
LJ           1.89396        -1.86801        0.742028
LJ         -0.963297          2.3517       -0.194813
LJ           1.69724        -2.20714         0.95002
LJ         -0.773346         1.53317       -0.151735
LJ         -0.052456        0.429299        0.597151
LJ          -1.81298        -2.54897        0.338183
LJ         -0.379852         1.45243        -2.46946
LJ          -2.23729         2.26107       -0.152716
LJ              -nan            -nan            -nan
LJ           1.51225        0.181241         1.87101
LJ          0.738255         -1.0241        -2.13868
LJ          -1.33346      -0.0268022       -0.667876
LJ           2.13676         -1.9009         1.60837
LJ           1.97455       -0.249172       -0.214016
LJ         -0.426349          1.1635        -2.51827
LJ          0.826901        0.423176       -0.251864
LJ           1.46075       -0.964248         1.11875
LJ            2.5469        0.728156        -2.40642
LJ         -0.539393        0.447574         2.29365
LJ           1.60093        -1.09712         -2.3924
LJ          -2.20886         1.43314        0.180669
LJ          0.252033         -1.3646         -1.2704
LJ          -2.42036        0.412108      -0.0677949
LJ          0.696495       -0.615695        0.314302
LJ          -1.61895       -0.627857         2.14894
LJ          0.491596       -0.763131        0.613849
LJ          0.179618         1.79748        -2.44677
LJ           2.00838       -0.276545          2.3564
LJ          -1.98597         2.26645         1.04726
LJ           2.09899         -1.0891       -0.876136
LJ         -0.855654       -0.617384         1.60243
LJ           2.52224         1.63625         1.38818
LJ          0.316697        0.597153         1.42562
LJ         -0.421541        0.352489        0.210941
LJ          -1.51455       -0.302666        -0.49463
LJ           -2.0833        -2.36679         1.18551
LJ           1.14662      0.00842029         1.83993
LJ          -0.45332         0.46183       -0.202306
LJ          -2.08269        0.730108         2.03671
LJ           2.51818        0.684094         2.51874
LJ          0.937956        0.898873        -2.13868
LJ           2.32913        -1.87017        -1.77082
LJ          -1.39868        -1.32885         1.80428
LJ           -2.2617        0.405584         2.56087
LJ          0.827489       -0.799552         2.27902
LJ           1.07487         2.07849         1.08816
LJ          0.495185       -0.654291       -0.355936
LJ          -2.53723       -0.247521       -0.978917
LJ         -0.851096        0.794418         0.25871
LJ         -0.500356         2.19945        0.144321
LJ         -0.991886       -0.596042       -0.361415
LJ           -2.5349        -1.86978        0.440273
LJ          -2.37439        0.542428        -1.60576
LJ          -1.73068        -2.03677        0.398805
LJ          0.112743        0.625011        -2.54915
LJ         -0.655223       -0.582258         1.33211
LJ           1.57378        -1.36139        -2.47904
LJ            1.5429       -0.740428        -1.73757
LJ          0.583173        0.739543       -0.210101
LJ           2.10623       -0.708802         1.24511
LJ           2.42213        -1.52264        0.704394
LJ          -1.75207       -0.956919        0.279894
LJ          -2.05241        -2.36284        -1.78749
LJ           1.58836         1.21992         -1.6476
LJ          0.771885         2.40697        0.535759
LJ         -0.466237         2.38731         -1.7141
LJ          -1.46356        -1.70607        -1.74877
LJ          0.389535         1.62348       -0.487195
LJ           1.39566        -1.34808        -2.41052
LJ         -0.449811        -2.48833         1.14631
LJ         -0.145035        0.512094        -1.42629
LJ          -2.35116        -2.12303         -2.3559
LJ           1.94232         2.41835       0.0697234
LJ           1.16404         2.18162       -0.459603
LJ          -1.39841         1.89851         -1.8973
LJ           1.71605        -2.40104         1.97591
LJ          -1.06409        0.750094         0.58948
LJ         -0.171989         1.01439        -1.46422
LJ          0.501249        -2.28035        -1.07613
LJ           2.05009       -0.644798        -1.42973
LJ          -1.12346         2.31292         1.55903
LJ           2.18515           1.703        -1.64235
LJ          0.198906        0.289358        -1.98627
LJ           1.23635         2.49112         1.40902
