108
#Comment!
LJ           1.12169        -2.39947        0.882298
LJ          0.315646         1.89264          1.9712
LJ          -1.19747         -1.9784        0.204493
LJ            2.2178        0.320592         2.15533
LJ           2.38508         1.40341         2.40711
LJ          0.708497        -1.50397         1.58213
LJ          -1.29164         1.87921      -0.0498816
LJ          0.774234        -1.78108         1.59251
LJ            1.8863        -2.16686      -0.0466168
LJ           1.25109       -0.458763         1.88686
LJ          -1.68858        -2.15344         1.66094
LJ           1.98293         0.53483      -0.0994802
LJ          0.856413         2.23501        -1.25166
LJ          0.732007        -1.35183         2.17623
LJ           2.55668         0.33385       -0.827413
LJ         -0.101587       0.0174599        0.659985
LJ         -0.814617         -2.4407        -1.16003
LJ          -2.04433        -2.32424        0.993223
LJ          -1.00739        0.658571        -2.52811
LJ          -1.58835        0.601006        -1.77257
LJ          -1.99793       -0.630831          2.1076
LJ           0.68238          1.9399        -1.86143
LJ          -1.14121         2.22744        -1.69491
LJ           0.35097        -1.96701        0.996391
LJ          0.105038         1.39426         2.03946
LJ           1.66421         1.82401        0.697794
LJ          -2.42259         0.26666        0.138477
LJ          -1.74925         1.34813       -0.477966
LJ          -1.95548       -0.858326       -0.530964
LJ          -2.14482         1.48877      -0.0612907
LJ          0.955568        0.746649         2.11764
LJ          0.723368        -0.14304        0.396957
LJ          0.685771        0.520476        -2.25305
LJ           1.30988         1.14258       -0.853839
LJ           2.55179        -2.34802        0.804255
LJ          -1.63494       -0.967711         1.86154
LJ         -0.766618       -0.416211         1.93513
LJ          -2.19319         2.22922         0.21505
LJ           -2.1574      -0.0336388        0.574479
LJ          -1.54244        -2.02929         1.88431
LJ           -2.4844         2.54446        -1.03291
LJ          -2.25453       -0.663443        -2.04069
LJ         -0.326878        0.964212         1.34244
LJ          -1.07786        -2.07207         1.52677
LJ          -2.16619        0.677129         1.87155
LJ         -0.789262         1.81201         1.01838
LJ          -1.78875         2.45227        -1.98109
LJ         -0.645684        -2.05719        -0.85637
LJ            1.0219         1.67517         -0.3776
LJ          -1.49861         1.66303        -1.90889
LJ           2.50702        0.174971        -1.79382
LJ           1.43234        -1.67082         1.36269
LJ          0.992471         2.40088        0.135844
LJ         0.0156382      0.00567169         2.20998
LJ          0.590241         -1.4796         1.98416
LJ          0.747394        -1.33887        -1.53848
LJ           -1.8562       -0.354927         2.03891
LJ         -0.337019       0.0719757         -1.7909
LJ           1.17552       -0.185759          2.2941
LJ          0.936172        0.981046        -2.51012
LJ          -1.13781        -1.33194       -0.555499
LJ           1.07217       -0.501526         2.27506
LJ           2.10609        0.676828        -1.12964
LJ           2.08697        0.271608       -0.308369
LJ           0.97444       -0.839308         1.64774
LJ         -0.827554        -1.15995        -2.23034
LJ            2.4908         1.11368       -0.630432
LJ          0.107946          1.7626         1.02949
LJ           1.13511        -1.75523         1.03478
LJ          0.556462        -1.00555       -0.437142
LJ           1.21353         2.26483        -2.03112
LJ           2.31141         1.80056         1.72624
LJ          0.635631         1.01066         2.39139
LJ          -1.69711       -0.457701         2.06049
LJ          -2.46858        -2.50968        -1.55904
LJ          -1.90846        0.217174       -0.864202
LJ           2.46717        -2.31995        0.712419
LJ          -1.93984       -0.454669       -0.788972
LJ          -1.90113         1.34837        -1.14447
LJ          -1.62543        0.430388        -1.39097
LJ           2.36916         1.40491         1.13653
LJ          -2.49812         2.28225         1.24888
LJ         -0.614852         -1.3243        -2.36222
LJ         -0.244888         1.13296         1.25034
LJ         -0.616108        -1.82375        -1.61937
LJ          -1.14976       0.0675825        -2.08003
LJ           1.68935         -1.9899        -2.45747
LJ          0.312428       -0.992799        -1.33478
LJ          -1.12499         2.44414        -2.00799
LJ          -1.75876        -2.50738         1.11396
LJ         -0.384054        0.690849         1.36284
LJ           1.54462        -1.97249        -2.02521
LJ           1.58496         1.17005       -0.963609
LJ           1.77069        -2.52256       -0.940605
LJ          -0.60921         2.07265       -0.303386
LJ          0.710843         2.21723        -2.33052
LJ         -0.508292        -1.62802         0.68935
LJ           1.59139          1.1381         2.36296
LJ          0.465991        0.819621        -1.76925
LJ          0.262388         1.22573        0.101846
LJ          -1.14421         2.05919       -0.682347
LJ          -2.15556       -0.138987         -1.3946
LJ          0.708142        -1.45537        -2.53205
LJ          -2.39037        -1.57027         1.47005
LJ         -0.982566        -1.03445        -2.11037
LJ           1.94186        -1.03828         -1.0576
LJ        -0.0638193        -2.37302         1.98502
LJ          0.132972         2.45625         1.44049
