108
#Comment!
LJ           1.55914        0.105554         1.98743
LJ         0.0442438        -2.42927        -1.92495
LJ           1.15187        -1.78294       -0.900141
LJ           1.11467        0.570953      -0.0309987
LJ          -1.12474         1.86436         1.81515
LJ          -1.71495        0.331244       -0.783233
LJ          -2.02209         -1.5547         1.51108
LJ         -0.304252        -2.01237        0.561755
LJ          -1.06439        -1.19035        -2.35031
LJ          -0.71298        -2.16903         2.38139
LJ              -nan            -nan            -nan
LJ           -2.3211         0.42328         1.26907
LJ         -0.744101         2.04898       -0.356289
LJ              -nan            -nan            -nan
LJ           1.96219         0.20653        -1.90201
LJ              -nan            -nan            -nan
LJ              -nan            -nan            -nan
LJ              -nan            -nan            -nan
LJ          0.645182         1.46744       -0.878336
LJ              -nan            -nan            -nan
LJ           1.02665          2.0126        -0.94929
LJ           1.61753         -1.8918       -0.307568
LJ           -1.8615        -2.26569        0.394207
LJ              -nan            -nan            -nan
LJ           1.98463       -0.237375        0.925663
LJ          -1.85523         1.79858        -2.55566
LJ           -1.7784       -0.335221        -1.78743
LJ         -0.975026         2.56347        -1.43812
LJ           -1.7082         2.02273        -1.78114
LJ           1.93854        -0.15037        -2.40111
LJ              -nan            -nan            -nan
LJ          -2.55744          1.4172        -2.08875
LJ              -nan            -nan            -nan
LJ         -0.814054         1.05231        0.570989
LJ              -nan            -nan            -nan
LJ          -1.96664         1.40677        -1.38617
LJ           2.35655        -1.85887        0.226295
LJ         -0.756726        -0.17615       -0.731044
LJ           1.61393        0.515311        -1.61601
LJ          -1.63595        -1.30309         1.37304
LJ          0.911869        -1.12927        -2.28636
LJ          -2.01623         1.87558        -1.89599
LJ           2.21606        -0.14532        0.352595
LJ            1.6839         1.25562       -0.391086
LJ           1.55377        0.224078       -0.327676
LJ         -0.591084        -0.26525         2.19128
LJ           0.03238        -1.83025        0.619888
LJ          -2.05265       -0.813625        -1.98595
LJ           -2.2689         1.99009         2.05234
LJ         -0.658372      -0.0352571          2.4018
LJ          -1.43973         2.11953        0.971505
LJ           2.33267         2.27146         2.50393
LJ              -nan            -nan            -nan
LJ         0.0179816         1.30676       -0.600626
LJ           0.54404         -1.9388       -0.758367
LJ         -0.295143          2.1346         1.00208
LJ         -0.684219         2.31794         2.28066
LJ           0.50765          0.4508       -0.544229
LJ          -1.75348        0.663931          1.1012
LJ          -1.84509         2.15768         1.86446
LJ          -1.31242          1.5422         1.19188
LJ          -1.33462          1.0636        -1.87749
LJ           1.40175        0.555094       -0.463187
LJ              -nan            -nan            -nan
LJ              -nan            -nan            -nan
LJ          -1.13511       -0.302417        -2.17473
LJ         -0.391675         1.65064         1.04795
LJ              -nan            -nan            -nan
LJ          -0.93127        -2.07858         2.35202
LJ        -0.0780667         2.00633        0.901019
LJ           1.63423        -1.50448        -1.65442
LJ           1.15496        -1.03995       -0.343702
LJ           1.54524        -1.82995         1.35379
LJ          0.314618        -1.42486         1.21076
LJ         -0.303161        0.521379         2.28692
LJ          0.779623        -1.25663       -0.212006
LJ            1.7279         1.42067         1.02358
LJ           1.69046           0.209        -2.12941
LJ           2.37423        -2.13931          2.3354
LJ           1.52255       0.0335796          2.2283
LJ          0.653846         1.55874        -1.97418
LJ          0.365487       -0.108497       -0.626911
LJ         -0.349997         2.21107       -0.243558
LJ          -1.67093        0.538775         -1.6806
LJ          -1.36965        -1.70418         2.37341
LJ          0.642477         2.05491       -0.103866
LJ          -2.47838        -1.84394        -1.00019
LJ          0.354682          1.3545         -2.4294
LJ           2.14271        -1.48186        0.226222
LJ         -0.661656         1.75067        0.845298
LJ              -nan            -nan            -nan
LJ          0.519141        -1.34843       -0.804984
LJ          -2.05231         0.73429         1.81989
LJ           2.28567         1.27984        -1.22448
LJ         -0.566356         1.21527        -1.40805
LJ          -1.71062        -1.71562          2.2267
LJ          0.664545         1.43446         -1.5956
LJ           1.22697           1.549        -1.57247
LJ              -nan            -nan            -nan
LJ         -0.708267        0.814127        -1.89267
LJ           1.23575         2.02752         0.64612
LJ           2.31278        0.142753        0.634755
LJ          -1.15621        0.011192         1.31688
LJ           1.68306       -0.631871         1.74191
LJ              -nan            -nan            -nan
LJ          -2.00034        0.584838        0.220823
LJ          -1.70345       -0.333959        -1.58343
LJ              -nan            -nan            -nan
