108
#Comment!
LJ          0.855392        -2.03512       -0.720882
LJ          0.558558        -1.88756       -0.753059
LJ          -2.35414         1.51274      -0.0571379
LJ          0.250289         1.84123       -0.920697
LJ           -1.8013        -1.12918       -0.252518
LJ          -2.29779         1.86641        0.551626
LJ          -1.32943          1.8302         1.86308
LJ         -0.360552         2.14851        0.161938
LJ          0.234229        -2.04893        0.931172
LJ          0.213233         2.15528         1.37658
LJ              -nan            -nan            -nan
LJ          -1.58774         1.58501         2.23926
LJ         -0.285515        -2.09293        -2.01089
LJ          -2.13531        -2.48027        -2.36551
LJ          0.793952         1.22189         2.24149
LJ          0.685437        -2.52127        0.113761
LJ              -nan            -nan            -nan
LJ              -nan            -nan            -nan
LJ           2.42008         2.16505        -1.12915
LJ              -nan            -nan            -nan
LJ           -2.4299       -0.796393        0.819184
LJ          -1.04509         1.32781        -1.04301
LJ           1.86049        -1.76099         1.52864
LJ           1.43043        -1.91989         1.26139
LJ           1.10758         1.02338        -2.05478
LJ          -1.39107        -1.79096       0.0955588
LJ          -1.59511       -0.546146          1.7428
LJ        -0.0240289          1.8443        0.221331
LJ           -2.0618       -0.143386        -2.28477
LJ           -1.7156        -1.86032         1.90314
LJ         -0.172466         1.53165        -1.94835
LJ           1.51372        -1.28895        0.772183
LJ              -nan            -nan            -nan
LJ          -0.28394        0.265196         -2.0297
LJ              -nan            -nan            -nan
LJ           2.10261         2.35826         1.50144
LJ          -1.67421         1.33212         1.11399
LJ           1.91316         2.40581        0.444621
LJ            1.9269        -1.76397        0.914902
LJ          -1.27911       -0.180451        0.699817
LJ          -2.49112         1.64774        -1.93532
LJ          0.170955        -1.98256         0.68461
LJ         -0.113998        -2.22985         1.96773
LJ           1.01272        -2.26123        0.443916
LJ          -1.99816        -2.05643        -1.10319
LJ          -2.09533       -0.236164       -0.164719
LJ           0.48023        0.103773        -1.93271
LJ            1.2559        -1.30059        -0.81029
LJ         -0.128083         1.53482       -0.427707
LJ         -0.883063        -2.41357        0.603586
LJ          -2.03146        -1.39357        0.836915
LJ          -1.58681         1.44948         1.53761
LJ              -nan            -nan            -nan
LJ         -0.020266       -0.150503       -0.937383
LJ          -1.77728         2.43337         2.40486
LJ          0.539932         1.81903        -0.30689
LJ          -1.00347        0.125437         1.52393
LJ          -1.26303        0.151048         1.07279
LJ          -2.35389         2.44641        -1.25877
LJ         -0.504149       -0.334555        -2.07098
LJ          -1.97179      -0.0940125        -1.17702
LJ           1.45062       -0.524798      -0.0725294
LJ          0.354229       -0.947443         1.00223
LJ          -2.55027       -0.246555       -0.968241
LJ          0.788047          1.3361       -0.347287
LJ            1.5038         -1.0619        0.627283
LJ          -2.14077        -0.92599        0.431925
LJ              -nan            -nan            -nan
LJ         -0.895728        -1.89713        0.796595
LJ          -1.68098         0.67599         2.37514
LJ          -2.06324       -0.950828        0.741038
LJ         -0.487006          2.0177       -0.638801
LJ          -1.08171       -0.135359         1.63733
LJ          0.104708         2.02403       -0.437791
LJ           -1.5596       -0.723868        0.232457
LJ           1.07929        -1.64432          -2.046
LJ          0.913049        -1.04286         -1.4096
LJ            0.2801        0.553165       -0.951687
LJ         -0.103093        -2.45998        -1.93449
LJ           2.49451       -0.152041        -2.25368
LJ          0.972085         2.45056        -0.32912
LJ         -0.603056        -1.65945     7.96585e-05
LJ          0.033147         -2.2462          1.9669
LJ          -2.26901        -1.08645         -1.5609
LJ          0.269257       -0.468863         1.30804
LJ           1.23301        0.234178         1.25184
LJ         -0.221494         2.16315        -1.70528
LJ          -2.26107         -1.5568         2.11955
LJ          0.756947        -1.01285       -0.284199
LJ           1.85893        0.828225       -0.352458
LJ              -nan            -nan            -nan
LJ         -0.967586       -0.293618        -2.31437
LJ           2.14851         1.14929        -1.10389
LJ          0.640564         1.88371         1.66231
LJ         -0.898636        -2.55311         1.66367
LJ           2.24592       -0.636106        -2.02375
LJ            1.9941       -0.589559         1.56711
LJ          -2.34809        0.722579        0.066829
LJ         -0.679866        0.809342         1.00689
LJ           1.34102        -0.08153          1.2568
LJ           2.28842        -1.20244         -1.4915
LJ           1.70327        0.409226        -1.72027
LJ           1.57663        0.140195       -0.116338
LJ          -2.22124         1.34576        -2.34655
LJ         -0.405762         0.11587         2.47391
LJ           0.75625         1.68765       -0.163126
LJ         -0.501822        -1.98259        -1.01679
LJ              -nan            -nan            -nan
