108
#Comment!
LJ          -2.22591         2.41717        -1.84989
LJ         -0.202844        -0.47907         1.56922
LJ         -0.932653       -0.532193         1.12373
LJ          -1.78012        0.487872        -2.56049
LJ         -0.779801        0.686152         1.87792
LJ           1.29998         1.79183       -0.381755
LJ           2.35183         1.13385        -1.76335
LJ          -2.26836        0.762464       -0.919213
LJ            2.1577        -1.96739        -1.63061
LJ            2.0927        -1.65682        -2.06292
LJ              -nan            -nan            -nan
LJ           2.20897        0.707055        -1.68883
LJ           1.49452         2.10238        -1.91372
LJ           1.71919       -0.678883        -1.58618
LJ           1.49731        -2.55147       -0.966766
LJ          0.245958         1.30723        0.344936
LJ              -nan            -nan            -nan
LJ              -nan            -nan            -nan
LJ          -1.78482         1.18929        -1.85903
LJ              -nan            -nan            -nan
LJ           2.55092         1.14336        -1.15141
LJ           1.23219         1.78199         1.95923
LJ          -2.05444        -1.19894         2.42706
LJ         -0.425444         2.41118        -1.50377
LJ         -0.878879          1.9099        0.576993
LJ           -1.8985        -2.22111        -1.32484
LJ          0.679613         2.11239         -1.9783
LJ           1.30533        -2.50795         2.43716
LJ           -1.3892         0.46859         1.89471
LJ         -0.193285       -0.383108       -0.476347
LJ           1.34414         2.19866        -2.05645
LJ           1.60912          2.3092        -1.68879
LJ              -nan            -nan            -nan
LJ           0.56655       0.0103322          1.1383
LJ              -nan            -nan            -nan
LJ          -1.39597       -0.179347        0.022915
LJ         0.0450686       -0.534134         1.53376
LJ          -2.53012         2.18976        -2.43251
LJ          -1.81813         1.90653        0.413622
LJ          -1.39345        0.258552        0.539248
LJ          0.383132          1.7324        -2.19989
LJ           2.42967       -0.781791        0.600787
LJ          -1.27935        -1.98983        -1.80252
LJ          -2.44932         2.05443        -1.49962
LJ          -1.87996         1.26827       -0.766098
LJ          -1.17187         1.97062        -2.00233
LJ           1.44519        -2.23063         1.39607
LJ         -0.743588       0.0907748        0.653521
LJ           2.36512        -1.48784         2.44883
LJ           1.23924        -1.70274        0.490232
LJ           2.06602        -1.91257        -2.03683
LJ           2.18684         2.35739        0.785673
LJ              -nan            -nan            -nan
LJ           1.79191        0.348941         1.64753
LJ         -0.655557       -0.560357        -2.41649
LJ         0.0498864        0.857545        -1.23083
LJ          -2.02053         2.14857       -0.537134
LJ          -2.50388        -2.34065         -1.6835
LJ          -0.24385         1.53693         2.19195
LJ          0.568019        0.130979        0.511298
LJ            2.1289         1.64213         2.54452
LJ          0.238028        -1.59434         1.30236
LJ           -2.3143        -1.90673        -1.74704
LJ         -0.556819          2.2328         1.06625
LJ          0.825209         -1.6799         2.52203
LJ          0.682771       -0.691968        -2.56216
LJ         -0.914434         1.33832         2.31218
LJ              -nan            -nan            -nan
LJ         0.0790014        -1.63619        -2.40014
LJ           -1.1736        0.566954       -0.545034
LJ           1.82447         1.48036         1.06076
LJ          -1.53805        -1.75322         1.10976
LJ         -0.792521       -0.404447         2.25528
LJ          -2.27482       0.0267206         2.23285
LJ          -0.76799         0.38633        -1.69534
LJ          -2.19231         1.90588        0.595993
LJ          -1.70088        -1.12157         2.20002
LJ          0.891808         2.36958        -1.92771
LJ           1.42008        -1.47697        -1.57002
LJ       -0.00215333        -2.33026        -1.98977
LJ          0.133336        -2.04023         1.98877
LJ          -2.35579       -0.377309        -2.41075
LJ           1.26573      -0.0797751          1.0792
LJ         -0.103551        -2.31572         2.55676
LJ         -0.968626        0.396543         2.41104
LJ          -0.39579        -1.91643        -1.12471
LJ         -0.735235         2.05145        -1.68036
LJ          0.796869      -0.0132211         1.94823
LJ          -1.25925         0.15267       -0.213799
LJ           2.20412       -0.700116          1.8845
LJ              -nan            -nan            -nan
LJ          0.970558       -0.121774        -2.12672
LJ           1.46828         2.47834         1.93729
LJ           1.77149        -1.58638         1.19476
LJ           1.62271        0.562454        -2.23899
LJ          0.488991         1.02137        -0.30462
LJ          -1.65882        -2.05346       -0.475242
LJ          0.368022         2.27814       -0.163645
LJ         -0.138049         -1.4847        -2.05816
LJ         -0.861476        -1.57309        0.573144
LJ          -1.73571        0.446234         2.27986
LJ           1.26311       -0.512232         1.96854
LJ          -1.32363         2.28033          1.6564
LJ         -0.256033         2.32716        0.126211
LJ        -0.0982405        -2.49124         1.61279
LJ            2.4561        -1.09094         1.37174
LJ          0.214552         1.66465         1.01733
LJ              -nan            -nan            -nan
