108
#Comment!
LJ          -1.19745       -0.375383       -0.745991
LJ          -1.29711        -1.60627         1.34454
LJ           1.10836         1.66079       -0.250316
LJ         -0.305636        -2.07563         1.59935
LJ          -1.97234        0.217999       -0.685875
LJ           1.75085       -0.532653        -2.22932
LJ          0.590423         1.63823        -1.59262
LJ          -2.10229        0.627828        -1.88263
LJ           2.07673         1.53821         1.81726
LJ          -2.19239       -0.656293         1.36446
LJ              -nan            -nan            -nan
LJ           0.15365        -2.05727         1.30602
LJ           1.05955         1.19274       -0.251691
LJ          -1.37753        -2.35908        0.944099
LJ          0.355749        0.582212         2.00384
LJ          0.122856        -2.17989       -0.894142
LJ              -nan            -nan            -nan
LJ              -nan            -nan            -nan
LJ         -0.419133        0.516341         2.06595
LJ              -nan            -nan            -nan
LJ           -1.0916         1.46874         1.77703
LJ          0.897116          1.6706       -0.339848
LJ          0.819804         -2.5138         1.01667
LJ           2.55051       -0.134983         2.53519
LJ          -1.07153       -0.732071        -2.49675
LJ          -2.25404         1.57152        -2.22602
LJ           0.29713       -0.319657         1.23152
LJ           2.48155         0.24375         2.48789
LJ         -0.349779        0.562474        0.284778
LJ         -0.137481         1.42244        -2.40349
LJ           2.44959       -0.407723        -2.08878
LJ           1.04124         1.85896        0.296713
LJ              -nan            -nan            -nan
LJ         -0.938051        -2.23758         1.90618
LJ              -nan            -nan            -nan
LJ          -1.14126         1.89916          1.3208
LJ           2.55718         2.06149       -0.056378
LJ          0.547709        -1.56319          -1.013
LJ           -1.7655        -1.23789          2.1661
LJ           2.23151        0.995673        -1.21145
LJ           -1.3481         1.23821        -0.63418
LJ          -0.16163         1.34411         1.58429
LJ         -0.377002        -0.43162        -2.42712
LJ           1.24165         1.18859        -2.28296
LJ           2.24746       -0.893278          -1.396
LJ           1.23445        -2.17385        -1.00838
LJ         -0.345225        -2.40903        0.928487
LJ           1.04356         1.69076         1.20086
LJ          -1.11363        -1.61308        -2.01647
LJ           1.76989      -0.0175136       -0.932107
LJ           1.81219         2.20669         1.38253
LJ            1.4413        0.369328         2.15425
LJ              -nan            -nan            -nan
LJ         -0.274288        -1.35894        0.856573
LJ         -0.150417       0.0360506       -0.600367
LJ          0.793223         0.99166       -0.487598
LJ         -0.100191        0.419878        -0.61275
LJ          -1.62536        -1.94188        -0.28628
LJ          -2.12634         1.89987       -0.325315
LJ         -0.830988        0.727619         0.93616
LJ          -2.29211      -0.0690184       -0.401926
LJ          0.797639        -1.73702        -1.94628
LJ          -1.30807         2.00282        -1.20109
LJ           1.04693        -1.55263       -0.428166
LJ           1.55074        0.945418         -1.0616
LJ          -2.31506       -0.569671      -0.0477768
LJ           2.18949         1.31412     -0.00360838
LJ              -nan            -nan            -nan
LJ          0.876472        -2.44895        0.932216
LJ         -0.286972         -1.0708        -1.74597
LJ           1.82443        -1.81973       -0.151726
LJ            1.9672         1.19352        0.698403
LJ          -2.15314        -1.86121       -0.976395
LJ         -0.928471        0.447468        0.794117
LJ           1.96796         1.95268       0.0121907
LJ           2.31213       -0.314142        -1.74691
LJ          0.923583       -0.842396        0.950694
LJ          -2.09175         1.91108        -1.64047
LJ         0.0656801        -1.09684         2.16194
LJ          0.679492         1.71714         2.50023
LJ          -2.29016       -0.163364        0.652333
LJ          -1.21429          -2.149         0.10096
LJ         -0.217829        0.975724        -1.88586
LJ         -0.014355         1.34349       -0.317759
LJ          -1.51968        0.846568         2.17335
LJ          -1.22674        0.269286       -0.558998
LJ          0.490129         1.60005         0.47568
LJ          -0.67808         1.64102       -0.728355
LJ          -1.27736        -1.50136        0.197073
LJ          -1.11822         2.27518         2.23096
LJ              -nan            -nan            -nan
LJ           1.98951          1.4493        -1.59766
LJ         0.0632905       -0.666468         1.61232
LJ          -2.14649        -1.64789      -0.0810461
LJ          -2.48992         1.98244        -1.28374
LJ         -0.918256         1.01095        0.604386
LJ          0.391601       -0.292566        -2.10395
LJ           -1.4676        0.313139       -0.817593
LJ           2.31356       0.0438921        0.388939
LJ          0.850415         2.39274        0.339888
LJ         -0.883128       -0.231404       -0.446166
LJ          -1.70043         1.49044        -2.48608
LJ         -0.681303       -0.516921        -1.83028
LJ           -1.2376         2.07324        -1.98577
LJ          -1.83976        -1.11744       -0.421068
LJ          0.530466        -1.70811        -1.01776
LJ          -1.99298         2.21345       -0.450776
LJ              -nan            -nan            -nan
