108
#Comment!
LJ         -0.314179        -1.13975       -0.106353
LJ         -0.402194         1.05745       -0.616199
LJ            2.3027        -2.50137       -0.402419
LJ            2.0022         2.33123          1.2297
LJ          0.526714        0.804804         1.54263
LJ          -1.07602      -0.0971194        -2.29499
LJ          -1.26706        -1.47864        -1.51054
LJ         -0.368121         -1.5506       -0.533254
LJ           1.78728       -0.337463       0.0640496
LJ        -0.0953956        -2.43811       0.0718936
LJ              -nan            -nan            -nan
LJ          -2.49967        -1.12404        -1.23643
LJ          -0.55278        -2.02969         -1.8446
LJ           1.84704       -0.269792        -2.35589
LJ          0.125872       -0.714413        0.698094
LJ           1.62216        0.288697         1.87429
LJ          -1.72389         1.96164        -1.38591
LJ            1.8088        0.392146        0.305451
LJ           1.99842         2.34171         1.40388
LJ          0.828126       -0.722169         2.22188
LJ          -2.33625       -0.583238        0.712811
LJ          -1.75543       -0.281194         1.70807
LJ           1.69089        -1.45126        0.146357
LJ         -0.236942        0.308582         1.49513
LJ         -0.295853        -2.42359        0.860033
LJ           1.41169         2.46277       -0.655064
LJ           1.45213        -2.47477        0.323877
LJ        -0.0603263        -1.23362       -0.494503
LJ           2.04868      -0.0269192        -1.42162
LJ            1.9142         1.40692        -2.33139
LJ          0.561517        0.324939        -1.05523
LJ         -0.602205         1.00826       -0.342844
LJ              -nan            -nan            -nan
LJ           1.81833         1.69195        0.301604
LJ          -1.71025       -0.246117         -1.1391
LJ          -2.12049           1.007       -0.660497
LJ          -1.72008        0.441683       -0.313538
LJ         -0.713385        -1.51107          1.8808
LJ            2.3743        0.998598        -2.04654
LJ          0.851018         1.15739         0.35763
LJ         -0.702025        -1.28835        -1.30956
LJ        -0.0961074         1.20092        0.038937
LJ         -0.266354        0.586233        -1.08357
LJ           2.25569         1.40355        -1.57952
LJ           -1.9225         1.90252        -2.25619
LJ          -1.20191        -1.56119        -1.61092
LJ          0.202673        -1.31963         -1.2931
LJ           2.39161         -1.6626         1.16614
LJ           0.23505         1.00461       -0.776118
LJ           1.43005        -1.84519         1.57988
LJ        -0.0419989          2.1853        -2.35659
LJ          -2.11824        -1.23693         1.00083
LJ           1.72677        -1.15511        -2.42625
LJ          -1.86741        -2.12769       -0.374563
LJ         0.0528361        0.925504         2.38429
LJ          -1.02627        0.105958         2.41723
LJ          -1.86517        -1.26655         2.54177
LJ           2.33643        0.128195        -2.44822
LJ          -1.04869         1.55649           0.991
LJ           -2.3964         1.07228         1.76386
LJ           2.27634        0.020568        0.862503
LJ           -2.2664          1.0994        -1.77632
LJ          -2.07735       -0.790414        -1.22167
LJ         -0.425017         0.56022       0.0901014
LJ          -1.38773         2.55901         1.78507
LJ           0.42489      -0.0287364         1.05118
LJ          -1.98774        -2.19556        0.943832
LJ           1.47959         1.56564          2.3917
LJ         -0.136217          1.3046         1.99927
LJ         -0.751366        0.825072        0.479025
LJ          0.293599       -0.994213        -2.04418
LJ         0.0814917        -1.54837         1.73989
LJ           2.35069        0.596873        -1.33223
LJ          -2.00459        -1.01526         2.05943
LJ          -1.55911        -2.25348        0.434805
LJ           1.02501         1.45121        -2.50908
LJ          0.186157         0.56202        -1.13523
LJ         -0.678491        -2.54173         1.11475
LJ           1.30284        -1.85248        -1.58606
LJ          0.684854         1.42496         1.45713
LJ          -2.33314       -0.251324          1.1896
LJ          -2.42163        -1.84995        -1.66619
LJ          0.582111         1.64993         -1.9064
LJ          -1.76556         1.81721        -1.22237
LJ          0.658763         1.42093        0.806658
LJ          -1.26145       0.0654282        0.812075
LJ          -1.43441         1.68631         1.34694
LJ          -1.29256        -2.27498       -0.252042
LJ          -0.11851          0.9197        -2.16738
LJ          0.108536         1.93471       -0.479284
LJ          -1.76133        -1.66006       -0.508101
LJ          -1.53203         2.13456       -0.466847
LJ         0.0610272        -2.00178        0.754723
LJ           1.25322       -0.541216        -1.00927
LJ            1.1392         2.51397       -0.692922
LJ           -1.0496         1.13738         2.21574
LJ          0.677385       -0.763111       -0.466398
LJ         -0.648092      -0.0821589       -0.109733
LJ         0.0109832         2.54709       0.0409851
LJ          -1.59717        -2.28085        0.697548
LJ           1.98046        -2.03226       -0.834753
LJ          0.663221         2.20554      -0.0297351
LJ          0.274332        0.924674        -1.60969
LJ          0.356651          0.2053        0.156643
LJ         -0.103105       -0.605798         2.04554
LJ          -2.11332       -0.012562        0.720006
LJ          -1.00746        -1.69552        0.770245
LJ           2.53644       0.0854067         2.50064
