108
#Comment!
LJ           2.28703        -1.46536        -1.04708
LJ           2.34267         2.34576         1.58004
LJ          -1.70927        0.650181        0.166718
LJ          -0.22305        -1.24745         1.41807
LJ          -2.10787        -2.12657         1.90631
LJ         -0.868732        -1.62744         1.12708
LJ           1.74148        -1.83758        0.763079
LJ          -2.24447         1.50848        -1.08389
LJ         -0.202867        -1.24797         1.32069
LJ           0.39174        -1.23448        0.987848
LJ              -nan            -nan            -nan
LJ           0.56143        -2.36992         1.32658
LJ         -0.826253          2.3072        -2.37721
LJ              -nan            -nan            -nan
LJ          -1.80337         2.00031        0.429876
LJ              -nan            -nan            -nan
LJ              -nan            -nan            -nan
LJ              -nan            -nan            -nan
LJ          -0.96766      -0.0353421         1.07145
LJ              -nan            -nan            -nan
LJ           0.73486         2.12246        0.143931
LJ          -2.18476         1.19722         2.53624
LJ         -0.791175        -1.49107        0.958123
LJ              -nan            -nan            -nan
LJ           2.41309        0.847858        -1.64694
LJ           1.28251        -1.60145       -0.985745
LJ          -1.12163         2.15481          0.6008
LJ           2.44094         1.24396         2.41155
LJ           -1.6789       0.0587283       -0.941633
LJ          0.216698        -2.34259       0.0627409
LJ              -nan            -nan            -nan
LJ          -1.91609          2.2241        0.104048
LJ              -nan            -nan            -nan
LJ         -0.139421       -0.463247       -0.852874
LJ              -nan            -nan            -nan
LJ           1.43255         2.33305         1.17829
LJ           2.50528        -1.57647        0.368842
LJ          -1.53744        -1.77358        -1.81399
LJ          0.979335        0.203453         2.50008
LJ          0.851909        -1.83001        0.383822
LJ           -1.3612        -1.39399        0.778252
LJ         -0.691879        0.683206        0.833358
LJ           -1.2347        -1.13209        -1.76709
LJ          -2.40788        -2.31597        0.852872
LJ           1.37371        0.738855         1.72069
LJ            -1.145       -0.897244         1.03108
LJ           1.45793        0.510979        -1.40625
LJ         -0.708653        0.463423        -1.65433
LJ          0.199262       -0.452745        -2.54901
LJ          -2.35576        -2.44511        -1.46555
LJ          -2.48578        -2.34507       -0.479815
LJ           -1.2768        -2.19227        0.910408
LJ              -nan            -nan            -nan
LJ           1.02773       -0.663035        -2.08288
LJ         -0.877255        0.258126        0.773123
LJ          0.761833       -0.345536         2.21167
LJ           2.20726        -1.21167        -2.19854
LJ         -0.375336        0.749636        -1.62445
LJ         -0.386346        0.020214        -0.79584
LJ           1.66673         1.60043        -1.03076
LJ         -0.375092        0.655059        -1.41081
LJ          -1.31966        -2.35307         1.07767
LJ          -1.60647        -2.23602        0.199026
LJ              -nan            -nan            -nan
LJ              -nan            -nan            -nan
LJ           1.64004          1.1467         1.17453
LJ           2.31414        0.459564        -1.13765
LJ              -nan            -nan            -nan
LJ        -0.0942848         1.93462       -0.435127
LJ          0.621051         2.40194       -0.430674
LJ          -1.50061         2.45348       -0.600675
LJ          -1.03288        0.731453         1.40332
LJ           2.39431       -0.410939        -1.12855
LJ            1.6619       -0.111838        -1.25476
LJ          -1.50752        -2.01069       -0.571744
LJ           -2.3278         -1.1929         1.12473
LJ          0.522779        -1.49967       -0.467424
LJ           -1.0554        -0.39854        0.524099
LJ          0.483918         2.21304       0.0228671
LJ          0.652368        -1.72597         -1.3234
LJ          -1.06346         1.04415         1.77105
LJ         -0.246965        -1.31077       -0.843106
LJ          -1.15652         0.88758       -0.236538
LJ           1.59035         1.77732         1.84115
LJ         -0.751345       -0.799549        -1.62029
LJ          -2.21738       -0.671508        -2.44083
LJ            1.9125         1.63046        0.996781
LJ          -1.64935        -1.09666         1.47601
LJ          -1.25124        -2.11532         1.40386
LJ          -2.47549        -1.33914        -1.50799
LJ              -nan            -nan            -nan
LJ          -1.45362        -1.49277          -2.078
LJ           -0.3566         2.20414       -0.894091
LJ           1.62818         1.57223        -2.37943
LJ          0.193731        -2.56258        0.423623
LJ            2.1076      -0.0014277       0.0666631
LJ           0.79792         1.41013         1.48481
LJ            1.0339       -0.483681         1.37052
LJ              -nan            -nan            -nan
LJ          -2.11695        -2.19742       -0.443418
LJ          0.848471         1.31484      -0.0069526
LJ          -1.01989        -2.04819        -2.04026
LJ          -1.16249         2.42354        -1.93008
LJ          -1.82971        -2.15425        0.115889
LJ              -nan            -nan            -nan
LJ        -0.0410579       -0.403967       -0.800882
LJ          -1.81468        -2.18616         1.41863
LJ              -nan            -nan            -nan
