108
#Comment!
LJ          -2.19947        -1.52045        -1.18695
LJ          -1.80453       -0.279781        -2.42612
LJ         -0.266886       -0.482279       -0.253233
LJ           2.01792       -0.950472         1.73475
LJ          -1.88053         1.60635         1.36918
LJ          -2.16338       -0.774506      -0.0024932
LJ          0.588676        -2.56484       -0.580887
LJ           1.45827        -1.38542        -2.51009
LJ          -2.02197     -0.00437689         1.48708
LJ         -0.301812        -1.81738        -1.05927
LJ              -nan            -nan            -nan
LJ           2.04587        -2.51273       -0.704969
LJ          0.842446       -0.443515       0.0417644
LJ           1.01411        -2.22531         1.29711
LJ         -0.339583      -0.0346367        -1.51655
LJ           2.09788        -1.36507         1.25526
LJ              -nan            -nan            -nan
LJ              -nan            -nan            -nan
LJ           1.50861        0.534448        -0.46724
LJ              -nan            -nan            -nan
LJ         -0.745219        0.592826         1.03761
LJ          0.482824         1.95476        0.866801
LJ          -0.69904        -1.29751         -1.4566
LJ          0.782078        -1.38501       -0.976922
LJ           1.81247         1.73973        -1.58471
LJ         0.0471608         1.60034        0.899681
LJ          -0.95351        0.626098        -1.22196
LJ         -0.316188        -1.39251       0.0265122
LJ          -1.15394       -0.475839        -1.84699
LJ          -1.66797       -0.773223        -1.46069
LJ          -1.86858        -2.53101         -1.8783
LJ           2.24727        -1.60938        0.085268
LJ              -nan            -nan            -nan
LJ          -2.38272          1.0715       -0.143151
LJ              -nan            -nan            -nan
LJ          0.958972         1.94489        -2.50069
LJ         -0.245011        0.760208       -0.875545
LJ           1.15109       -0.746521       -0.975028
LJ         -0.975612       -0.351221        -1.35327
LJ          0.456984        -1.27384       -0.202125
LJ           1.46081        -1.70399         1.99674
LJ           2.35731        0.204644       -0.758405
LJ          -1.48831         2.54586         1.55555
LJ          -2.49056       -0.330331       -0.279808
LJ         -0.380847         1.08573        -1.73617
LJ          -1.94405        -2.12203         2.43242
LJ           1.37184        -2.16291         0.64276
LJ         -0.656223         1.13741         1.03669
LJ           1.15545          1.3343       -0.911718
LJ          0.501089        -2.12919           2.065
LJ            1.5521         2.21851        -0.47758
LJ         -0.276629       -0.646822        0.797085
LJ              -nan            -nan            -nan
LJ         -0.106305        0.360535        -1.64612
LJ           2.14581        0.984774        -2.01871
LJ          0.644116        0.116646         1.46634
LJ         -0.267259        -2.02382        0.322375
LJ         -0.356927       -0.775664        0.700036
LJ          0.344436         2.04696         0.67747
LJ           1.83034        -1.72659         0.53098
LJ        -0.0435216         1.16804        -1.27257
LJ         -0.136579        0.646688        -1.14046
LJ          -1.03913         1.41097          1.2459
LJ         -0.263032         1.84955       -0.822557
LJ           1.42853         1.17668       -0.557341
LJ           1.95838        0.848422         1.40107
LJ          -1.45461         1.50565         2.18659
LJ              -nan            -nan            -nan
LJ          -1.05621         0.42804         2.24934
LJ         -0.436049         2.47265        -2.45281
LJ           -0.6393         1.12301       -0.837594
LJ          0.272125        -1.91875       -0.817914
LJ           1.94628         2.43014       -0.727661
LJ          -1.75592        0.710631        -2.34046
LJ           1.98627       0.0128997         1.49486
LJ          -2.56406         2.03397           1.105
LJ          0.524006        0.133452         1.73066
LJ          -2.47576       -0.660818         0.87432
LJ          0.631164       -0.142285         1.76764
LJ          -0.15746       -0.358483        -2.51604
LJ          -0.86185      -0.0660716          1.2971
LJ         -0.520752         2.13567        -2.25971
LJ          -1.89586        -2.40617       -0.326515
LJ         -0.437326          1.1826         2.26587
LJ          -2.46515        0.736047         1.39745
LJ          -1.54927       -0.166634        0.186427
LJ           2.41099       -0.454807        -1.84411
LJ           1.17989        -0.84312         -1.1225
LJ          -2.43713         -1.6078        0.356074
LJ          0.451352        -2.35993       -0.657616
LJ              -nan            -nan            -nan
LJ          -1.71791         2.19915        -1.28916
LJ          -2.53151         2.47304         1.69641
LJ           2.29263         1.22922       -0.299032
LJ           1.80223       0.0168206         1.07346
LJ         -0.668063         2.01475        -1.54018
LJ           1.78487        -2.56001       -0.280911
LJ          -1.12036         2.13876       -0.556151
LJ           1.66658       -0.892276         -1.8694
LJ           2.50708         2.45767       -0.252711
LJ           1.48519        -2.09162       -0.563138
LJ          -1.10525        -1.96254       -0.263533
LJ            0.7299         2.32568        -2.51615
LJ           2.32805         1.17375          2.4662
LJ           1.11901         1.41511        0.599326
LJ           1.51603        -2.21681         1.10462
LJ           1.25439        -1.71446         2.41943
LJ              -nan            -nan            -nan
