108
#Comment!
LJ          -2.29155         1.64269        -2.37158
LJ          -1.21855        -1.00789       -0.666785
LJ          -1.66608        -1.27632       -0.852264
LJ          -1.93011        -1.48599        -1.02806
LJ           0.74305         -2.5599         1.51954
LJ          -2.05185         2.06019         1.28266
LJ         -0.789031       -0.772093        -1.66891
LJ          -1.95265        -1.80091        -2.37686
LJ         -0.534388       -0.263422          -2.529
LJ            1.9195         1.18932         1.90132
LJ              -nan            -nan            -nan
LJ           2.00135         1.34672         1.60623
LJ         -0.188763        0.306838         1.09309
LJ          -2.41724        -2.52937         1.58719
LJ          0.205008         1.87599         2.01488
LJ          -2.26875      -0.0110087        -1.11073
LJ          0.984661        0.550142        -1.83284
LJ          0.654992         1.75274        -2.29972
LJ          -1.96701       -0.229814       -0.763666
LJ          0.870805        -1.03019        -1.05216
LJ           2.56211         1.03979       -0.231469
LJ          0.612388        -1.56437        -1.93806
LJ           -1.9104       -0.935827       -0.196534
LJ          -1.97877        0.117314          2.0848
LJ           2.21926         1.83594       -0.547703
LJ          0.150122         1.26603        -2.54258
LJ         0.0522874       -0.310076        -2.34912
LJ           1.40979        -1.02457        -1.71267
LJ           1.03694       -0.171202        -2.55623
LJ           2.25494       -0.165809       -0.650995
LJ          0.879627        -1.74855        -1.25886
LJ          -2.47644        0.891633        0.902496
LJ              -nan            -nan            -nan
LJ         -0.268525         2.51475         1.78112
LJ              -nan            -nan            -nan
LJ          -2.50251        0.648049        -1.16909
LJ           1.50633          1.9486         -2.4918
LJ           1.74606       -0.233642         1.35938
LJ          -1.75338       -0.185825        0.940724
LJ          -1.96625       -0.760832       -0.561038
LJ          -2.25582        -1.48232        -2.21283
LJ         -0.225458        -1.25403         1.23178
LJ          0.278771         1.66117         2.47166
LJ           1.79069        -0.48972         -1.4878
LJ          0.532288         -1.3503         1.30945
LJ          0.122851         1.46301       -0.693872
LJ          0.493123       -0.562342       -0.371089
LJ         -0.183578        -2.10686        -1.92221
LJ          0.809946        -2.19142        0.945492
LJ           -1.7113       -0.126756        -1.69023
LJ          -1.99666        -1.06829        0.592062
LJ          -1.73033         1.39818          1.7298
LJ          0.592969        -2.01455         1.79155
LJ         -0.675078         2.04659         1.54635
LJ           -1.3291        -2.36081         2.21576
LJ          -1.34366       -0.237957        -1.22424
LJ          0.507169        -1.54695        0.972729
LJ           2.09812        -1.95486        -2.01156
LJ         -0.625781       -0.825752       -0.448636
LJ           1.60505         2.36789         2.15005
LJ          -1.12804        -2.14477         2.55495
LJ          -1.97131        0.264967        0.753297
LJ           2.12309         -0.9963        -2.36185
LJ         -0.872864         1.02485        0.573624
LJ          0.503064        0.703443         2.40319
LJ            2.3455          1.7011         2.21606
LJ           1.07821        -1.70175       0.0587856
LJ              -nan            -nan            -nan
LJ          0.733956         1.55428        0.415582
LJ       -0.00733915         1.71322       -0.235771
LJ           2.10087         1.08496       -0.823285
LJ           2.12686        -1.42739       -0.426989
LJ          -1.91925         2.05757        -1.81224
LJ          -1.15172         -0.9941       -0.545952
LJ           2.05623        0.396829         1.25586
LJ           2.17186        -1.40945        -1.71124
LJ           2.02251       -0.218443         1.43838
LJ          -1.00614       -0.983464        -2.54007
LJ          -1.91642         2.32938        -1.33069
LJ          0.539708       -0.318297         1.86947
LJ          -2.32443        -1.30484        -2.11652
LJ          0.295002       -0.259475       -0.563023
LJ          0.661956        -1.93338         2.53486
LJ          -2.19501       -0.417457        -2.16243
LJ         -0.797971        0.291434       -0.295193
LJ          0.472118        0.425126        0.087213
LJ         -0.649426         2.02385         1.58918
LJ           2.03018        -1.22145        0.296887
LJ          -1.31619       -0.851308         1.06376
LJ          -1.96263        0.578874        0.441759
LJ          0.031193     -0.00108407        -2.37816
LJ          -1.16265         1.55002        -1.49355
LJ           -1.0714           1.407        -1.59079
LJ          0.960203        -1.91322        0.683523
LJ         -0.651379        0.529023        0.742689
LJ           1.58299        -1.80371        -2.02649
LJ           2.29764       -0.462506         1.46523
LJ          0.743183        -2.12797         -1.0171
LJ         -0.880944           1.708       -0.867194
LJ          0.985801         2.16972          2.2776
LJ          -2.19785         0.72008        0.239851
LJ           1.06441       -0.460061        -2.50742
LJ          -1.01617          1.3195          2.4931
LJ         -0.859996         1.90767        -1.36865
LJ           1.42847       -0.526067        -1.32034
LJ          0.913411         1.89298        0.820277
LJ           1.84085        -2.12448        -0.46553
LJ          -1.61909       -0.790117         2.12963
