108
#Comment!
LJ           1.24492       -0.519107          2.1721
LJ          0.339878        0.847443         1.42761
LJ           1.82291         1.49543       0.0120346
LJ          0.138795         1.65099         2.06835
LJ          0.904481        -2.27772          0.1604
LJ           2.25242        -1.28933       -0.574213
LJ          0.126788        -1.32584         1.07011
LJ          -2.20357        -2.04171        -2.27859
LJ           1.16981        0.125907         1.91225
LJ           1.36465        -2.28302         2.49937
LJ              -nan            -nan            -nan
LJ         -0.631397        -1.36735        -0.98234
LJ         -0.249644      -0.0939341        -1.60915
LJ              -nan            -nan            -nan
LJ          -1.71974        0.731511         1.97888
LJ              -nan            -nan            -nan
LJ              -nan            -nan            -nan
LJ              -nan            -nan            -nan
LJ           1.17287         1.80393        0.056065
LJ              -nan            -nan            -nan
LJ          -2.08778        -2.48703        -0.88436
LJ          0.312722       -0.161567        0.204767
LJ          -1.30857       -0.509685         2.19793
LJ              -nan            -nan            -nan
LJ           0.10403       -0.720678        -1.55314
LJ        -0.0690666        -2.44965         1.27428
LJ          0.681448       -0.741945       -0.989755
LJ          -1.23097         2.40226        -1.89004
LJ           1.46271        0.197218      -0.0138618
LJ         -0.806464         1.63014        -1.10802
LJ              -nan            -nan            -nan
LJ           2.55267         2.19793         2.46241
LJ              -nan            -nan            -nan
LJ          0.991897       -0.346624        -1.80194
LJ              -nan            -nan            -nan
LJ           2.03092        -2.15667       -0.608244
LJ           1.44009        -1.91099          1.6851
LJ         -0.846627         1.13148         0.34787
LJ          -1.93133        -1.16236         1.21278
LJ           2.46422        0.663755        0.207785
LJ         -0.874017        -1.99527       -0.176335
LJ           1.77719        -1.56036         1.30976
LJ          -2.08607        -1.79079        -2.46186
LJ           2.10798         2.06639       -0.464065
LJ          -1.33558        0.202392        0.904584
LJ           2.03752        0.164713         2.40973
LJ          0.535437       -0.899167      -0.0498333
LJ           2.35738       -0.243402         1.20547
LJ          0.610107         2.17493         1.54368
LJ          0.683445         1.30983        -1.45168
LJ           1.47553          1.6602       -0.560244
LJ          0.742812         1.34095        -2.16498
LJ              -nan            -nan            -nan
LJ           1.69475         1.16916        -2.41191
LJ           1.43299        0.238411        0.251643
LJ          -2.47052       -0.408217       -0.628409
LJ          -1.08855         1.64657        -1.02523
LJ          0.968343        0.621617         1.74519
LJ          0.849213        -1.02596        -2.48878
LJ            1.9957        0.944671       -0.764833
LJ         -0.625007          1.3399         0.96306
LJ          0.899877       -0.249501         1.03844
LJ         -0.757738        -1.76332        0.922325
LJ              -nan            -nan            -nan
LJ              -nan            -nan            -nan
LJ           2.49836       -0.380471         2.37171
LJ           2.42894         2.18029         1.00835
LJ              -nan            -nan            -nan
LJ           1.24727         1.88118        -1.90663
LJ          0.920682         1.86421        -1.43783
LJ          0.839406        0.811062       -0.265285
LJ          -2.39936        0.708438        0.613086
LJ         -0.237455          2.1375        0.594407
LJ          -1.26871         -1.6123         0.34802
LJ          -2.48508      -0.0552607        -2.07353
LJ           2.15871         1.17963        -1.89213
LJ           2.28961       -0.752576        -1.11275
LJ           1.51501         1.40644        -1.67302
LJ           1.43477         2.43443       -0.962019
LJ          -1.55359        0.708659       -0.254849
LJ           2.12593       -0.139548         1.47025
LJ           1.54904        -2.23232         2.03484
LJ         -0.571732         2.23976       -0.207532
LJ          -2.01443         1.31028        0.909269
LJ          -2.49503        -1.08868        -2.27009
LJ           1.70298        -2.28388         2.04843
LJ        -0.0781918        -2.56337         1.85793
LJ          0.552321       -0.855449        -1.63489
LJ          -2.25217       -0.550104        -1.15094
LJ           2.28075        -1.50451        -1.53921
LJ              -nan            -nan            -nan
LJ           1.27627        -2.26724       -0.855835
LJ            -1.597         1.57282         1.28492
LJ          0.481679        -2.54555       -0.662101
LJ           1.63829         1.09477        -1.80085
LJ           1.96252         1.51201        -2.01676
LJ          -1.44168        -1.20981       -0.331231
LJ          -1.31059         1.11661       -0.826613
LJ              -nan            -nan            -nan
LJ           1.87241       -0.600218        -1.86628
LJ         -0.173598         2.32605       -0.572613
LJ          -1.46666        -2.06483        -1.25617
LJ          -1.82828        -2.14957         1.97823
LJ          0.353208        0.414946       -0.899449
LJ              -nan            -nan            -nan
LJ          0.494751       -0.301355         1.32553
LJ           0.80877         1.80758         1.21288
LJ              -nan            -nan            -nan
