108
#Comment!
LJ          0.538846        0.028125        0.745542
LJ          -1.48784       -0.921177       -0.566265
LJ           2.25288        -1.51044        -0.18005
LJ           1.95595         1.52948         2.07916
LJ          0.676213        -2.09159        -2.41253
LJ          -2.14958        -1.29121        -1.60455
LJ         0.0418971        -2.13809        -2.04291
LJ          0.866686        0.398001       -0.542932
LJ           2.52433        -2.08697         2.17788
LJ          -1.92735        0.653349         0.57453
LJ              -nan            -nan            -nan
LJ          -1.81649        0.713684         -2.1614
LJ            1.7404        -2.04299           1.398
LJ              -nan            -nan            -nan
LJ           1.27492        -2.25147        0.985213
LJ              -nan            -nan            -nan
LJ              -nan            -nan            -nan
LJ              -nan            -nan            -nan
LJ         -0.436188        -1.65627        -1.88647
LJ              -nan            -nan            -nan
LJ          -2.07004        0.782167         0.95069
LJ         -0.705928         2.41104        -1.47555
LJ          -2.39812        0.139174         -1.9575
LJ           1.96273         1.52556       -0.128489
LJ         -0.762369         2.24288        -1.47694
LJ           1.77208        -1.97381         2.52034
LJ          -1.01107        -2.00446         1.66577
LJ          -1.21491         1.39252       -0.144299
LJ           1.21262       -0.532159        -2.16664
LJ          0.927015         1.37571          1.0328
LJ              -nan            -nan            -nan
LJ          -2.46012         1.59997         1.16502
LJ              -nan            -nan            -nan
LJ          -0.52507       -0.674659      -0.0436144
LJ              -nan            -nan            -nan
LJ          -1.94634       -0.290571        -1.84401
LJ           1.15168        -2.55567       -0.579024
LJ           2.28215        -1.85526       -0.662356
LJ          -2.30866         1.26632         -1.6598
LJ          -1.08256         2.36556          2.4138
LJ          -2.14368        -1.94268       -0.781314
LJ         0.0642686       -0.966793       -0.249013
LJ         -0.489493       -0.671381       -0.765659
LJ           1.68123        -1.54964         1.87473
LJ         -0.575424        0.658982         1.82655
LJ         -0.155414        0.902959       -0.766086
LJ          0.161199         1.66853       -0.259761
LJ         -0.573569         1.59123         2.04021
LJ           1.69679        -2.33796        -1.16084
LJ           1.16069       -0.847887        0.289867
LJ           1.81684         2.50219         0.30429
LJ          0.935514       -0.764495         1.51685
LJ              -nan            -nan            -nan
LJ          0.987771       -0.355264       -0.357463
LJ          -2.37422         1.42452        0.529906
LJ         -0.261919       -0.288968        -1.80397
LJ           1.02415         1.49543         2.36996
LJ          -0.94068         1.92831     -0.00638536
LJ           1.17305       -0.504713        0.847547
LJ          0.953884         0.14924         1.76807
LJ          -1.90361       -0.811729        -1.53162
LJ          0.610207          2.5006         -2.3349
LJ           2.27803          2.2298        0.160467
LJ          -1.49356        -1.47589         2.47564
LJ              -nan            -nan            -nan
LJ         -0.444224          1.2363     -0.00782028
LJ           -2.2333         1.39869         1.79297
LJ              -nan            -nan            -nan
LJ         0.0605242        0.202457       -0.985749
LJ          -2.53856         2.18225         -1.8951
LJ          0.961121        -0.19213       -0.366755
LJ           1.07565         1.94958         1.74129
LJ          -1.11302       -0.188148       -0.425693
LJ          -2.24763       -0.820553        -2.12079
LJ         -0.370545       -0.771839         1.39881
LJ           2.44739        -2.04952         1.46668
LJ           0.22343        -2.25062         2.11404
LJ           1.35815        -1.25544        -2.26055
LJ         0.0256956        -2.19508          1.7802
LJ         -0.541937        -1.86965       -0.452693
LJ          0.620396        -1.10957         0.71382
LJ          0.250292         1.62804        0.703682
LJ          -2.44865        -1.66887        0.805333
LJ           1.83989         1.64982         1.61725
LJ           1.44773        -1.18972       -0.393769
LJ          0.246416        -1.77207          1.4807
LJ           1.66803        -2.27096         0.22019
LJ         -0.593728        -1.08496        0.637862
LJ         -0.359491        -1.94333           1.247
LJ         -0.432872        -1.41326       0.0984735
LJ              -nan            -nan            -nan
LJ           2.31255         1.53545         1.93132
LJ          0.588949       0.0229996        0.763134
LJ          0.335477         1.00251        -1.78274
LJ          -1.94006         -2.4154          1.8258
LJ          -2.06001         -2.2781         2.18066
LJ          -2.38352        0.802614        0.445664
LJ          -1.77572         2.40447         1.42636
LJ              -nan            -nan            -nan
LJ           1.08616        0.230129         1.67866
LJ           1.97491        -1.89703        -1.51913
LJ          -1.17936        0.826568         1.43091
LJ         -0.120692        -1.95568       -0.823827
LJ          0.129956         1.28513         1.88049
LJ              -nan            -nan            -nan
LJ          0.175435         1.38284        -2.09913
LJ           1.39972       -0.509863         1.30311
LJ              -nan            -nan            -nan
