108
#Comment!
LJ          -2.00441        -1.38466       -0.101685
LJ           2.28316        -1.00493        -1.17785
LJ           1.85915       -0.235094        -2.52354
LJ         -0.174206        -1.91094         1.01688
LJ          0.569666       0.0978607       -0.883486
LJ           1.04184         1.76036        -1.85724
LJ          -2.44739        -1.09683        -1.49094
LJ         -0.359551         2.13296        -0.13576
LJ         -0.910867         -1.1323         2.04521
LJ          -1.67439       -0.702244         1.41952
LJ              -nan            -nan            -nan
LJ         0.0252342         1.41484         1.56666
LJ          -2.39478        0.585943        -2.20773
LJ              -nan            -nan            -nan
LJ          -2.46262        0.867573        -1.17187
LJ              -nan            -nan            -nan
LJ              -nan            -nan            -nan
LJ              -nan            -nan            -nan
LJ          0.630337        -1.30857        -1.08843
LJ              -nan            -nan            -nan
LJ           2.05762        0.898511        0.348872
LJ         0.0425523         1.95321        0.429585
LJ          -1.34986        -1.61272        0.514968
LJ              -nan            -nan            -nan
LJ          -2.17578       -0.144254        -1.05187
LJ           2.36827       0.0166764        -1.56387
LJ          0.697456        0.668123         1.96951
LJ         -0.237625         2.17801        -1.97356
LJ          0.924915        -1.99272       -0.165005
LJ         -0.613366        -0.37274        -2.40288
LJ              -nan            -nan            -nan
LJ           1.44266           2.328        0.688263
LJ              -nan            -nan            -nan
LJ         0.0270649         1.90604         1.42653
LJ              -nan            -nan            -nan
LJ           1.26148         0.29619         1.20851
LJ          -1.16352          1.7419        -2.07066
LJ           2.26837       -0.260637         1.88741
LJ          -1.97315        -1.54654         1.63802
LJ           1.80491        -2.04919        -2.25842
LJ          -1.86058       -0.270963        -2.45067
LJ          -2.20241         2.13796          2.4587
LJ         -0.646727         2.20589         1.48558
LJ           1.85663       -0.113934        -1.99452
LJ           0.54735         0.45359        -1.76096
LJ          -1.26412         2.16252        0.747189
LJ          0.297166         1.40717          2.4959
LJ           1.59276         2.18647         1.98642
LJ           0.18055         1.78007         -1.9318
LJ          0.296423        -1.13022         2.24068
LJ          -1.28131       -0.694898       -0.909716
LJ        -0.0314388         1.06763         2.23839
LJ              -nan            -nan            -nan
LJ          -1.42203        -2.20026         1.04667
LJ         -0.207466        -1.49841        -1.75986
LJ           1.22502        -1.07686       -0.743946
LJ           0.17249       -0.951565       -0.338687
LJ         -0.929729       -0.979865       -0.751659
LJ          0.832895         2.52223       -0.642208
LJ         -0.877534        0.821709         1.12947
LJ          -2.27262        -1.83412        -2.23358
LJ         -0.545386        -1.86701        -1.67814
LJ          0.156646        0.588225       -0.844177
LJ              -nan            -nan            -nan
LJ              -nan            -nan            -nan
LJ             2.354         2.31187         1.12449
LJ            2.3849        0.507648        -2.06986
LJ              -nan            -nan            -nan
LJ           2.55959       -0.350988        0.769743
LJ           1.55361        -1.92947         1.01206
LJ         -0.692149        -1.61119         1.32749
LJ         -0.597036        -0.25159       -0.553889
LJ          0.197131         2.01214        -1.63216
LJ          -2.43902       -0.880391        -1.36627
LJ           2.54601        -2.31953         1.73298
LJ         -0.294533       0.0101814        -1.52185
LJ          -2.13873        -1.12129         1.08305
LJ          -1.00489        -1.30552        -1.91916
LJ         0.0698594        -1.22121        -1.84983
LJ          -1.56171        -1.11867         2.16507
LJ           1.08258        -1.58933         1.16601
LJ          -1.39876       -0.701126         1.44449
LJ          -1.03032       -0.126909         2.54955
LJ          0.616958        -0.17501        -2.05311
LJ           1.21273        -2.14594         1.76356
LJ        -0.0225383       -0.323087        -1.29414
LJ          0.845234         1.73029         1.43104
LJ         -0.548606        0.301582       -0.710974
LJ          0.848252         1.18472        -2.35196
LJ         0.0249924       -0.754702         2.33732
LJ              -nan            -nan            -nan
LJ          -2.51048       -0.125825         2.22425
LJ          -1.92373         2.39372       -0.322995
LJ           0.69892        0.527273        0.369773
LJ          -2.46134         1.48799        -1.97406
LJ          -1.05439         1.34676       -0.333443
LJ          0.933046         2.34185        -1.93419
LJ          -2.36634          1.6565         1.82516
LJ              -nan            -nan            -nan
LJ           1.29046         2.00269       -0.745123
LJ          0.264251      -0.0390621         2.10247
LJ          -2.48019        0.433177          1.4243
LJ           1.54199        -1.90756         2.20153
LJ          -2.48265        -1.64103        0.378043
LJ              -nan            -nan            -nan
LJ          0.959555        0.806569        -2.05521
LJ           1.01577         1.25217         2.47996
LJ              -nan            -nan            -nan
