108
#Comment!
LJ         0.0122798         -2.4067       -0.119634
LJ          -1.22065        -2.05943        0.897117
LJ           1.77635        -2.17028        -1.58817
LJ           1.65694        0.304251         1.02972
LJ          0.262101        -1.71916        -1.11422
LJ         -0.345058        0.627995       -0.368265
LJ        -0.0816672         -1.9515        -1.85777
LJ          -1.38491         1.19633        -1.61251
LJ           1.20864       -0.440264       -0.346651
LJ           1.76717        -2.10783        0.883409
LJ              -nan            -nan            -nan
LJ          -2.45455        -2.18067        -1.40651
LJ          0.838699         -2.0746         2.51175
LJ           1.96799        0.715688         0.30879
LJ           1.75605        0.550221         2.38886
LJ           -1.6309        -1.74385        -1.62651
LJ              -nan            -nan            -nan
LJ              -nan            -nan            -nan
LJ          -2.03581        0.245107        -1.01236
LJ              -nan            -nan            -nan
LJ           1.13973       -0.931837       -0.839189
LJ          0.881355       -0.145733         1.43418
LJ          -2.15866         1.87186       -0.767769
LJ          0.828523       -0.827185       -0.773781
LJ          -2.04812       0.0325351         -1.4291
LJ           1.96854         1.50413         1.40159
LJ         -0.724247       -0.298673        -1.38424
LJ          -2.05179       -0.473615        -1.90804
LJ           0.73978        -1.47864         0.40672
LJ           2.33785       -0.511099        -1.76047
LJ           2.45487        -1.39925         1.54957
LJ           2.20676         1.43806        -1.78626
LJ              -nan            -nan            -nan
LJ          0.809637        -1.79578         2.45213
LJ              -nan            -nan            -nan
LJ          -2.38434       -0.320957         1.07518
LJ           1.16213        0.376558        -1.08624
LJ           1.33131      0.00606102         2.08578
LJ         -0.375807        0.684617       -0.338267
LJ            1.2768       -0.320863        0.959565
LJ            1.7853         2.20533        -1.47854
LJ          -0.74478         1.76338         1.70437
LJ           2.35074       -0.872009        -1.33446
LJ          -1.64086       -0.263441        0.521861
LJ          -2.43026         1.31473        -1.21576
LJ           2.43577        -1.53489       0.0533911
LJ         -0.667711        -1.05993         -1.7538
LJ          -2.06312        -1.50894        -1.51132
LJ           1.05733         2.00974         1.91486
LJ          -2.13278           2.253         1.52764
LJ         -0.844923         2.35711       -0.948993
LJ          -1.27786       -0.157938        -1.73529
LJ              -nan            -nan            -nan
LJ         -0.355422        -2.34739        -0.14006
LJ          -1.16407         1.62839        0.884201
LJ          -2.15801          1.6383         1.83882
LJ           2.49187          1.0934         1.90395
LJ          0.704424        -1.82804       0.0863264
LJ            -2.141        -1.65382       -0.797582
LJ          0.456327        -1.28942         2.02328
LJ           1.74636       -0.191183         1.13579
LJ           1.90669         2.03611         2.25774
LJ        -0.0457534        0.767054        -1.93034
LJ          -2.19703         2.31776       0.0562197
LJ         -0.471145        0.538259         1.04989
LJ          -1.07777       -0.977053         -1.0276
LJ          -1.68458        -1.42854        -1.14597
LJ              -nan            -nan            -nan
LJ            1.2075        -1.76392       -0.145584
LJ           0.47157         1.88092        -1.34654
LJ          -0.49122       -0.893288       -0.396481
LJ           1.84815        -2.18161        -2.24032
LJ          -2.31257         1.59391         2.26867
LJ          0.628506        0.149489         1.17304
LJ          -0.81897         2.36977        -1.73584
LJ           2.50569        0.851397        -1.21985
LJ          -1.07643        0.633524          1.5521
LJ         -0.990042        -2.44517        -1.98155
LJ         0.0696557         1.30019         1.72535
LJ           1.85912         1.82711       0.0329367
LJ          -1.02402        -1.97301           2.353
LJ           1.98201       -0.533445        -2.17846
LJ           -2.2645        -2.35624        -1.47993
LJ         -0.802379        -2.22225        0.342867
LJ          -0.22745        -1.04028         2.33059
LJ           1.13947       -0.885511         1.74247
LJ          0.943988       -0.554451         1.58958
LJ         -0.932082        -2.46921         2.26827
LJ           2.01857          1.8312        0.240958
LJ           1.79327       0.0807843        0.191911
LJ              -nan            -nan            -nan
LJ          -2.10643        -2.46909        0.395437
LJ          0.891592        0.722624       -0.226246
LJ           -1.6484         2.01962         -2.4998
LJ          0.652708        0.381903         1.05705
LJ         -0.852746        0.225977        -2.34212
LJ          -2.00488        -1.75012        -2.42836
LJ           1.55539         2.52808         1.68897
LJ         -0.574783        -1.44216      -0.0337338
LJ           1.17428         2.36294       -0.944902
LJ          -0.62299         1.88329       -0.856455
LJ          0.561332        -1.08589         2.11969
LJ          0.388892         2.10765        -2.39556
LJ         -0.626907        -2.53907        -2.22247
LJ           1.54179       -0.148868        0.938846
LJ           -1.7634      -0.0733378         2.14019
LJ          -1.30226       -0.320395          1.0255
LJ              -nan            -nan            -nan
