108
#Comment!
LJ            -2.296        -2.46873         2.23161
LJ          -1.71473        -1.96353       -0.332039
LJ         0.0280194       -0.398915         1.59889
LJ         -0.774735       -0.112648        -1.07099
LJ          -0.29838       0.0196821         1.98948
LJ          0.600419         -1.7596         1.45395
LJ          0.499978         2.07166       -0.719268
LJ          -1.22632       -0.356614        0.499757
LJ         0.0724851         1.14738        -1.22996
LJ          0.774899        -1.29094         -1.8873
LJ              -nan            -nan            -nan
LJ           2.33199        -0.46355         2.34059
LJ           1.92309        0.146201         1.22682
LJ           2.24676         2.15138         2.17965
LJ        -0.0610495        0.803146        -2.03653
LJ           2.49418        -1.30821          2.1247
LJ           2.33866       -0.113317        -2.21841
LJ           2.04729       -0.798467        0.324756
LJ          -1.55844        -2.12622        0.293182
LJ          0.653036         1.00915       -0.486839
LJ         -0.753474         1.18703       -0.595499
LJ          -1.50748       -0.801067       -0.755629
LJ         -0.899045       0.0659842       -0.710568
LJ         -0.881554        0.660718         1.28241
LJ         -0.183498        -2.01637        -1.88493
LJ           1.86515       -0.790913        -1.38378
LJ          -1.81239       0.0131101        0.621867
LJ          0.225354        0.578864         2.36442
LJ          -1.84925         1.10865          1.1452
LJ         0.0226286        -1.76622         0.67208
LJ          -1.11876         1.93384         2.31903
LJ         -0.675825        0.730205        -1.83519
LJ              -nan            -nan            -nan
LJ          -1.46409        -2.35835      -0.0646402
LJ          0.680336      -0.0228604         2.30115
LJ          -1.73634        -2.05452        0.693678
LJ            1.5701        0.093301       -0.655012
LJ          -2.12147        0.950097        0.639316
LJ         -0.953445        -1.35489         1.19903
LJ         -0.163047         2.19137        0.695548
LJ         -0.231176         1.36511         1.17077
LJ          -2.49005         1.95332       -0.449987
LJ         0.0675288         1.52182        0.838553
LJ           1.77713          1.6696        -2.39629
LJ           1.46643        -0.92669        -1.01364
LJ          0.660898        -1.75963        0.761469
LJ        -0.0842913       -0.202071        0.319703
LJ         -0.141484         1.10823        -1.72001
LJ         -0.238264      -0.0336879        -2.26736
LJ           1.72874      -0.0787677       -0.755504
LJ          -1.46993        -2.53946        -1.55727
LJ           2.08119         2.46757         -1.4528
LJ          -2.17846         1.81734         1.22344
LJ           2.13627        -1.29432       -0.216268
LJ         -0.353648         1.66174         2.13681
LJ         0.0558035        -2.12896         0.25971
LJ         -0.220984         1.92886        -2.49733
LJ          0.312292       -0.679585        0.328056
LJ          -1.81366       -0.471325        -1.06013
LJ           2.14437       -0.847802        0.544097
LJ         -0.636174        -1.54591        -1.54905
LJ          -1.32573         1.44913     -0.00349222
LJ         -0.622499          2.3485        -1.00241
LJ           1.38064       -0.413991          1.1212
LJ          -1.76191         1.76723       0.0929861
LJ         -0.351783       -0.393716         1.05829
LJ          -1.28763       -0.823549        -2.21974
LJ           2.20035       -0.877128        0.395577
LJ          -1.38724         1.35635        0.478169
LJ         0.0527123         2.01101        -1.05154
LJ          -1.22637        -2.40969        -2.52493
LJ          0.891058        -1.77935        -1.31652
LJ          0.176965         1.47872        0.376848
LJ         -0.388334        -2.56128        0.435422
LJ          0.818813       -0.803993        -1.91845
LJ           2.48107        0.278022        -2.22894
LJ          -1.42723       -0.592525         1.21019
LJ           2.36009        0.970906        0.277713
LJ          -1.02598        -0.36064         1.30375
LJ           1.32505         1.73688         1.27747
LJ           2.16174       -0.326253        0.891291
LJ           1.01207       0.0813947        -2.49916
LJ          0.964132        0.884805         1.82018
LJ         -0.935964         2.33212         1.61205
LJ          -1.50453        -1.15926        -1.05198
LJ         -0.401367         1.00782         1.51952
LJ          -1.46302        -1.71279         2.55813
LJ         -0.723327        0.109975        -1.93619
LJ          -1.17546        -1.08903        -1.71297
LJ          0.552106        -1.75593         2.26292
LJ           2.31108        -1.54462         1.67204
LJ         -0.457489       -0.641542       -0.207294
LJ          -2.01555        0.287669       -0.498379
LJ          0.841823        -2.53513          1.0399
LJ           1.49289          2.3763       -0.727252
LJ           2.00806         2.41405        -1.12756
LJ          -2.23904        -2.06943       -0.388799
LJ         -0.879671       -0.476091         1.13762
LJ          0.937678           2.292        0.756918
LJ           1.83432        0.989234         2.00872
LJ          -0.85043        -0.66497       -0.906975
LJ          -1.27265        -2.49699       -0.748245
LJ         -0.283399        -2.00066        -1.51585
LJ          -2.32561        -2.08007         1.27189
LJ           2.55383        -2.54364         1.62816
LJ           1.22131        0.486463        -0.79078
LJ           2.27123         -2.3981         1.94012
LJ           1.32289         2.49615        -1.22189
