108
#Comment!
LJ         -0.815356          2.1304        -2.16852
LJ         0.0691175         1.20033      -0.0488053
LJ         0.0469301         1.39031      -0.0395934
LJ           2.09401        -2.34379          1.7612
LJ          0.695507       -0.244134        0.263929
LJ          0.728317       -0.932772       -0.629843
LJ          -2.40619        -1.58438        0.424284
LJ         -0.446499        0.601721       -0.495029
LJ         -0.383152         1.14328         2.42402
LJ          -1.01266         2.02671        -2.36304
LJ              -nan            -nan            -nan
LJ         -0.504148         1.91728         2.41847
LJ         -0.947149        0.994633         1.89625
LJ          0.751865        -1.17033           1.472
LJ           2.21115         0.82236         2.52398
LJ          0.465239         1.53737         0.13927
LJ              -nan            -nan            -nan
LJ              -nan            -nan            -nan
LJ          -2.26162         2.33259        -1.78394
LJ              -nan            -nan            -nan
LJ           2.50718        -0.24158         -2.4383
LJ          -2.27834         1.69125        0.731479
LJ         -0.311169      -0.0227279        0.182617
LJ           1.88391       -0.847927         2.02912
LJ           1.61001        -1.79434        0.331973
LJ          -2.39214           2.069         1.54504
LJ          -1.05098       0.0833892        -2.17844
LJ          -1.24047        -1.43259       -0.334475
LJ         -0.559421        -2.47138         0.23976
LJ           1.63637         1.30564          1.2006
LJ         -0.142231        -2.34702        -1.35176
LJ          0.705523        -2.06269       -0.229141
LJ              -nan            -nan            -nan
LJ           1.18138         2.17174           2.111
LJ              -nan            -nan            -nan
LJ           1.51166         1.36672        -1.06829
LJ          0.523634        0.996817       -0.462831
LJ            1.1889        0.109869       -0.509614
LJ           1.79889         1.81469       -0.877285
LJ            2.1822        -2.42569         2.06687
LJ          0.309132         1.64911          2.4997
LJ          -1.08269         -2.2771       -0.234155
LJ           1.25758        -2.51193        -1.75005
LJ          -1.42129        -2.04236      -0.0612335
LJ          -2.19582        -0.46843        -2.19621
LJ         -0.173488         1.80816        -2.26821
LJ          -1.41326         1.89559         1.49098
LJ        -0.0190822         1.15488         2.33678
LJ           1.05364        0.938576      -0.0328581
LJ          -1.69274        -1.86699          2.4251
LJ           2.21591        0.309175         -2.4518
LJ           1.10097         1.54364         1.34961
LJ              -nan            -nan            -nan
LJ           1.47268       -0.252721         1.13093
LJ            1.7371        -1.62772          2.1117
LJ           1.21328        -1.48142        0.274569
LJ          -1.53988        0.901701         1.88859
LJ          0.549393         1.98963       -0.861278
LJ          0.661185          1.7099        0.144316
LJ          -1.99835        -1.67007       -0.151119
LJ           1.58102        0.724881         1.28153
LJ          -2.32993       -0.146615       -0.552848
LJ          0.389801       -0.498055        0.570751
LJ         -0.051603        0.293758       -0.123008
LJ         -0.262619       -0.602266        0.646785
LJ          0.197802        -2.32837         2.14352
LJ           1.11856         2.44665       -0.704961
LJ              -nan            -nan            -nan
LJ          -2.38823        -1.00845        0.994166
LJ          -2.46984        -1.96309        -1.02944
LJ         -0.254566        -1.66343         1.78177
LJ           1.83432         1.26298        -1.34738
LJ           2.42934         1.84286       0.0449222
LJ           1.23367        -1.07086         2.14086
LJ           2.31989        -1.70065        0.970772
LJ          0.347775         2.55824       -0.522142
LJ           1.61002       -0.436908         2.06976
LJ         -0.618924        -2.19949         2.11019
LJ           1.71121        -2.34247        -2.41032
LJ          0.264448        0.734432         1.73327
LJ          0.592164        -1.60923        0.707881
LJ          -1.62536         1.45264        -2.36984
LJ          -1.86352         2.18809        -0.31665
LJ          -2.40518        -1.78622        -2.52568
LJ           2.18869        -1.72083         2.32194
LJ         -0.933041          1.8594        -1.06474
LJ          -2.47591      -0.0427419         2.43655
LJ          -2.06579        -1.78387        -0.26684
LJ           0.39703         1.68085       -0.319172
LJ          0.785559       -0.765982        -1.07152
LJ              -nan            -nan            -nan
LJ           1.41984       -0.659087        0.818372
LJ           -1.4163       -0.546669        0.755713
LJ          -0.44601        0.621427       -0.331106
LJ           2.00447        -1.07888         1.09744
LJ          -1.48359        -1.00519         1.85581
LJ           2.40572         1.13444        -2.14642
LJ          0.867463        0.678398        0.614679
LJ          0.915946        0.247175         1.66342
LJ          -1.05745        0.660067        0.923383
LJ          0.516022        0.654518        -2.41656
LJ          0.592331       -0.874567         1.32146
LJ           2.01225         2.29674          1.7336
LJ          0.473164         2.13349        -2.02553
LJ           1.87931        0.897598        0.943143
LJ          -1.15848        -1.10219         1.53766
LJ          -2.03385        0.683634        0.348236
LJ              -nan            -nan            -nan
