108
#Comment!
LJ          -2.02732         1.69985         2.23776
LJ          -2.27454        -1.19284       -0.877965
LJ            -1.288        0.241914       -0.978117
LJ         -0.496822         1.10679        0.255876
LJ            2.5051        -1.73817         1.96953
LJ          -1.20419         2.25737        0.608152
LJ          -1.04037        -2.31278        -1.56029
LJ           2.10769       -0.103596       -0.984087
LJ          -2.45324        0.773799          1.6827
LJ         -0.767893        0.884583        0.370984
LJ              -nan            -nan            -nan
LJ          0.724706        -2.55046        -2.29838
LJ          0.107293         1.50845         -1.0934
LJ          0.159697        -1.72198         2.34887
LJ           1.93175        0.712413        -2.47245
LJ           1.42777         2.52283        -1.39482
LJ          -1.97869       -0.440892        -2.23774
LJ         -0.966779       -0.621339       -0.442096
LJ         -0.984271        -0.61531        -1.43481
LJ           2.11431          1.8525        0.119954
LJ          -0.34938        -1.72861        0.778991
LJ           1.15825        -1.82401      -0.0794219
LJ           1.16919         1.52259       -0.336482
LJ          -1.88171         2.26525      -0.0771468
LJ         -0.096404        0.587023        -1.69226
LJ          0.202755        0.899751         2.55928
LJ          -2.27541         1.72307        -2.44798
LJ          -1.38509       -0.130603       -0.271345
LJ         -0.887365       -0.620994         1.23973
LJ         -0.864804         1.01168         1.98918
LJ           1.87967       -0.866533         1.15566
LJ           2.53913          1.5654          1.1552
LJ              -nan            -nan            -nan
LJ           -0.6789        0.580975       -0.999897
LJ         -0.805321        0.493049       -0.103835
LJ           2.20716         1.03431        0.872702
LJ           1.94619      -0.0247928         0.66477
LJ         -0.384747       -0.106487         2.48709
LJ         0.0427043         1.60795         2.53946
LJ           1.29897         1.69111        0.453352
LJ         -0.862802        0.806429         -2.3307
LJ          0.584399        -2.51573         1.81754
LJ          -2.08898           1.857        0.545836
LJ          0.869712       -0.972161        0.340474
LJ           0.58214        -1.01701         1.89763
LJ           1.66638         1.26855        -2.32411
LJ           2.09713         2.20518       -0.560178
LJ          0.510582         -1.6737        0.807836
LJ           2.17014        0.346016       0.0888008
LJ          -1.15098        -2.21559         1.41057
LJ          -2.45806        -1.24265        -1.26604
LJ         -0.914123         1.26747        0.150459
LJ            2.4169        -1.99682        0.567192
LJ           1.44545         1.63514        -1.60525
LJ         -0.745613         2.35895        -2.32951
LJ          -1.50631       0.0616205       -0.786615
LJ           1.56287         1.99056         2.46298
LJ          -1.52804       -0.417054        0.731772
LJ          -2.52918        -1.48636         1.37875
LJ          -2.11545       -0.177619        0.579795
LJ          -2.18592       -0.876905        -1.55489
LJ          -1.63594        0.534418        0.777109
LJ           -1.4495       -0.506853         1.14103
LJ           2.15946         1.13411        -2.23688
LJ          0.955514        -2.17165        -0.57073
LJ           1.03391       -0.280682          1.1436
LJ           -2.3378        -1.02421         2.43868
LJ          -1.45586         2.20609         2.47098
LJ          0.569278         -0.9152        0.295731
LJ         -0.265055        -1.37561       -0.678313
LJ          0.718548       -0.470948        0.621802
LJ           1.83129        -1.70592        0.491681
LJ         -0.975541         2.42775         2.39453
LJ           1.08045         1.60246     -0.00104988
LJ          0.609226       0.0403057         2.42785
LJ          -1.61335        -1.31823        0.962148
LJ          -2.05014        -1.88881        0.642033
LJ          0.952602        -1.50126         1.35883
LJ           1.37971         1.35326        -1.89736
LJ          -1.41337         2.06764       -0.857312
LJ          -1.83018        0.017135         1.75068
LJ          -1.00178        0.630602        -2.06658
LJ           0.51525        0.115115        -2.37305
LJ          -1.30453        -2.02733        -2.35716
LJ         0.0171174       -0.993357         1.61623
LJ          -2.19123        0.848579        -2.56084
LJ          -2.19993         2.27013       -0.168961
LJ           1.51004         2.45939       -0.212578
LJ          0.941236        0.311669         2.56147
LJ          0.887442        -1.67099        -1.79569
LJ         -0.790561         2.10482         1.74191
LJ          0.341484        -1.92634       -0.583452
LJ          0.699833         1.98599         1.91622
LJ        -0.0293758        -1.40604        -1.82609
LJ         -0.222173        -0.94436         1.61972
LJ          -1.52466         1.99485         2.11306
LJ           1.93765         0.40607        0.556161
LJ          -1.76516        0.932692        -1.96573
LJ          -1.56866       -0.917858         1.78811
LJ          -1.44538        -1.03522        -1.19984
LJ           1.12878        -0.48126         1.62473
LJ         -0.125361         1.25031      0.00751164
LJ           1.33972        -1.95952        -1.86717
LJ           2.42546       -0.676992        0.711021
LJ           0.43955        -1.98486         2.49102
LJ         -0.614185        0.631962        -2.42781
LJ           2.47035         1.96884        -1.92125
LJ          0.114644        0.906054         1.95293
