108
#Comment!
LJ           0.71793         1.48008        -1.30794
LJ          0.396886         1.50103        0.482112
LJ         -0.545738        -1.80751        -1.80222
LJ           1.98322         2.50583         1.47743
LJ          -2.19472         2.36472         2.27423
LJ          0.563832        -1.47324        -1.05425
LJ           2.25178        -1.58773        0.114988
LJ          0.526008        0.348632        -2.56339
LJ          0.536781         1.06524        -2.54718
LJ           -2.3386        -1.43672        -1.75644
LJ              -nan            -nan            -nan
LJ           2.03456        -1.53201         2.33578
LJ            0.2025        -2.27643        -1.17033
LJ              -nan            -nan            -nan
LJ          -2.18283       -0.702495       -0.924692
LJ              -nan            -nan            -nan
LJ              -nan            -nan            -nan
LJ              -nan            -nan            -nan
LJ           0.22379         -1.3266        0.235982
LJ              -nan            -nan            -nan
LJ          -1.39003         2.37635        0.567002
LJ           -1.3829        0.731931         2.41258
LJ           0.89667      -0.0645641         2.32264
LJ              -nan            -nan            -nan
LJ           0.16934         2.38444        -1.18277
LJ          0.862735        0.900853        -1.52876
LJ         0.0696189         1.36476         1.29372
LJ           2.27163        -1.33338       0.0262573
LJ          0.383074        -1.47408         1.32955
LJ         -0.308686         1.74309      -0.0228623
LJ              -nan            -nan            -nan
LJ          -1.78794         1.36367         1.67216
LJ              -nan            -nan            -nan
LJ           1.91302        0.482875         1.62004
LJ              -nan            -nan            -nan
LJ          -0.47201        -1.17793         2.31406
LJ          0.267332         1.68475         -1.6375
LJ          -1.00435        -1.18214         2.36731
LJ          -2.30596         2.15078        0.901739
LJ           1.91293         2.43884        -1.01587
LJ          -2.00887         1.23578        0.416426
LJ          -1.98042       -0.418829         1.22171
LJ          -1.71888        -1.72732       -0.480295
LJ           2.33985        0.141071        0.138191
LJ         -0.177915        0.361489        -1.32832
LJ         -0.152616         2.11703         1.75434
LJ         -0.763642         -1.4109       -0.567423
LJ          -1.94978        -2.16052        0.897507
LJ            2.4605        -1.21713        0.510247
LJ           2.27483         2.17367         1.89974
LJ           1.13418         2.28076         1.41441
LJ          -1.38332         2.29859         1.58034
LJ              -nan            -nan            -nan
LJ        -0.0187399         1.53813         -1.4127
LJ          0.488366         1.74303         2.01482
LJ          -2.11196         1.43194         -1.1081
LJ          -2.46061        -0.47481       -0.130321
LJ         -0.548482        0.614842        0.967281
LJ          0.596196        0.367297         1.56558
LJ           0.95405        -1.25132         1.21897
LJ         -0.369783          1.5769         2.09779
LJ           2.06013        -2.06218       -0.267129
LJ            2.3825         -1.8909        0.258827
LJ              -nan            -nan            -nan
LJ              -nan            -nan            -nan
LJ          -1.57258        -1.77667        -1.15428
LJ          -0.98733         2.41152      -0.0873537
LJ              -nan            -nan            -nan
LJ           0.19437        -0.66286         0.55662
LJ           2.56411        0.814282        -1.93286
LJ           2.20251       -0.855576       -0.696081
LJ           1.29146        -2.17665       -0.856659
LJ         -0.439783         1.26539       -0.420873
LJ           1.95885        -2.43749        0.392171
LJ          -1.73232       -0.970561        0.929799
LJ           0.65088        0.665789        -1.01145
LJ          0.112746        -1.30517        0.959056
LJ           -2.3868       -0.627484      -0.0251908
LJ         -0.308737         1.39664       -0.678196
LJ          -1.06864        -0.29934         1.48463
LJ        -0.0747684        -1.71651         1.04829
LJ         -0.286275        0.155074       -0.354143
LJ           2.50126        0.228681         2.48047
LJ          -1.29242         2.44468         -1.4423
LJ         -0.615098          1.2754         -1.0785
LJ         -0.292163        -1.37856        -1.46833
LJ          -0.40806         2.17274        -1.08892
LJ          -1.02299        -2.53863        0.202291
LJ           1.41775        -1.98255         1.67749
LJ          -1.85463        -1.72471       -0.755345
LJ              -nan            -nan            -nan
LJ          0.746636        -2.32478        -1.47449
LJ           1.18819        0.740217         2.30194
LJ         0.0176595         1.42488         2.17523
LJ           1.77497         1.82459       0.0751763
LJ           1.66982        0.926058         1.56436
LJ          -2.54243        -1.11168         1.72211
LJ          0.900489          1.7538        0.068959
LJ              -nan            -nan            -nan
LJ         -0.501399        -2.11066       -0.797747
LJ           1.27838         1.18778        -2.13686
LJ           1.29045        -1.42196        0.783467
LJ          0.413634        -1.65268        -1.94021
LJ         -0.745428        0.945315         1.05919
LJ              -nan            -nan            -nan
LJ          -1.64504        0.574216        -2.13128
LJ          0.837438       -0.521041        0.271581
LJ              -nan            -nan            -nan
