108
#Comment!
LJ          0.559726         1.34826        -1.89678
LJ          -1.59064         2.47284        -2.35967
LJ           1.22211         1.48385        0.188511
LJ         -0.526479       0.0124907         1.61944
LJ         -0.108275       -0.824588      -0.0667358
LJ          -2.16733        -1.79104         2.52613
LJ          0.700169         1.89075         1.90129
LJ           1.06072        0.185909           1.669
LJ         -0.606979         1.80406        -1.21717
LJ        -0.0314111        -2.22645         1.11098
LJ              -nan            -nan            -nan
LJ         -0.544245        0.664409         1.95669
LJ          -1.44534         2.00792        -2.46013
LJ              -1.8        -2.33025         2.03521
LJ          -1.39949       -0.649045       -0.484915
LJ          0.352326        -0.52805       0.0897256
LJ              -nan            -nan            -nan
LJ              -nan            -nan            -nan
LJ          -1.22922        -2.34967        -2.43004
LJ              -nan            -nan            -nan
LJ         -0.559017        -1.28743        0.474323
LJ          -1.81184        -1.69586        0.203814
LJ         -0.700351        0.106155        0.546539
LJ          0.589359        -1.38365     -0.00961351
LJ           2.53417        -1.81983         1.19268
LJ          0.760942        -1.99133        -1.89586
LJ         -0.206632         1.93313        0.464306
LJ           1.28334       -0.278572       -0.908915
LJ           1.34308         2.49677        -2.18902
LJ          -1.85487         2.02966        0.794442
LJ         -0.248686         2.05859          2.2929
LJ          0.814602        -1.42005        0.431434
LJ              -nan            -nan            -nan
LJ           1.17069        0.985344        -2.40652
LJ              -nan            -nan            -nan
LJ           1.08233        0.829901       -0.121935
LJ         -0.648424        -1.68271        0.372513
LJ          -1.86993        -1.21508        -2.17056
LJ         -0.599216         2.17833          2.0835
LJ        -0.0987367        -1.85654         1.12635
LJ           2.47833       -0.475577      -0.0649248
LJ           1.96164         2.19394        0.771442
LJ         -0.386614        -1.45149        0.577671
LJ          -2.44674       -0.223103        -1.42159
LJ          0.389313        0.213367        0.553221
LJ           1.11792       -0.643381         2.28339
LJ           -1.1301        -1.06969         1.01032
LJ          0.656942        -1.27733         -2.0788
LJ           1.59038        0.932849        -2.33486
LJ         0.0883127        -1.58123         1.70961
LJ          0.917089      -0.0151481        0.179893
LJ           2.23957         1.03202        -2.47818
LJ              -nan            -nan            -nan
LJ           2.27649         1.18054         2.23896
LJ         -0.561679        0.624877        -1.16306
LJ          -1.19636        -1.64019        -1.79949
LJ          -2.53069        0.571724         1.81421
LJ          -1.00506         -1.9669        -1.06069
LJ           1.48736         1.90294        -1.21318
LJ          -2.10461         1.14971         1.08618
LJ           -1.5922       -0.732851        0.891596
LJ         -0.144844         1.95943        -1.51725
LJ           1.24843        -1.03282        0.788285
LJ         -0.617138        -2.28656        -1.25112
LJ          0.305714        0.984936         2.01894
LJ          0.176474        0.476093         -2.3662
LJ          -1.53084         1.14723        0.231618
LJ              -nan            -nan            -nan
LJ           1.46237        -1.03217       -0.202301
LJ         -0.763565        -2.24122       -0.683775
LJ          -1.80488        -2.00355        -2.13887
LJ         -0.408448        -1.10636         2.50224
LJ          -1.01636        -1.63636         2.07748
LJ          -2.21268         -1.9422          1.5221
LJ            0.4449         1.40109         2.50248
LJ         -0.618486       -0.545468         1.32873
LJ          0.486118      0.00291024        -1.04416
LJ           1.76675        -1.26376        0.547475
LJ          0.309099       -0.169802         1.94132
LJ          -1.77975        -0.73717        -2.49776
LJ          -1.87283       0.0245194         2.08846
LJ           0.24748        0.843748         1.71276
LJ           2.23618        -2.28364        -1.04179
LJ           1.55558         1.79618        -1.39106
LJ           0.80306         1.36214       -0.397108
LJ         -0.918426        -1.99603         -0.2602
LJ          -2.19062       -0.215139        -2.21556
LJ          -2.48132         1.14546       0.0813529
LJ           2.35856         1.07177         0.54462
LJ           2.37507       0.0459637        -2.24263
LJ              -nan            -nan            -nan
LJ          -1.06615         2.54079         0.15362
LJ         -0.736004        -1.10916         1.47703
LJ           2.38367       -0.756581         2.06676
LJ         -0.284727       -0.470634         1.65581
LJ          0.986217      -0.0782486         2.52601
LJ          0.568888       0.0990142        -1.15128
LJ           1.27004        -1.70529        -2.34828
LJ          0.146979        0.143497       -0.683299
LJ           -1.1587        -1.33548         1.70674
LJ           -1.2991        0.411204       -0.703749
LJ          -1.62806       -0.367507        0.618933
LJ           1.04054        -2.49278         1.04177
LJ           0.68237        0.601409         2.06998
LJ          0.832193         2.43093        0.379392
LJ         -0.404902        -1.47371       -0.159244
LJ          -2.17497        -1.57756       -0.998102
LJ              -nan            -nan            -nan
