108
#Comment!
LJ           1.52721        -1.52653         2.37212
LJ           2.30383        0.281017        -1.35265
LJ          -1.07525        0.129131        -1.51943
LJ           2.13389         0.50715        -1.84467
LJ         -0.795652        0.716632        -1.06937
LJ          -1.61697        0.858253      -0.0659856
LJ         -0.736993         1.50792        0.679335
LJ           1.37059       -0.717388        -2.08156
LJ           1.91076        0.718535        -2.30183
LJ          0.461837       0.0358335        -2.38386
LJ              -nan            -nan            -nan
LJ           2.08322         1.63562         2.21951
LJ          -1.43765        0.105937        -1.37555
LJ         -0.077024         1.23947       0.0370811
LJ           1.02574        -1.95301        -1.52968
LJ         -0.074127         1.56775          2.2247
LJ           1.50397         1.10871     -0.00629797
LJ           1.92765       0.0409373        -1.12527
LJ         0.0891788         2.36964        -1.21756
LJ          -1.90855         1.53103         -2.3985
LJ           2.21246         -2.5472        -1.69021
LJ          -2.44535        -1.92079        -1.58542
LJ          -2.10032        0.254176        0.386127
LJ          0.259199         2.02225       -0.387702
LJ           1.84035         1.46301         1.60203
LJ          0.859079        -2.21465        -2.37874
LJ         -0.647293        -1.76598        -1.42224
LJ           1.09271         2.29615       -0.748262
LJ            1.5497         1.02348        0.492253
LJ         -0.441398         1.35875         2.24681
LJ           1.15702         2.39606           2.467
LJ          0.227596         2.43691       -0.354382
LJ              -nan            -nan            -nan
LJ         -0.290199        -2.22068        -1.74146
LJ              -nan            -nan            -nan
LJ          -1.20687       -0.015992        -1.35665
LJ           2.18214       -0.364182        -1.86855
LJ         -0.131409       -0.691542         -2.4292
LJ         -0.545555        -2.45292         2.10183
LJ         -0.287942      -0.0915129        0.740484
LJ           2.15648        0.839082         1.58605
LJ         -0.358046       -0.313492          -0.308
LJ           2.31863         2.06176        0.956219
LJ           2.13063       -0.140389         1.84212
LJ           -1.1605         2.14085        -0.13261
LJ          -1.55404         1.70065       -0.706078
LJ           1.41364       -0.446925       -0.780069
LJ          0.115409         1.78803        -1.14642
LJ            1.9103        -1.73292        -1.58553
LJ         -0.484577         1.20366      -0.0603237
LJ           1.97471         -1.3178         -2.2422
LJ          0.194792         1.74146        -1.87595
LJ          -2.03374        0.233869        0.286883
LJ          0.532837         1.13649        0.892958
LJ         -0.252115         1.17025        -1.85071
LJ           2.52524       -0.761518         1.67964
LJ          -2.36316         0.96231       -0.972328
LJ          0.292102       -0.636704         2.04551
LJ           2.31174          -1.462        -1.65362
LJ         -0.537905         1.63713       -0.106531
LJ          -1.83378        -1.73997        -1.36168
LJ          -2.15008         1.46081       -0.809166
LJ          -2.25144        -1.56053        0.783079
LJ          -1.80451       -0.410471         1.53896
LJ           2.12402       -0.994185         1.52901
LJ           1.38746        0.296408        -2.08607
LJ          -1.86099        -2.36432        -1.21437
LJ              -nan            -nan            -nan
LJ           1.22815         1.38587        0.273301
LJ          -1.04077        0.450928         1.21248
LJ           1.36952       -0.754471       -0.311854
LJ         -0.421438        -1.69973         -1.8344
LJ          -1.15714        -1.42812        0.991844
LJ          -1.95697         1.85455          1.4729
LJ          -1.56936       -0.530967        -0.73748
LJ         -0.794704         1.61524         2.40607
LJ          -1.84281         2.26649         1.34532
LJ          -2.09018        -1.73062         2.17738
LJ          0.102612       -0.463431         2.29839
LJ           1.05488         1.26977        -2.26104
LJ         -0.320312         1.23977        0.592021
LJ          -1.73343         1.07522         1.74966
LJ           1.16983       -0.263159         2.11085
LJ           1.12598        -1.85671         -2.1529
LJ           1.76584       -0.881615         2.52391
LJ           2.39143        -2.01449        -1.57909
LJ          0.552149         1.97852        -1.06179
LJ          0.729229         1.75456         -2.4364
LJ          -1.38022       -0.953899        -1.75873
LJ          -1.37706       -0.651225        0.391774
LJ           1.03051         1.65836        0.677585
LJ          -2.27514         2.18949         1.04229
LJ          -1.32698        -2.37609        -1.73374
LJ         -0.245988       -0.571843         1.11652
LJ         -0.592709         1.72204         1.34932
LJ          -2.14164         1.18328        0.337704
LJ           0.18688        0.937701        0.546494
LJ           1.85994         1.27443         1.01601
LJ         -0.398729       -0.345821        0.851504
LJ          -1.01795      -0.0828104       0.0394167
LJ        -0.0411067        0.576519        0.945357
LJ           2.17961       -0.260745         2.28607
LJ           -1.9399           1.805        0.240394
LJ           2.00717       -0.952698         1.34374
LJ            1.4968         -1.7167        -2.55272
LJ          -2.52771        -1.64688       -0.972223
LJ         -0.193216        -2.20584        0.780107
LJ           1.15181        -2.23859        0.630331
