108
#Comment!
LJ           1.14818         2.38846        -1.14807
LJ           1.82609         2.42345       -0.730996
LJ          -2.41716         -1.3722        -1.63451
LJ           1.38335         0.48576        0.431164
LJ          -1.37388        -1.17903        -2.16073
LJ         -0.354385           1.058        0.184922
LJ          0.502595         2.27927        -1.15668
LJ          -1.76906       -0.918165       -0.834819
LJ          0.412311        0.532335        -1.43933
LJ          -1.65495        -2.39013       -0.321619
LJ              -nan            -nan            -nan
LJ          -1.75331       -0.740274        0.247168
LJ           -1.5447           2.443        -1.91027
LJ              -nan            -nan            -nan
LJ         -0.848776         1.73722        0.840562
LJ              -nan            -nan            -nan
LJ              -nan            -nan            -nan
LJ              -nan            -nan            -nan
LJ           2.34946        -1.64067        0.972172
LJ              -nan            -nan            -nan
LJ           2.30715       -0.650175       -0.988294
LJ           1.82202         1.45301         1.70877
LJ          0.470738        -2.23891        -1.26917
LJ              -nan            -nan            -nan
LJ          -2.14774        -1.67605         1.61947
LJ         0.0528803         2.20149         1.24184
LJ           2.30967         2.56085       -0.408677
LJ          -1.51231         2.27585         1.23124
LJ           2.01347         2.30464       -0.655279
LJ           1.38507        -1.57106          1.6626
LJ              -nan            -nan            -nan
LJ         -0.173716        -2.50038        -1.11054
LJ              -nan            -nan            -nan
LJ          -1.34374         -1.3678       -0.553785
LJ              -nan            -nan            -nan
LJ           1.07717        -1.43216        -1.54349
LJ          -2.03646         1.28892        0.789502
LJ           2.50243       -0.197248       -0.127991
LJ           1.32595        -2.52117         -2.3164
LJ           2.30001         1.43374      -0.0439603
LJ          0.815547        -1.21408        0.452809
LJ          -1.04151         1.17151       -0.979718
LJ         0.0613438       -0.280303         1.72939
LJ          -1.41717       -0.419987        -2.55464
LJ          0.344926        -1.34587         1.41904
LJ          0.381228        -1.36663        -2.30617
LJ           1.57787         1.56522        -2.49977
LJ           0.39611       0.0284591       -0.736698
LJ          0.677123       -0.395667        -2.41245
LJ           2.13444         1.44306         -2.4663
LJ          -2.51241        0.843954       -0.499906
LJ           2.53875        -1.40472         -0.6786
LJ              -nan            -nan            -nan
LJ          -2.01282         -1.1348       -0.088826
LJ           1.06325       -0.216811        0.503299
LJ          0.955267         1.60784        -1.26931
LJ          -2.43354        0.140457        -2.16324
LJ           -1.5724       0.0814776        -1.57946
LJ         -0.720868         1.31395       -0.442263
LJ           1.35131         1.29381        -1.34783
LJ        -0.0170668        -2.12787        -1.26509
LJ          0.235378         1.78801         2.15278
LJ            1.7683        -1.78909         1.66809
LJ              -nan            -nan            -nan
LJ              -nan            -nan            -nan
LJ           1.55223        -2.10273        -1.13734
LJ          -2.00748        0.189471         1.59632
LJ              -nan            -nan            -nan
LJ          -2.35245       -0.247535         1.28257
LJ          -1.26785       -0.781082         2.19278
LJ           1.86997        0.878513        0.862453
LJ             2.192        -1.43491         1.55539
LJ           1.94837         2.01428       -0.192901
LJ           1.44805        -1.05196       -0.167533
LJ          -1.82762        0.507865        0.772915
LJ           2.34329       -0.541235        0.574205
LJ         -0.214892        -2.17794      -0.0865586
LJ           2.18448        -1.17781        -2.36993
LJ        -0.0992974        0.995021        0.343811
LJ          -1.34682         1.13259         1.48762
LJ           -2.5327        0.617559        -1.79612
LJ           1.64412         2.16072         2.16805
LJ          0.904464        -2.23106        0.413723
LJ          0.155134         -1.8323         2.40216
LJ          0.954661        -2.37183         1.14749
LJ          0.213507         1.65699        -0.46381
LJ          -1.24015         0.68129         2.08668
LJ          -1.96287       -0.720443      -0.0064188
LJ         -0.377858         2.09964         1.13467
LJ          -1.71402        -1.67955        -2.52035
LJ              -nan            -nan            -nan
LJ           0.16408         1.74653        -1.78641
LJ          -1.64392        0.289098       -0.925645
LJ          -2.11172       -0.399299        -1.96352
LJ           1.39784        0.770052        -1.27031
LJ         -0.861234        -2.52727        -2.55801
LJ           0.26849        0.923991         2.12296
LJ          -2.27006        -1.41297        0.519413
LJ              -nan            -nan            -nan
LJ           1.63034        0.295514        0.110587
LJ          -1.42808        -1.65811      0.00624877
LJ           1.10922        -1.83592        -1.72607
LJ           1.12131         0.14184         1.34726
LJ         -0.698271        -2.42791        -1.16176
LJ              -nan            -nan            -nan
LJ         0.0561297        -1.51599         2.42567
LJ           1.77005        -1.26338          0.6277
LJ              -nan            -nan            -nan
