108
#Comment!
LJ          -1.75798         1.95308         2.41012
LJ          -1.07526         2.44822        -1.93281
LJ           1.94278        0.200298        -2.38796
LJ         -0.172771        -0.62202         1.11064
LJ           1.24289          2.3569       0.0818441
LJ        -0.0213466      -0.0184353         1.88655
LJ          -0.33763        0.931176        0.573664
LJ          -1.17507         2.21825        0.833669
LJ         -0.697861         2.41866         2.34053
LJ          0.618749       -0.718551       0.0671604
LJ              -nan            -nan            -nan
LJ          -2.48911        0.647114         1.84564
LJ          -1.32438        0.572942        -1.30182
LJ              -nan            -nan            -nan
LJ         -0.591356       -0.342904        -2.35052
LJ              -nan            -nan            -nan
LJ              -nan            -nan            -nan
LJ              -nan            -nan            -nan
LJ        -0.0212011         2.20827         1.61513
LJ              -nan            -nan            -nan
LJ           1.55171        -2.10122          -1.342
LJ          0.509014       -0.778023       -0.106172
LJ         -0.143652       0.0768815        -1.24248
LJ              -nan            -nan            -nan
LJ          0.197643         1.48574         0.87813
LJ           2.14351        -1.45878          1.9783
LJ         -0.728766        -1.42057         1.88972
LJ          -1.44245         1.95469       -0.371611
LJ          -0.72003       -0.987489       -0.545637
LJ           1.01673         2.31318         1.42042
LJ              -nan            -nan            -nan
LJ          -2.44966        0.513225        0.359461
LJ              -nan            -nan            -nan
LJ         -0.396525         2.43237         1.28706
LJ              -nan            -nan            -nan
LJ         0.0409912        -1.81909         1.85794
LJ          0.474661         1.77139       -0.487319
LJ          -1.60141        -1.73761         0.54555
LJ         -0.885887         1.85999         1.97574
LJ        -0.0486361         2.38209         -2.4552
LJ          0.124871         -2.0111         1.66796
LJ          -0.54894         1.92435        -1.71763
LJ         -0.945508        -1.93605         1.96692
LJ          0.215536         1.32806       -0.299437
LJ          -1.80996         1.21978       -0.760293
LJ           2.49427         1.13471         -1.9344
LJ          -1.66783        -1.71514         2.55391
LJ           2.03083          1.7659        0.701695
LJ           1.86581         2.43842         2.28084
LJ           2.44988        -2.50083       -0.463435
LJ         -0.142061       -0.541633        -1.32772
LJ          -1.24729      -0.0135718        -2.27028
LJ              -nan            -nan            -nan
LJ          0.992875        0.167782        -2.34823
LJ           1.33405       -0.918856        -1.08233
LJ          -1.18624       0.0716403        0.435289
LJ           2.36011          1.1931         1.52775
LJ          -1.86352         2.55898        -1.81362
LJ           2.16911       -0.930932        0.319076
LJ         -0.158283        0.674048         1.13052
LJ         -0.704507        -0.35504       -0.482178
LJ           2.35627        -1.51707        -1.95982
LJ         -0.280844        -2.14737      -0.0961076
LJ              -nan            -nan            -nan
LJ              -nan            -nan            -nan
LJ           -2.2059       -0.547663        -1.66673
LJ           2.52454       -0.631458          2.4104
LJ              -nan            -nan            -nan
LJ          0.500396         1.62808        -2.19531
LJ          -1.23038       -0.658493          2.1073
LJ         -0.514338        0.183947       -0.853981
LJ         -0.833242         2.27001        -1.17064
LJ         -0.587817        0.397384       -0.953477
LJ           2.07405         2.37473        -2.23256
LJ          -1.15916         2.38466         1.01783
LJ            1.0156        0.986089        -0.38996
LJ           1.55973         1.08853       -0.367655
LJ          -2.40378        0.334148        -1.47895
LJ          0.265042         1.02068         1.78372
LJ           1.60882        0.814299         1.66985
LJ          -1.16274        -2.12773         2.05557
LJ          -2.25714        -2.31472       -0.994053
LJ          0.691984       -0.916658        -2.04591
LJ           1.73021         -1.1024         2.20103
LJ           1.97173         2.11387      -0.0407546
LJ         0.0423244        -1.48752         1.24189
LJ         -0.872377      -0.0899823        0.762118
LJ           -2.1931         2.05952         1.85185
LJ          0.602065       -0.131001       -0.275904
LJ          -1.03068        0.139309        0.799401
LJ              -nan            -nan            -nan
LJ          0.129327        -0.43745        -2.26241
LJ          -2.03629         2.04167         2.39315
LJ          -2.31204            2.09         1.55476
LJ          -2.39923        0.014099       -0.221112
LJ           1.00146         0.47745         -1.2775
LJ          0.884104       -0.857527       -0.656991
LJ          0.298215        0.745018         2.46101
LJ              -nan            -nan            -nan
LJ           2.13189         2.43354        0.406094
LJ          0.589562       -0.468899         2.54036
LJ         -0.229259       -0.687213      0.00153944
LJ          0.706535        -2.56345        0.243187
LJ           1.67572         1.31556         1.03008
LJ              -nan            -nan            -nan
LJ            0.8434        -1.63878       -0.116081
LJ           2.03343       0.0972843         1.15838
LJ              -nan            -nan            -nan
