108
#Comment!
LJ          0.355925        -2.20316        -1.20191
LJ           0.25561       -0.336443         2.51796
LJ           1.31712        -2.10275        0.500024
LJ           1.09135        0.624372         1.22328
LJ          -1.45533       -0.638703        -1.67637
LJ        0.00400289       -0.886776         1.42719
LJ           1.61682         1.00873        0.534341
LJ         -0.224871         2.11164         2.23284
LJ           -1.4248       0.0360852        -2.20513
LJ           1.86504        0.769537        0.177925
LJ              -nan            -nan            -nan
LJ          -1.27194       -0.276576       -0.731662
LJ         -0.336851       -0.659448         2.29923
LJ              -nan            -nan            -nan
LJ         -0.581095         1.19448       -0.241726
LJ              -nan            -nan            -nan
LJ              -nan            -nan            -nan
LJ              -nan            -nan            -nan
LJ          -2.55962         1.56792       0.0587933
LJ              -nan            -nan            -nan
LJ           -2.5121         1.68959         -1.5956
LJ          -1.69501         2.18403        0.697364
LJ          0.814849        -1.78732         1.55788
LJ              -nan            -nan            -nan
LJ          -2.19162        -1.64584        -2.30668
LJ          0.201487       -0.155093         1.93264
LJ           2.07095        -1.46427        -1.18278
LJ          -0.28334        -0.75289         -1.4615
LJ          0.604367         1.77726        -1.83273
LJ           1.50139        0.148277         2.00879
LJ              -nan            -nan            -nan
LJ          0.696365        -1.57897         1.82745
LJ              -nan            -nan            -nan
LJ            0.8105         1.67299       -0.530684
LJ              -nan            -nan            -nan
LJ          -2.25251       -0.166449        0.777107
LJ           1.28669         1.80429       0.0347947
LJ        -0.0114373        0.480682        -1.95959
LJ          -1.64162        -1.44041       -0.281956
LJ           1.47651        0.428457         2.50618
LJ          -2.12139         2.43026        0.532136
LJ        -0.0702713        0.491997        -2.40168
LJ           2.35026         2.29038         1.84031
LJ        -0.0786519         2.24236         1.50192
LJ           -1.4277       -0.101072         1.74346
LJ           -1.1066        0.278127         1.72473
LJ          0.814722         2.34301       -0.180649
LJ          0.976069         1.38881         2.13182
LJ          -2.54339        0.879591       -0.464431
LJ          0.446764        0.774256         1.35936
LJ           1.27162        0.636649         1.47119
LJ         -0.960861         1.31896         2.54342
LJ              -nan            -nan            -nan
LJ           1.96002        -0.21901        -2.34759
LJ          0.453171        0.752428       -0.335203
LJ          -2.23364       0.0492754        -2.20043
LJ          0.398469      -0.0642125        -1.74602
LJ         -0.227224         -1.4466         2.49283
LJ           1.62293       -0.538885        0.324913
LJ          -1.00009       -0.762782        -1.95892
LJ           1.82103          1.3518         1.40254
LJ             1.946       -0.592506      -0.0823007
LJ          0.676949        -1.15452         1.45084
LJ              -nan            -nan            -nan
LJ              -nan            -nan            -nan
LJ          -2.33868         1.67282         -1.9515
LJ         -0.521867        -1.79212       -0.153941
LJ              -nan            -nan            -nan
LJ           1.31225       0.0271574        -1.64186
LJ         -0.642647       -0.974013        -1.82878
LJ          0.475457        -2.42909        0.916611
LJ           1.78569        0.426013        -2.35774
LJ           2.18616         1.62802        -1.58791
LJ          -1.59125        0.405817      -0.0270218
LJ          0.791587         2.56239       -0.405611
LJ           1.10964         2.49396       -0.292251
LJ           1.73027          2.0187       -0.383516
LJ          0.596125         2.31061      -0.0460801
LJ           2.14647         1.28473          2.4441
LJ           2.54532          0.3627         1.99273
LJ           1.31898          -2.001       -0.191442
LJ          0.323302         2.45682         2.04563
LJ         -0.824713      -0.0156659       -0.511921
LJ          0.700875         -1.1412      -0.0127083
LJ        -0.0842551         2.02133         2.07615
LJ            2.3524         2.05617         1.87045
LJ          -1.22517       -0.139451        -1.03808
LJ          -1.46851         2.54551        0.124443
LJ          -1.15322       -0.373573         1.16077
LJ          -1.44003       0.0992775        -1.53139
LJ              -nan            -nan            -nan
LJ          0.338954        0.686899        0.748538
LJ          -2.23558         1.14925          1.3907
LJ          -1.32699        0.140231        0.786967
LJ          -1.71974         1.48726       -0.243235
LJ          -2.05337        0.361812       -0.760511
LJ         -0.578629         2.43504        -1.81106
LJ          -2.55634        -1.20707        -2.44615
LJ              -nan            -nan            -nan
LJ         -0.951163         0.87414        0.978775
LJ          -2.44735         1.97921         1.02209
LJ          0.056184        0.523477         1.37361
LJ         -0.387096        -1.03059        0.247217
LJ          -0.56276        0.247004         2.09075
LJ              -nan            -nan            -nan
LJ          -1.24601        0.428741        -1.98305
LJ          -1.53179        -0.87823        -1.90232
LJ              -nan            -nan            -nan
