108
#Comment!
LJ         -0.932721         -0.8817         2.40913
LJ         0.0749195        -1.41085      -0.0695093
LJ          0.791018         -1.2104         -2.0047
LJ           2.37062        0.795761       -0.169373
LJ          -2.55837        -2.29006        0.237733
LJ          -1.91101        -1.02671        -2.40619
LJ           2.41983         2.22893        0.174539
LJ          -2.05761         2.21764        -2.19296
LJ          -0.24461       -0.653708         0.29619
LJ          0.569607       -0.519384        -2.21546
LJ              -nan            -nan            -nan
LJ          0.867418         1.91634       -0.824095
LJ          0.163486        -1.79277         2.31571
LJ              -nan            -nan            -nan
LJ          -2.44279        0.301675        -2.14761
LJ              -nan            -nan            -nan
LJ              -nan            -nan            -nan
LJ              -nan            -nan            -nan
LJ         -0.181153        -1.93587        -1.18035
LJ              -nan            -nan            -nan
LJ         -0.583433        -1.44878         1.99805
LJ          -2.27768        -1.27158       -0.361967
LJ           1.52773         2.53968         1.91055
LJ          0.893127       -0.612058       -0.877124
LJ           2.24171       -0.326328       0.0418611
LJ           2.35989        -1.47619       -0.117497
LJ         -0.981095         2.09631        -1.25379
LJ          0.547252         1.83781        -2.45027
LJ           1.97664          2.1382        -2.08784
LJ         -0.271765        -1.98007        -2.34571
LJ              -nan            -nan            -nan
LJ           2.46458        0.547832          1.7002
LJ              -nan            -nan            -nan
LJ          0.434039        -1.84883        -1.85559
LJ              -nan            -nan            -nan
LJ         -0.621272        -2.09185         1.60954
LJ         -0.568164         -1.3541        0.296971
LJ         -0.713393         0.29979        -1.46871
LJ         -0.149107        0.592984        -1.19351
LJ           1.80272        -1.00282       -0.991887
LJ          -2.02313        -1.40661        0.485015
LJ          -1.87704        -1.44659          -1.301
LJ           -2.0736        -2.52522         1.70518
LJ           2.22207        -1.33573         1.32422
LJ          -1.06777         1.32612        -1.37704
LJ          -0.47195       -0.234011         -1.0941
LJ          -2.21404         -1.2824        -1.85187
LJ          -1.59587       -0.174739         1.43061
LJ        -0.0238657         1.30295        -1.49642
LJ           1.04967        -1.75176        0.671342
LJ          -1.15391         1.25113        0.996725
LJ          -1.56973        -2.56284        -1.20001
LJ              -nan            -nan            -nan
LJ           2.14817        0.473118        -1.02147
LJ            1.6747         1.20814        0.842737
LJ         -0.374114         1.72378       -0.550598
LJ          0.671951       0.0342713       -0.515835
LJ          0.316248        -2.22229        -1.43545
LJ         -0.388809       -0.403014       0.0119933
LJ          0.813234         2.30689        -1.27986
LJ           1.97362        -2.22902       -0.900684
LJ          -2.21407         -1.1887         1.69886
LJ          -1.47217        0.509621       -0.373765
LJ           1.23228        0.716274          2.3275
LJ              -nan            -nan            -nan
LJ            1.5363        0.850316        -2.42805
LJ           2.06843       -0.958248         1.57078
LJ              -nan            -nan            -nan
LJ          0.858056        -2.13733        0.148186
LJ           1.62397        -0.93636         2.41823
LJ          -2.54399         1.21251       0.0830833
LJ           1.97456        -1.17212       -0.659885
LJ           1.03578        0.457199       -0.872881
LJ          -1.81719          1.0505       -0.624725
LJ          -1.56218        -2.45963         1.86739
LJ           2.31766        0.082097         -1.9483
LJ           1.10734         1.46004        -1.17011
LJ           1.57781        -1.85294         2.32388
LJ          -1.15748       -0.211864       -0.679701
LJ           2.28015        -2.44984        -1.03277
LJ           2.30519        0.527243        0.552808
LJ         -0.165589        0.124539        0.724862
LJ         -0.823252        0.938542        -1.82135
LJ           1.18761         1.34335       0.0277938
LJ            2.4835        -1.99577       -0.198766
LJ           2.10762        0.879286         1.02726
LJ          0.609525         2.53874         1.49514
LJ          0.843359       -0.833913        0.103639
LJ         -0.599072        0.937209        -1.27927
LJ           2.45302        -2.35506        -1.85784
LJ              -nan            -nan            -nan
LJ          -2.04281         0.34092       0.0618495
LJ           1.39484          1.0543         2.53512
LJ           1.44609        -1.16575         2.27563
LJ           2.13215       -0.657636        -1.88729
LJ         -0.435855        0.301208         1.84279
LJ             1.952         1.68184       -0.941761
LJ          -1.77969        -1.00374        -2.38194
LJ              -nan            -nan            -nan
LJ          -1.07863        -2.07969        -2.31739
LJ         -0.734784        -1.94527        0.880207
LJ           2.44375        -2.32314         2.08762
LJ           2.33918      -0.0897844        -1.23523
LJ         -0.142938       -0.780665        -2.18554
LJ              -nan            -nan            -nan
LJ           1.15953         2.55892         1.21194
LJ          0.168806         1.65421        -1.50369
LJ              -nan            -nan            -nan
