108
#Comment!
LJ          0.876671       -0.310215         0.92695
LJ           0.12079        0.559546        -1.15174
LJ         -0.851867         2.35637        0.986451
LJ           1.82189       -0.668525         2.02693
LJ          -2.20418         1.49779         2.52791
LJ           2.24412        -2.43833         -1.7998
LJ          -2.00276       -0.165534         1.32015
LJ          -1.10226        0.906818       -0.529516
LJ          -2.44961         1.36746         1.30016
LJ       -0.00382792       -0.695678        -2.14213
LJ              -nan            -nan            -nan
LJ           1.19778        0.206715        -2.02016
LJ           2.20214         2.21789         1.66031
LJ              -nan            -nan            -nan
LJ        -0.0908084        0.878946        -1.14612
LJ              -nan            -nan            -nan
LJ              -nan            -nan            -nan
LJ              -nan            -nan            -nan
LJ         -0.842476        -1.24325        -2.51893
LJ              -nan            -nan            -nan
LJ          -1.87857       -0.510807         1.03911
LJ          0.521569         2.05645         -1.0669
LJ           1.36223      -0.0746464         1.13634
LJ              -nan            -nan            -nan
LJ          -1.76125        -0.71487        0.617444
LJ         -0.251622         0.82083        0.475158
LJ          -1.72222         1.51649         2.03431
LJ          -1.34323        -2.31053         2.55823
LJ           2.39075         1.51567        -1.17973
LJ        -0.0263618       -0.875167        0.453471
LJ              -nan            -nan            -nan
LJ          0.512753        -1.56758         0.56484
LJ              -nan            -nan            -nan
LJ          -1.70235       0.0183399       -0.785724
LJ              -nan            -nan            -nan
LJ         0.0436192        -2.47837       -0.241666
LJ           1.75995         1.53567      -0.0398753
LJ          -2.44566         1.99438        0.551227
LJ          -2.38842         1.67261         2.22106
LJ           1.74721        -1.27973        -1.61545
LJ          -1.85017       -0.498128         2.52311
LJ           1.85941        -1.44959        -0.61597
LJ           1.92876         1.49722        -1.56316
LJ         -0.836189         2.11422         0.76823
LJ            1.5201        -2.32001         0.21499
LJ          -1.55301         1.94024       -0.839582
LJ           1.94826          -1.302       -0.600851
LJ          -2.55134       -0.700833        -1.17946
LJ           1.88352       -0.711118        0.590547
LJ          -1.66439       -0.613782         2.25791
LJ            1.1329        0.815117         0.48932
LJ       -0.00751683         2.03105        -1.96734
LJ              -nan            -nan            -nan
LJ           0.99987        -2.49794        0.908637
LJ           1.42871       -0.580808         2.29168
LJ         -0.508953         2.17613        -2.41082
LJ          -1.73092        -1.44538       -0.104143
LJ           -2.5259       -0.609598        -1.17619
LJ          0.370724         2.51864     -0.00591717
LJ          0.386645         2.33886        0.371094
LJ           -1.6223        -2.42661        0.362137
LJ          -2.20833          1.9196       -0.480338
LJ         -0.670291        0.139687        0.464447
LJ              -nan            -nan            -nan
LJ              -nan            -nan            -nan
LJ          -1.68739        -1.53818        0.618702
LJ           2.22781          1.9635         2.33538
LJ              -nan            -nan            -nan
LJ         -0.107151       -0.143731         1.19659
LJ         -0.131301        -2.45311        -1.37456
LJ         -0.326963        0.497153        -1.84299
LJ           2.29181         -1.3542        0.583597
LJ          -2.46473        0.167707        -1.15478
LJ           2.16358         1.26627        -2.12586
LJ           1.91165      0.00275018       -0.851199
LJ          -2.32115        0.496135        -2.04502
LJ          0.925884       -0.158424         1.70825
LJ          -0.35762        0.625813         1.08309
LJ          -1.39384        -1.23606       -0.960557
LJ           1.20691        -2.20244          1.9278
LJ         -0.458094       -0.868434        -2.35121
LJ           2.31855         1.99276         1.56351
LJ         -0.310864        -1.39891        -2.51036
LJ          0.226301       -0.544087        0.579305
LJ           1.99536        -2.34401        0.705207
LJ          -0.27967        -2.00512         2.02323
LJ           1.15215        0.724308        -1.07252
LJ         -0.107427        -1.15998        0.688085
LJ          -2.54172       -0.452713        -1.25149
LJ            1.7374         2.16378        0.871188
LJ              -nan            -nan            -nan
LJ         -0.195612         1.46371        -1.65586
LJ           1.55932         0.44367       -0.763162
LJ          -2.45509         1.40471            2.33
LJ          0.180044        0.303652        0.108234
LJ          0.243406         1.02449        -1.65607
LJ          -1.76655        -1.01433         2.52497
LJ         -0.104322         1.02474         2.04567
LJ              -nan            -nan            -nan
LJ           1.19958        -2.47127        -2.39373
LJ           1.46707       -0.270365         0.27498
LJ           1.23494       -0.837705        -2.31184
LJ          -1.01398        -1.41634        -1.21711
LJ          -1.94433        -1.07032        -2.31213
LJ              -nan            -nan            -nan
LJ          -2.41487         1.83799        0.910605
LJ          -1.86516        -1.89667       -0.305769
LJ              -nan            -nan            -nan
