108
#Comment!
LJ         -0.150438        -2.03891         2.33522
LJ          -2.22933        0.814689        -2.41649
LJ          0.738934       -0.496965        -1.66128
LJ           1.84338        -0.88227        -1.67491
LJ            1.7265       -0.992871       -0.247257
LJ          -2.18391       -0.888004       -0.559543
LJ          -2.17433       -0.305544         1.07197
LJ           2.45495         2.17117        -0.18861
LJ          -0.61245      -0.0197038       -0.891839
LJ          0.534658         1.44175        0.462025
LJ              -nan            -nan            -nan
LJ          -1.08749       -0.961512         2.43499
LJ            1.8103        -2.14922        -1.25648
LJ              -nan            -nan            -nan
LJ         -0.329153         1.66697        -1.83766
LJ              -nan            -nan            -nan
LJ              -nan            -nan            -nan
LJ              -nan            -nan            -nan
LJ           1.94149         1.15229         0.92262
LJ              -nan            -nan            -nan
LJ          0.295055         2.17016        0.216799
LJ           1.35147        0.488273         2.09279
LJ        -0.0675436       -0.156021        -0.99412
LJ              -nan            -nan            -nan
LJ          -1.42064       -0.226384         2.15612
LJ           1.81919        -1.24503         2.33248
LJ        -0.0819916        0.287493        0.673572
LJ         -0.952128        -1.05039        -1.42031
LJ            1.9643        -2.19975         1.93439
LJ          -0.25378         1.94347         1.93057
LJ              -nan            -nan            -nan
LJ         -0.779603      -0.0049054        -1.14938
LJ              -nan            -nan            -nan
LJ           1.61241        -1.36092         0.83254
LJ              -nan            -nan            -nan
LJ          -2.54627        -2.26475          2.2044
LJ           1.22884        0.209946        -2.15871
LJ          -1.80498        -1.18089         1.66424
LJ           2.07019       -0.182976         1.93416
LJ           2.28962       -0.356598        -2.32429
LJ          -1.28782       -0.106562          1.7846
LJ         0.0255925         1.61253       -0.960008
LJ          -1.79833        -1.89943         0.52159
LJ            2.3011        -1.15784       -0.598875
LJ        -0.0804623         2.53754         2.43512
LJ           2.32923         1.59935         1.97488
LJ          0.585594       -0.727953        -2.33653
LJ          -1.31588         1.25996       -0.872211
LJ        0.00730738        -2.36534         2.10524
LJ           -2.1098       -0.710271       -0.811924
LJ           1.81857        -2.16884         -2.1946
LJ          -2.53996       -0.376744         -1.3666
LJ              -nan            -nan            -nan
LJ         -0.164559       -0.336179        0.490237
LJ           -1.0754       -0.663453        0.480081
LJ           1.66302      -0.0172162         2.40395
LJ         -0.828492         2.36621       -0.790904
LJ           -2.4904        0.264696        -1.62989
LJ          -2.00164        0.151713        -1.02648
LJ           2.23344        -1.11477       -0.289579
LJ          -2.01303       -0.654661         2.24632
LJ          -2.53461        -2.54661        -1.57951
LJ          -2.14067        0.314006        0.457033
LJ              -nan            -nan            -nan
LJ              -nan            -nan            -nan
LJ          -2.28926         2.42085         2.23037
LJ          -1.83756        -1.71998        0.451778
LJ              -nan            -nan            -nan
LJ          0.456658          2.2119       -0.416096
LJ           2.20165       -0.675232         2.27745
LJ          0.155842       -0.624598        -2.25118
LJ           1.75551        -1.64468        -2.37609
LJ         -0.309183        -0.21969         1.18722
LJ           -1.4124         2.33259         1.92679
LJ          0.512071        -1.45166        -1.34293
LJ            -1.829         1.74471          0.4873
LJ           1.06094        -2.20723        0.363621
LJ        -0.0256956          1.8263       -0.978147
LJ          0.758847        0.621917        -2.22486
LJ           1.11976        0.758156         2.16647
LJ      -0.000268629         -1.1827        -2.04242
LJ           2.18388        -2.27662        -1.76581
LJ          -1.62146       -0.300577         2.19511
LJ          -1.52966         1.34772        -2.22198
LJ          -1.45528         1.94751         2.24729
LJ          -1.59113       -0.731901        0.203382
LJ          -0.66879       -0.517566       -0.723996
LJ           2.03494        -2.31794        -2.23929
LJ          -1.58459        -2.49795        -1.14473
LJ          -2.17259         2.54797        -1.71858
LJ              -nan            -nan            -nan
LJ         -0.315013        -2.23573        0.204265
LJ         -0.214283        -2.09178       -0.291064
LJ         -0.592182        -1.68855       -0.251343
LJ           1.88245      -0.0273988        -1.84128
LJ           2.52396        -2.41898        0.119397
LJ           2.11653       -0.900839       -0.685691
LJ          -1.12372        -2.26558         1.18909
LJ              -nan            -nan            -nan
LJ           2.38412         1.58253        0.559612
LJ           1.29895       -0.148348         1.04542
LJ           1.52599        -2.13377        -1.94283
LJ          -1.97026       -0.144702         1.15382
LJ          0.902325          1.7449        0.100467
LJ              -nan            -nan            -nan
LJ           1.03371         1.51974      -0.0174002
LJ          0.415964        -1.72713         2.43112
LJ              -nan            -nan            -nan
