108
#Comment!
LJ          -1.31276         0.36823         1.57195
LJ           2.19249       0.0621595         1.35075
LJ          -2.11398       -0.893509       -0.819497
LJ           1.08215         1.95124       -0.824983
LJ         -0.108529        -1.47042        -1.13953
LJ           1.87139         2.12328         1.43796
LJ          -1.70546         1.37741        0.380766
LJ          0.062026       0.0942198         1.46001
LJ         -0.531171        -1.14718       -0.946782
LJ          0.944648         1.32281        -0.66657
LJ              -nan            -nan            -nan
LJ          -1.38961        0.997293        0.850249
LJ         0.0660461        -1.16336        -2.34311
LJ          0.447124        -2.18028         2.19011
LJ           1.91225        0.572756         2.14498
LJ          -1.70281        0.740632        0.584344
LJ          -2.38211        0.305378         2.37271
LJ        -0.0757109         1.23102       -0.113637
LJ          0.866503         1.70509        -2.44697
LJ            2.0378         2.01356          1.5882
LJ            2.4391        0.421441        -2.47658
LJ          -1.02938         -1.2741         2.05803
LJ           2.42599          1.2464          -2.222
LJ          0.704791        -1.43965       -0.911398
LJ          -2.06889        0.892604         2.51261
LJ           2.00927         2.41242      0.00343908
LJ           1.78471        -2.08185          1.3377
LJ           2.35054        0.870592       0.0708578
LJ          0.583416       -0.871624       -0.888943
LJ           2.49209        -1.29182         1.97901
LJ          0.129519         1.00997        0.740354
LJ           2.46653        -1.44862        -1.81929
LJ              -nan            -nan            -nan
LJ          -1.28517         1.82916        0.799114
LJ         -0.221979        -2.41383         1.86702
LJ           1.68529         1.44865         2.17834
LJ           -1.8012         1.94299        -1.79151
LJ           1.13816        0.168611        0.167462
LJ           2.42458        -1.97927       -0.608306
LJ          0.732549        -1.19375        0.695407
LJ          0.111778         1.70838        -1.06494
LJ          0.234646        -1.42281        0.781814
LJ           1.92612        -2.16514        0.550129
LJ           1.73287         2.51768        -2.26553
LJ          0.380107         0.91268        -1.39872
LJ            1.2274        -1.54707       -0.159271
LJ           2.09954         1.24492         2.12734
LJ         -0.314599         1.51404        0.353226
LJ         -0.572254       -0.621717         2.37928
LJ         -0.505232        0.417211         1.95654
LJ          0.745157         2.53373         2.32956
LJ           1.56668        -1.95323        -1.89697
LJ          -1.52112        -2.53207         1.69038
LJ         -0.732131         1.26716         0.60901
LJ          -1.21436       -0.282049         1.62906
LJ            1.5411       -0.533472        0.114557
LJ          -1.86054        -1.55135         0.53199
LJ         -0.126229         2.54692        -1.16755
LJ           2.26444        -1.43217        0.785615
LJ         -0.779173       -0.935204        -1.78642
LJ          -1.07227        -1.25052       -0.833948
LJ           2.48303      -0.0971037         1.50686
LJ           2.45164       -0.544904         1.90681
LJ          0.873338       -0.472548         1.87228
LJ           2.48715         1.47882         1.79988
LJ           2.16145        -1.05209        -1.49972
LJ          -2.52914         2.08173        0.486359
LJ         0.0664946         1.35967         1.08217
LJ         -0.302214        0.486115        -1.44207
LJ          -1.71095         1.88273       -0.896431
LJ           0.13216         1.90068         1.58448
LJ          -1.23252       -0.855904        -1.55126
LJ          0.489292        -2.19775          1.1027
LJ           2.30197        -2.09995       -0.691879
LJ          -1.43386        0.154646          1.2762
LJ           -1.0885        -2.50214         -2.2691
LJ           1.91739         2.27767         1.54279
LJ         -0.071495        -1.86954        -2.13127
LJ           1.79044        0.632944        -1.65762
LJ           1.97571        -2.00133         1.83979
LJ          -1.23417        0.979277        -1.36694
LJ           1.35806         2.10451        -1.24815
LJ           1.13134        -2.26664       -0.567673
LJ           0.89562      -0.0825159        -1.09593
LJ         -0.482429       -0.457688         1.78431
LJ           2.52885        -2.41468        -1.05215
LJ          -1.59519         0.20367        0.884359
LJ          0.982698        -2.55568         -2.0519
LJ           -1.7652         2.46868       -0.282455
LJ          0.133454         1.74499          1.2004
LJ        -0.0109699         1.85584         1.99933
LJ          0.977258        -1.68793       -0.573622
LJ           2.00025       -0.143523        -2.38254
LJ          -2.24766         -1.2753        -0.35228
LJ           1.28483         1.44132         1.79616
LJ         -0.193644         1.50996        -2.31759
LJ          -2.21246       -0.816816       -0.852508
LJ           2.54629        -1.04796       -0.321201
LJ           1.42588       -0.402908        -2.53356
LJ          0.288596        0.388445         0.24486
LJ          -2.04454       -0.781622       -0.302699
LJ           1.62134      0.00113298        0.094137
LJ           2.35714        0.932021       -0.195284
LJ         -0.997443         1.31768        -1.95732
LJ           2.19692        0.325722        -1.82027
LJ         -0.304357         2.18684         1.62036
LJ          0.495123        0.787462        0.140842
LJ           1.67517         2.36134         1.03235
