108
#Comment!
LJ         -0.788343        -2.33812         1.14504
LJ          -0.51887        -1.66991        -1.70541
LJ           2.46803       -0.095438        -1.62773
LJ          -1.53942       -0.278761       -0.698227
LJ          -1.72171         -2.0343        -0.91713
LJ          0.196487        0.506555       0.0394467
LJ           1.00469         -0.9305         2.37215
LJ           2.36504        -1.61506        -2.36381
LJ          0.146726        -2.32684        0.295479
LJ          0.862535        -1.04345         1.90012
LJ              -nan            -nan            -nan
LJ           0.51974        0.864737        0.157912
LJ           2.19003         1.64126         1.52512
LJ           1.69223        0.586587       -0.577101
LJ         -0.393054         1.75663        -1.89858
LJ              -nan            -nan            -nan
LJ              -nan            -nan            -nan
LJ              -nan            -nan            -nan
LJ          0.932084       -0.130106         1.78259
LJ              -nan            -nan            -nan
LJ          -1.09277        -2.28709        0.473015
LJ          0.500287         1.45953        -1.56795
LJ            1.7051         1.88561        0.726027
LJ           1.99722         1.97008        0.775063
LJ           2.52835           2.423         -1.4201
LJ           1.36693       0.0951762       -0.389225
LJ         -0.900061       -0.273925        -1.89134
LJ           2.32646        -2.12739        -1.13574
LJ            1.7454       -0.803218       -0.850439
LJ           -1.0007      -0.0397854         1.30439
LJ          -2.51612       -0.104234        0.235346
LJ          -1.13107        0.484848        -2.18867
LJ              -nan            -nan            -nan
LJ           2.50939         2.03502         0.28791
LJ              -nan            -nan            -nan
LJ         -0.679028       -0.193184        -1.32132
LJ          0.600159         0.02535        -1.09656
LJ           1.04004       -0.637233         -1.0448
LJ           2.13144        0.625677        -1.09121
LJ          0.206425         1.84921     0.000431381
LJ          -1.32842        -2.34679         1.43418
LJ          0.778011         1.70235        0.836272
LJ          -1.21196         1.95571         2.47802
LJ          -1.87232       -0.605638       -0.143545
LJ           2.44352         1.75774       -0.346874
LJ           1.85323        -2.21521        -1.42245
LJ          -1.67958        0.379983         1.55502
LJ          -2.22886       -0.534615         1.60393
LJ          0.779296       -0.406572        -1.60079
LJ         -0.015005       -0.490757        0.994047
LJ           2.29033        -1.18296        -1.80161
LJ           2.25089         -1.3231         -2.1972
LJ              -nan            -nan            -nan
LJ          0.638274        -1.20365        -0.84926
LJ           2.16725        -1.67238        0.220184
LJ       -0.00610268       0.0935773         2.43137
LJ           2.02185        0.595184         1.57367
LJ          0.783393         1.77145        -1.40251
LJ           1.26064         2.50766       -0.349331
LJ         -0.748544        -2.31424         1.77686
LJ          -1.83167         1.46206        -1.37222
LJ          0.785317        -2.35153        -2.53834
LJ         -0.230032        -1.14382        -1.86622
LJ          0.504589        0.556784         2.10432
LJ          0.978956        -1.03563        -1.76571
LJ          0.297624        0.118881        -1.29614
LJ           1.71745       -0.937988       0.0534075
LJ              -nan            -nan            -nan
LJ          -2.30545         2.35918        -2.47966
LJ         -0.943886         1.05684       -0.465659
LJ          0.514212       -0.423553         2.19885
LJ         -0.707125        -1.73427        -1.23529
LJ           2.40386       -0.921128         2.23069
LJ         -0.879555        -1.22129        -0.34032
LJ           2.46012         2.48542        0.512321
LJ           2.31037        0.470383        -2.19206
LJ          0.408378         2.55551       -0.913755
LJ          0.610119        -1.92363         2.11576
LJ          -1.64065         -2.4131        -2.28605
LJ           2.51806        -1.36534        0.457322
LJ          0.540882        -0.16174        -1.92058
LJ           2.11357      -0.0877787          1.7209
LJ         -0.228547        0.725034         1.49613
LJ          0.494903        -1.09408        -2.04758
LJ          -1.51151       -0.200222         1.06931
LJ          0.434534        0.338478         1.00264
LJ         -0.237164        -1.97542        -1.62334
LJ          0.599934         2.25585        -1.69159
LJ         -0.384687       -0.270527         2.52127
LJ           0.68102         -1.0055       -0.312343
LJ              -nan            -nan            -nan
LJ           1.08085       -0.373652         1.77981
LJ         -0.311014        -1.60529         -0.5546
LJ          -1.29236        0.215572        -1.10814
LJ          -1.43827         1.12836       -0.184849
LJ          -2.03812         1.95576        -2.33424
LJ            2.5258        -2.07924        0.976916
LJ        -0.0332486        -1.09638       0.0836625
LJ              -nan            -nan            -nan
LJ         -0.402031         2.19064        0.560476
LJ          -1.70509         2.33474       -0.819384
LJ         -0.588438       -0.280354         1.39829
LJ          -1.20357        -1.72148         1.85394
LJ         -0.235171       -0.792207        0.150665
LJ        -0.0226939        -1.79709        0.199503
LJ           2.18758        0.650439         1.71385
LJ          -1.48926         -2.4949          1.7644
LJ              -nan            -nan            -nan
