108
#Comment!
LJ           1.91578         1.13512         2.07525
LJ           -1.1584        -1.80156        -2.53086
LJ           2.49054        -1.04917        -2.49209
LJ           2.12503         1.38097         -2.2725
LJ          -1.57848        -2.38125        -1.30704
LJ           1.80738        -2.43706         1.82675
LJ          -2.24731        0.353887        -2.02261
LJ          0.297765        -1.82511       0.0597036
LJ         -0.993478        -1.42234        0.261999
LJ          -2.27865        -1.39325       -0.520028
LJ              -nan            -nan            -nan
LJ          -2.29818       -0.335002        -2.10789
LJ          0.790123        0.505971         2.10788
LJ              -nan            -nan            -nan
LJ          0.799316        -2.10304        0.476349
LJ              -nan            -nan            -nan
LJ              -nan            -nan            -nan
LJ              -nan            -nan            -nan
LJ          0.940964         0.98172         1.05604
LJ              -nan            -nan            -nan
LJ          0.909828        -1.96976        0.860978
LJ          -1.29398        -2.43152       -0.680961
LJ          -0.73226         2.07243        -1.00949
LJ              -nan            -nan            -nan
LJ            0.3745         2.31557         1.64114
LJ           1.25886        -1.69028         2.52659
LJ           2.28295          1.2258       -0.132171
LJ           1.26231        0.664175         2.05841
LJ           1.09912      -0.0713591         1.19046
LJ         -0.538385         1.97681        -1.92713
LJ              -nan            -nan            -nan
LJ           2.11862       -0.402347        -1.29383
LJ              -nan            -nan            -nan
LJ          -1.52175       -0.222599         -1.4744
LJ              -nan            -nan            -nan
LJ          0.659631        -2.47174         2.31261
LJ         -0.279504        0.201086       -0.522111
LJ          0.381375         1.77936        0.796712
LJ           2.43957         1.65692        -1.53352
LJ          -2.51553         1.31834        -1.38453
LJ         -0.925609        -2.19634        -2.40791
LJ           1.29207         1.12964        -1.58488
LJ          -0.74179        0.310444        -1.57534
LJ          -2.34921       -0.367273         -2.0249
LJ          -1.30363        -1.62842        -1.41085
LJ             1.281        -1.85535        -2.25261
LJ          -2.24133          2.0091        0.686579
LJ          0.803236       -0.683157        -2.56135
LJ           -1.0552        -2.20879         1.87222
LJ           0.94939      -0.0421891       -0.352602
LJ          0.258688        -1.22822        -1.20638
LJ          0.194018         2.07537         1.63585
LJ              -nan            -nan            -nan
LJ          0.736106        -1.08521       0.0871723
LJ           2.03197        -2.47954        -1.57535
LJ           1.68495           2.056         1.41112
LJ         -0.525403       -0.887456       -0.377709
LJ           0.41001        0.814869         1.74677
LJ         -0.334779        -1.88776        -1.45717
LJ           2.26232       -0.994272        -1.34786
LJ           1.80274        0.533345        -1.18823
LJ          -1.67059        0.935256        -1.38638
LJ           2.47479         1.48672         2.44765
LJ              -nan            -nan            -nan
LJ              -nan            -nan            -nan
LJ           2.20687        0.707306       -0.770388
LJ           1.95608        0.252041         -2.0801
LJ              -nan            -nan            -nan
LJ           -2.4592         2.32857         1.06726
LJ         -0.894917        0.416197       -0.354644
LJ          -1.46963        -1.48112        0.139512
LJ          -1.90638       -0.590596       -0.339593
LJ           0.73105         1.67146         2.11381
LJ          -1.24166        -1.79963          1.4441
LJ          -0.35681        0.672064        0.720851
LJ         -0.642728         1.77784        -1.30576
LJ          -1.33396        0.860508         2.28675
LJ          -1.25554        -1.20835        -1.81139
LJ          -1.39622        -2.23408        -2.22264
LJ         -0.237911          2.1555         1.91376
LJ          -1.61605        -1.54576         1.37409
LJ          0.796884         1.22205         2.17071
LJ         -0.876785           1.244         0.50718
LJ            2.4981        0.952348         2.37524
LJ          -1.16006        0.863561        -1.61761
LJ           2.35211        0.745226        0.538871
LJ            1.4075        -1.24677         0.60882
LJ          -1.23046         -1.3461         1.10795
LJ          -1.57267         1.79731        -2.27462
LJ         -0.719511        0.213463        0.688642
LJ              -nan            -nan            -nan
LJ          -1.04698       -0.955866         2.14572
LJ          0.889135        -1.28753         2.27384
LJ          -2.16588       -0.170098        -1.14699
LJ          -1.48243         2.15511        -1.45852
LJ         0.0662193        -1.04511         -1.3967
LJ          -1.76705       -0.529938        -1.54735
LJ          0.372958        -2.30906         2.31299
LJ              -nan            -nan            -nan
LJ          -2.04388         2.17482        0.314236
LJ          0.117782        0.185274         -2.1126
LJ          -1.61221         -2.2773        -1.76609
LJ         -0.761771         2.23624        0.328537
LJ           2.51444         2.09012       -0.106393
LJ              -nan            -nan            -nan
LJ          -2.28571         1.01889        -1.30558
LJ         -0.587001        -1.35383        -1.65282
LJ              -nan            -nan            -nan
