108
#Comment!
LJ           1.49039        0.908531      -0.0736609
LJ         -0.926335        -1.27557      -0.0640109
LJ          -1.58865         1.07894         -2.3263
LJ          -2.40455        -1.64186        -0.75261
LJ          -1.19251        -1.17922         1.07092
LJ         -0.420233       -0.116141         1.78912
LJ           2.22301        0.737907        0.831833
LJ          0.366234        -1.67232        -2.45135
LJ           1.34262        0.628145       0.0913046
LJ            2.2564         1.74985       -0.868004
LJ              -nan            -nan            -nan
LJ          -1.03046        -2.37445        0.297838
LJ          -2.17943       -0.295607         2.42161
LJ         -0.820517         2.21737        0.888316
LJ          -1.47635         2.33914         1.44274
LJ          0.486984      -0.0284623         2.47482
LJ              -nan            -nan            -nan
LJ              -nan            -nan            -nan
LJ          -1.59566         1.95251         2.22225
LJ              -nan            -nan            -nan
LJ          -2.29991         2.15542        0.123419
LJ          0.472571        0.625388         2.44244
LJ           1.60627        -2.36212         2.29768
LJ          -1.32841         1.92012      -0.0580442
LJ          -2.50147        -1.36178       0.0180174
LJ          -1.12772        -2.46989       -0.133832
LJ         -0.657888        -2.13034         2.45211
LJ           0.94783         1.30214       -0.749267
LJ          0.422579         2.52637        -0.91761
LJ            1.4752        -1.39915         2.24488
LJ           1.58492       -0.473257        0.958472
LJ         -0.237124        -2.20832        -2.37369
LJ              -nan            -nan            -nan
LJ          0.128751         1.37119         1.79567
LJ              -nan            -nan            -nan
LJ           2.00759        -1.51233       -0.815426
LJ           2.38235        -1.72077       -0.508168
LJ          -1.31861        -1.65464        -2.28482
LJ          -2.04835      -0.0528537        0.552082
LJ           1.21992       -0.688037         1.66142
LJ         -0.480636       -0.945493       -0.215774
LJ          0.139236         2.31706          2.0816
LJ           2.18432         1.04085         1.43914
LJ           1.08129        -0.63096         1.42506
LJ          -1.87525         0.63891        0.334633
LJ          -1.73941       -0.817186       -0.807573
LJ         -0.383288        -1.15017        0.155254
LJ           2.54642         2.40976          1.8694
LJ           1.83393        0.955867        -2.17406
LJ          -1.41859        0.762548         1.29068
LJ         -0.455362        0.809793         1.64077
LJ           1.17329        -2.19883         1.34915
LJ              -nan            -nan            -nan
LJ          -0.36527        0.935533         2.13094
LJ          -1.68209      -0.0348865        0.170047
LJ          0.453015       -0.474921        0.599939
LJ           2.44775       -0.246285         1.78576
LJ            2.0104        0.404322        -2.46129
LJ          0.270777        -0.52495        0.301484
LJ         -0.614608       -0.795318         1.77625
LJ          -1.16204       -0.118838         1.61702
LJ          -1.26607         2.14688         2.24039
LJ         -0.241787         1.97715         1.67975
LJ          -1.59764       -0.243436         1.31273
LJ          -1.57091        -2.52301         1.32852
LJ           2.39416       -0.143991         1.53448
LJ           1.92801         1.86417       -0.309806
LJ              -nan            -nan            -nan
LJ         -0.448837         2.08765       -0.746745
LJ           2.20361        0.619084         2.23514
LJ          -1.28251         -1.7936        -1.08901
LJ          -1.83743        0.343546        -1.38596
LJ         -0.193139         1.59887        -2.40801
LJ          -2.06123        -2.38806         -2.1007
LJ         -0.555186       -0.845725        0.140414
LJ      -0.000592706        -1.65464       -0.836257
LJ         -0.669772         1.22056       -0.956372
LJ           -0.8272         2.40392        0.380081
LJ          -1.66861        0.916431        -1.15027
LJ          -2.21543        -1.20218          2.1954
LJ           1.35085         1.44917         2.14274
LJ         -0.457606        -2.54001       -0.417892
LJ           0.58195        0.163632         1.35183
LJ          -2.46815          2.1165         1.22418
LJ          -1.28291         1.23418        -1.75555
LJ          0.712211       -0.832727        -1.42682
LJ           1.28157         1.01938       -0.721787
LJ         -0.816541        -1.78006        0.210353
LJ           1.26505        -2.39111        0.576137
LJ           2.11794       -0.158273        0.721858
LJ              -nan            -nan            -nan
LJ          -2.21177       -0.238792         1.19118
LJ           0.30435        0.804284       -0.687826
LJ           1.26185         1.77986        -2.10236
LJ         -0.431311        0.229803       -0.413877
LJ          0.657204        0.785004        -1.75123
LJ           1.97975         1.27752        0.546483
LJ          0.530879        -1.08936         1.12792
LJ          -1.28727        0.704888       -0.800516
LJ          -2.49621       -0.952147        -1.01056
LJ          -2.03737      -0.0802995         2.55496
LJ           1.43301        -1.33077         2.27496
LJ           1.14004        -1.87683        0.463673
LJ          0.603999        -2.35749       -0.581358
LJ          -1.89732        0.692989         1.53103
LJ           2.37142        -1.59668       -0.282506
LJ          0.547388       -0.948926       0.0389263
LJ              -nan            -nan            -nan
