108
#Comment!
LJ          -2.38039     0.000362714         1.77829
LJ          -1.63902        0.498909         1.00184
LJ          -1.28978        -1.03446         2.55904
LJ          -0.18349        0.891396      -0.0466897
LJ          -1.00004        -1.64039        -1.10194
LJ          -1.71998        -1.20237        -2.42086
LJ          -1.33862         1.06418         1.09772
LJ           1.26331        -2.38065       -0.769505
LJ          -1.95038        -1.02722       -0.619628
LJ         0.0601219        -2.30686       -0.501321
LJ              -nan            -nan            -nan
LJ           1.85635       -0.283394        0.893862
LJ          -1.26311        0.288269        0.178328
LJ          -1.33496        0.271637        -1.21535
LJ         -0.372725      0.00125263         0.29777
LJ              -nan            -nan            -nan
LJ              -nan            -nan            -nan
LJ              -nan            -nan            -nan
LJ           1.55827         1.39447         0.50803
LJ              -nan            -nan            -nan
LJ          -1.34106          0.6387         1.16856
LJ           2.49134         1.34033        -1.03996
LJ           1.09722         2.15704          1.0569
LJ          -2.05779        -1.20029        -2.11859
LJ           1.44038       0.0641298         2.47784
LJ           2.17333         1.39691        -1.69829
LJ         -0.184589         1.40825        -2.51901
LJ          0.457919         2.20923         2.38292
LJ          -1.11063         2.37843        0.590503
LJ         -0.699141        -1.89036        -1.88392
LJ         -0.640084        -1.58343        0.862488
LJ           0.66668        -1.81246       -0.342185
LJ              -nan            -nan            -nan
LJ          -0.25177        -2.52601      -0.0428406
LJ              -nan            -nan            -nan
LJ          0.754025        -2.18579        -1.99563
LJ           1.87006        0.497923        0.977641
LJ          -2.06475         -2.2762        -2.03028
LJ           -1.3314       -0.687949        -2.11619
LJ           1.19168        -2.41438         0.97481
LJ         -0.570713        0.811139        -0.34064
LJ          -2.21648       -0.773587         1.02105
LJ         -0.797156        -1.52754         1.00874
LJ           1.35164        -2.54819        -1.74872
LJ         -0.782444        -1.09403          1.9504
LJ          -1.23533        0.286127         1.35709
LJ          0.261586        -1.83154         1.28635
LJ           2.07188        0.863082       -0.716437
LJ           1.32253        -1.04368         -1.1969
LJ           1.42044         1.62676        -1.75376
LJ          -2.00604         1.59362         1.75732
LJ        -0.0860665       -0.396393       -0.272955
LJ              -nan            -nan            -nan
LJ           2.12564        -2.34085         1.05787
LJ          0.508173         2.06366         2.21845
LJ          0.035248       -0.850465        -1.04679
LJ          -1.04133        -1.52293        0.901422
LJ          -2.40608        -1.47744       -0.237624
LJ           0.68189      -0.0197614         1.40777
LJ             2.507        -1.84338        0.282597
LJ         -0.989246         0.97585        -1.14886
LJ          0.144718       -0.989952       -0.886132
LJ          -2.35858        0.263133       -0.110904
LJ          0.299235        -2.34181        -1.31907
LJ          0.384116         1.97751       -0.352863
LJ         -0.897861        -1.67185        0.253674
LJ           1.09002       -0.281324          1.8449
LJ              -nan            -nan            -nan
LJ          -1.18232        -2.03769        0.716524
LJ          0.552801        -1.26827        -1.79456
LJ           2.04031        0.816474        -2.30481
LJ          -1.78646         1.52042        -1.11906
LJ         -0.515421        0.144628        -1.95569
LJ          -1.09075        -2.24467        -2.52768
LJ         -0.391344        -1.70952         2.50935
LJ          -0.28788         1.53114         2.28296
LJ           1.42285       -0.489912       -0.154959
LJ         -0.489891      -0.0573999         1.19696
LJ          -1.64033        0.666664          2.1364
LJ         -0.923531        0.144964         1.46111
LJ        0.00244162         2.33944        -2.43718
LJ          -1.50274         2.01479        -2.47469
LJ          0.825263        -2.54573       0.0957734
LJ          -1.22496        -2.06959         1.24502
LJ            2.4393         2.33078        0.884001
LJ            1.2943        -1.52358        -1.23959
LJ          0.489162        -1.92445       -0.815098
LJ          0.498894       -0.795989        0.257076
LJ         -0.715589        0.527379         -1.7532
LJ          0.847562        -2.15432         -2.1765
LJ              -nan            -nan            -nan
LJ         -0.643766         1.52693        0.713799
LJ           1.36605        -1.35372         2.46139
LJ          -1.22068      -0.0734303        0.665537
LJ          -1.83227        -1.02068       -0.673079
LJ          -2.35723         1.60357        -1.85552
LJ           1.09557      0.00162627        -0.22724
LJ           1.68589        -1.20007         1.06909
LJ              -nan            -nan            -nan
LJ         0.0635585        -1.80158        0.931099
LJ         -0.702022         -1.5832       -0.261781
LJ          -1.97225        -2.34222         1.83774
LJ          0.227803         2.18567        0.377789
LJ          -1.96401         1.90617        0.494999
LJ         -0.416221        -2.11617        0.128478
LJ          -1.23069        0.222448        -1.48154
LJ         -0.222399        0.444433        -1.44963
LJ              -nan            -nan            -nan
