108
#Comment!
LJ         -0.202903        -2.49907        0.897372
LJ          -1.41272        0.495438          1.8966
LJ          0.536749         0.84127        0.150155
LJ           -1.4226       -0.497459         2.23539
LJ          -1.74063       -0.592211         0.98632
LJ          0.585196        0.523819         -1.9213
LJ           2.21991        -1.71696        -2.26513
LJ          -1.75156         2.40544        -2.41971
LJ          -1.77053       0.0240954        -1.85968
LJ         -0.686697         1.77092         2.36474
LJ              -nan            -nan            -nan
LJ          -2.11458         1.28607       -0.928411
LJ          0.802682         2.05464        0.993535
LJ              -nan            -nan            -nan
LJ           1.27924        -1.71994         1.90571
LJ              -nan            -nan            -nan
LJ              -nan            -nan            -nan
LJ              -nan            -nan            -nan
LJ         0.0650552         1.13315        0.479129
LJ              -nan            -nan            -nan
LJ          0.969158          1.3234        -2.13664
LJ           1.10133       -0.671799         0.16061
LJ           -2.0342        0.900445         0.44534
LJ              -nan            -nan            -nan
LJ           2.32753       -0.626233        0.954215
LJ          0.711668       -0.479368       -0.554171
LJ          0.946617       0.0338052        -2.29732
LJ          -1.79932        -1.57658         1.80027
LJ          -2.38198         1.99975       -0.057874
LJ            -2.528         2.25696         0.47877
LJ              -nan            -nan            -nan
LJ           -1.6642      -0.0819522       -0.640996
LJ              -nan            -nan            -nan
LJ          -2.44398         1.61755          2.0187
LJ              -nan            -nan            -nan
LJ         -0.243733         2.36398         2.00506
LJ           1.42985       -0.107655        -1.17047
LJ           -2.3974         1.95454         1.28654
LJ          -1.10966        -1.48422       0.0154557
LJ          -1.75685        0.301039         1.00718
LJ          0.822339        0.261301       -0.572125
LJ          0.877998        0.057006          -0.637
LJ            1.6334        -2.26829        -1.36094
LJ          0.168635        -1.36279         -1.2209
LJ          -2.47936         1.44753        -1.39434
LJ          -0.43751        0.777477         0.12284
LJ          -1.25543       -0.288789       -0.172887
LJ           1.27239       -0.305851       -0.754243
LJ         -0.123818        -1.35298         2.46042
LJ          0.761569         1.09908         1.73391
LJ          -1.68898          1.0515        -1.71704
LJ           1.54646         1.95967         0.96434
LJ              -nan            -nan            -nan
LJ           1.48562         2.46558        -2.04933
LJ          0.585612       -0.318064       -0.732113
LJ           -1.3726        -2.16125        -1.76738
LJ           1.01902         1.02289        -1.64507
LJ           2.43968        -1.69301         2.53302
LJ            1.5384       -0.510841        0.938715
LJ          -1.12243        -2.43231        0.724014
LJ         -0.212111         1.28009         1.78665
LJ          -1.91628        -1.11541        -1.56188
LJ           2.13631         1.51026        -1.82987
LJ              -nan            -nan            -nan
LJ              -nan            -nan            -nan
LJ          -1.91951         1.64351       -0.882918
LJ         -0.358428         2.13346       0.0879976
LJ              -nan            -nan            -nan
LJ          0.952366        -2.28776        -1.96618
LJ          0.357195        0.976234        0.520964
LJ          -1.14251     0.000933348         1.68477
LJ         0.0487354        -1.39678          2.1642
LJ           2.42746         0.50875        -2.55731
LJ         0.0651174       -0.385188         1.84758
LJ          0.178802        -1.97309        0.556017
LJ          0.445199        0.719833         1.16841
LJ          -2.27369         1.54661        0.506799
LJ         -0.646265        -1.36831         1.37661
LJ          0.752697         1.48868       -0.669594
LJ         -0.438163        -2.54475         -2.5533
LJ         0.0874078        -1.90343       -0.358141
LJ         -0.144801        -1.28345        -1.49756
LJ           2.16773        0.139529        0.704463
LJ           1.49441        -1.66052       -0.499135
LJ          -1.97379        -1.11921        -1.72023
LJ           1.15268         1.63438        -1.32362
LJ          0.657967       -0.334019       -0.412786
LJ         -0.994681         2.46757        0.891394
LJ           1.97118       -0.375394        -1.10819
LJ           1.25495        -2.23951         1.19329
LJ              -nan            -nan            -nan
LJ          0.382861         1.80479        0.851668
LJ          -2.11367        -2.45712       -0.520501
LJ          -2.26593       -0.392469         2.51448
LJ          -1.64019         1.67089        0.562371
LJ         -0.562138         1.76895        -2.18405
LJ           1.88878         1.06263         1.61293
LJ          0.725084        0.918893         2.15892
LJ              -nan            -nan            -nan
LJ          -2.10198       -0.682334        0.414579
LJ          0.400669         0.54972         2.46445
LJ             1.908         1.70801        -1.76117
LJ         -0.769973        -1.84597        0.541382
LJ           -2.2564       -0.728193       -0.815455
LJ              -nan            -nan            -nan
LJ          -1.04476         2.30814         1.38734
LJ           1.95439       -0.440018         1.97834
LJ              -nan            -nan            -nan
