108
#Comment!
LJ           2.55682       -0.664731        -1.15505
LJ          -1.64525          2.0752        0.314074
LJ           2.00447         1.76198         1.71785
LJ           1.77562         2.29267        0.560473
LJ          -2.31374         0.56866         2.55112
LJ            1.2594        -1.43816         1.73221
LJ         -0.921232           0.817       -0.986481
LJ           1.33962        0.720792        0.498706
LJ           1.35763         2.31528       -0.633287
LJ          -1.64143        0.720352         2.33685
LJ              -nan            -nan            -nan
LJ          0.494416        -2.38106        -2.48544
LJ          -1.14047         1.47507        0.604602
LJ              -nan            -nan            -nan
LJ          0.862319         2.29541       -0.918231
LJ              -nan            -nan            -nan
LJ              -nan            -nan            -nan
LJ              -nan            -nan            -nan
LJ           1.09535        -2.34455       -0.519537
LJ              -nan            -nan            -nan
LJ           1.07469        -1.49139        -2.05016
LJ         -0.714035        0.977871       -0.108767
LJ           2.23412        -2.38063       -0.920749
LJ              -nan            -nan            -nan
LJ          0.576398        0.101203       -0.188619
LJ           2.33508       -0.997645         1.09895
LJ           1.75024       -0.842573        -1.34518
LJ            1.3952        0.933196        -1.93565
LJ          -2.43721         1.77636       0.0478643
LJ            1.6653        -2.24115        -1.17653
LJ              -nan            -nan            -nan
LJ           2.49794          1.7408        -1.78511
LJ              -nan            -nan            -nan
LJ          0.119283           2.095        -2.09962
LJ              -nan            -nan            -nan
LJ           1.94702          1.2893         -1.2061
LJ           1.81355         1.05525       -0.932422
LJ           1.12699         1.39398       -0.393313
LJ           1.70054        -2.12898        -1.54455
LJ          0.293369       -0.619913       -0.291058
LJ          -0.63989       -0.866227       -0.320785
LJ         -0.971152        -2.20354         1.20007
LJ          0.585081        -1.72726         -1.5048
LJ           -1.4191        -1.62021        0.982757
LJ            2.2215         1.57524       -0.513975
LJ         -0.880384        -1.63797        -0.51108
LJ            2.2975        -2.20368        0.499686
LJ            1.0187       -0.207871         1.90926
LJ           1.18104         1.20825        -1.53759
LJ         -0.400755        -1.60002         1.44326
LJ         -0.556957       -0.656663        -2.39156
LJ         -0.848798        -1.71468        -2.04909
LJ              -nan            -nan            -nan
LJ          0.652654         2.52539        -2.28964
LJ          -2.08905         1.39727       -0.415219
LJ          -1.29753        0.460245        -1.53843
LJ           2.56053       -0.162283        -2.03946
LJ           -1.6661       -0.419946        -1.16176
LJ           1.68183        -1.31954       -0.796664
LJ           1.83378        0.751479       -0.538771
LJ          -1.06706        0.657109        0.839331
LJ           2.08273        -1.08714      -0.0503342
LJ          -1.16417       -0.272186        0.752217
LJ              -nan            -nan            -nan
LJ              -nan            -nan            -nan
LJ          0.845754        -1.82406         1.50349
LJ          0.212414         1.19268        -1.21373
LJ              -nan            -nan            -nan
LJ           1.17067      -0.0893045         -2.3925
LJ           2.05306       -0.223458         1.11771
LJ         -0.424551        0.842879        -1.37517
LJ          -2.46451        -2.14908         2.01333
LJ         -0.700218       0.0951399         2.38906
LJ        -0.0642936          1.0115         1.50429
LJ           1.48371        -1.39332        -1.00338
LJ           -1.3433        0.835965       -0.885478
LJ           0.47961        -2.26427        -2.08851
LJ          0.256044      -0.0142753        -2.50277
LJ         -0.353306        -2.01915        -2.33382
LJ           2.51442        -0.31752        -2.02612
LJ         -0.662884         2.41054       0.0409127
LJ          0.645879         2.33719        0.369567
LJ          -1.76305        -1.74255        0.451631
LJ         -0.423796        -2.49653       -0.505127
LJ          -2.31786        -1.68555         1.20724
LJ          -1.24065       -0.577798        -2.13887
LJ          0.924673        0.164053      -0.0244993
LJ           1.03322      -0.0650735        -1.53059
LJ           1.13261      -0.0907275        -1.96947
LJ          -1.47516         -1.2055          0.8788
LJ              -nan            -nan            -nan
LJ          -1.89901         -2.5514         0.45289
LJ           -2.3775       -0.581455        -1.69361
LJ        -0.0774045         2.01047        -1.39119
LJ           1.91414         1.93458         2.29422
LJ           2.15982        -0.36379         1.08751
LJ           2.30714         1.23224        0.520458
LJ           1.45214         1.03296        0.159369
LJ              -nan            -nan            -nan
LJ           1.03182        -1.20158         1.99213
LJ          0.362665        0.529362         2.06699
LJ           0.41973       -0.141244       -0.825953
LJ          -2.43601       0.0553645        0.833717
LJ          -1.53378         0.77451        0.672678
LJ              -nan            -nan            -nan
LJ           1.96137        -2.51883        -1.27298
LJ           2.30526        0.293597         2.27353
LJ              -nan            -nan            -nan
