108
#Comment!
LJ           1.38357        0.385721        0.757738
LJ          -1.70244        0.966761        -2.37708
LJ          -2.39458       0.0127652          -1.781
LJ           -1.2046         1.93198         -1.7284
LJ          -2.55051        -2.33081        -1.20034
LJ          0.791977        -1.91836       0.0886087
LJ          0.603985        0.747217        0.563648
LJ         -0.739511         1.98036       -0.775685
LJ           1.63796        -1.44987        -2.48847
LJ         -0.477412         1.52909         1.77514
LJ              -nan            -nan            -nan
LJ          -2.46805        -2.04111       -0.543118
LJ           1.83409        -1.38951        -1.28439
LJ        -0.0835539       -0.823487         1.43229
LJ           1.08849       -0.931417         1.35682
LJ              -nan            -nan            -nan
LJ              -nan            -nan            -nan
LJ              -nan            -nan            -nan
LJ           2.26928       -0.496339        -1.53944
LJ              -nan            -nan            -nan
LJ           -2.1988         2.49686         -2.1355
LJ          -0.55515        -2.35094         2.28026
LJ          -1.16221        -1.42127         1.68614
LJ           1.20743          1.5771        0.163031
LJ          0.473651        -1.01467         1.24358
LJ            1.1297         1.80883        -1.48672
LJ         -0.279039        0.656127        0.816579
LJ        -0.0755744          1.2852         0.28345
LJ          -1.80717       -0.330416        -2.50016
LJ         -0.134761         2.21529         0.38564
LJ          -2.49327         1.69623        -1.69987
LJ           1.44031       -0.864475       -0.410951
LJ              -nan            -nan            -nan
LJ          -0.43527        -2.55345        0.550275
LJ              -nan            -nan            -nan
LJ           2.43818        0.864751        -2.31804
LJ          0.876615         1.91423       -0.541015
LJ        -0.0597529        -2.35748         0.42998
LJ          -2.11266        -1.68699       -0.646781
LJ           1.50261         -1.9152         1.03561
LJ           1.75293        0.206777       -0.211975
LJ          -2.02803      -0.0283658       -0.253907
LJ           1.81758        0.178635         2.32839
LJ          -1.55062         2.07016        0.936896
LJ          -1.09381         2.00643         2.05481
LJ          -1.60783         1.63794        -1.59509
LJ           1.57074       -0.996646        0.203968
LJ           1.74613         1.20915        -1.14518
LJ          -1.31634        -2.27621        0.303406
LJ           2.33405        0.286422        0.992533
LJ           1.45109       -0.804375       -0.584014
LJ          -2.33584       -0.290102        0.747014
LJ              -nan            -nan            -nan
LJ          -2.14969        0.346098         1.63608
LJ          -1.99015        -0.78955        -2.35247
LJ           2.54574         1.28638         -2.2459
LJ          0.853303         1.53876        -2.13603
LJ          0.389417        -1.20425       -0.173129
LJ          0.653928       -0.741038         2.14472
LJ          0.651394       -0.825033       -0.831048
LJ        -0.0479589        0.753675       -0.402561
LJ           0.79624        -1.77583         1.63912
LJ           1.75752        -2.30881        -1.77591
LJ           1.44549        0.100893        0.160174
LJ           1.33346         1.32884         1.71185
LJ         -0.115654       -0.811876         1.02759
LJ           1.57786         1.07508        -1.50495
LJ              -nan            -nan            -nan
LJ          0.730648         2.39306        0.751628
LJ          0.543404        0.450844        0.578863
LJ           2.50464         1.37589        -1.86573
LJ           1.73837        0.326369        0.337844
LJ           0.57539        0.359937       -0.564159
LJ           1.51121         2.18531        -0.62745
LJ          -1.46838        0.637823       -0.831839
LJ           1.67981        -1.84831        -2.43605
LJ          0.483403        -1.88062        0.695286
LJ          -1.85183       -0.976902        -1.64582
LJ           -1.7459        0.963715         2.18913
LJ         -0.596373      -0.0577652         1.97789
LJ         -0.350071        -1.15048         1.60288
LJ          -1.85842       -0.677718        0.244489
LJ          0.387966        -1.21756         2.53634
LJ          0.658142         2.39026         1.46879
LJ           2.21687       -0.617112         1.38097
LJ           1.42982        -1.14641         1.55882
LJ         -0.670669        0.105403        -2.12385
LJ           2.18248         1.47932         1.71522
LJ         -0.425394       -0.808204        -2.38944
LJ           -1.1684         1.76178        -1.07976
LJ              -nan            -nan            -nan
LJ           1.61575       0.0284499         1.29154
LJ          0.417639        -1.14933        0.398154
LJ           2.12028         2.55067        0.753528
LJ           1.99442        -2.23238         2.07394
LJ           1.01186           -2.39        0.185803
LJ         -0.686504         1.04246         1.40318
LJ          -1.67669        -1.28003        -1.30386
LJ              -nan            -nan            -nan
LJ           1.10929       -0.200158         -2.3135
LJ        -0.0321891         1.99182       -0.462194
LJ           -2.2774        0.530229         2.23976
LJ         -0.245788        -0.49543        -1.61476
LJ         -0.892417         2.56416         1.34727
LJ           -1.5796        -2.23874        0.162343
LJ           2.33436        -0.91234        -2.23114
LJ          -1.54234       -0.247953          1.5377
LJ              -nan            -nan            -nan
