108
#Comment!
LJ          -1.08882         1.24295          -1.989
LJ           -2.3761         2.09357       -0.387307
LJ             2.503       -0.485975        0.340498
LJ           1.67981        0.954856        -1.69552
LJ         -0.182478        -1.42514         1.40793
LJ         -0.185701        -2.27789          2.1506
LJ          0.156375       -0.883523         2.29397
LJ          -1.47475         1.26215         1.16562
LJ         0.0201091        -2.22965         1.36597
LJ          -1.27496       -0.405394       -0.742247
LJ              -nan            -nan            -nan
LJ         -0.459438         1.46372       -0.323063
LJ          0.455383       0.0273504        -0.36111
LJ              -nan            -nan            -nan
LJ           1.37163       -0.861637         1.19498
LJ              -nan            -nan            -nan
LJ              -nan            -nan            -nan
LJ              -nan            -nan            -nan
LJ           2.01148         1.01267         1.87955
LJ              -nan            -nan            -nan
LJ          -1.58847        0.305151        -0.13327
LJ           2.16837       -0.661838        0.115099
LJ          -1.73829        -1.51253        -1.61529
LJ          -1.00902       -0.513656        0.211453
LJ           2.26606         1.37117        0.459703
LJ          0.726492        -1.29393        -1.55871
LJ            1.5059      -0.0746016         1.11433
LJ        -0.0699674        -0.35024       -0.191831
LJ           2.09334         2.00368        0.457257
LJ          0.591794        -1.73534        -1.68386
LJ              -nan            -nan            -nan
LJ           2.28199        -2.41246        -1.35977
LJ              -nan            -nan            -nan
LJ          -1.77603        -1.04591        -0.45158
LJ              -nan            -nan            -nan
LJ          -1.81236        -1.92879         2.28082
LJ          -1.38438        0.580446       -0.645592
LJ         -0.811231       -0.995737         1.23728
LJ          -2.27085        -1.50559        -0.66974
LJ          -2.21177         -2.4621        -1.51225
LJ           1.19997       -0.623492       -0.709432
LJ           1.44996        -2.55524         1.33048
LJ          -1.37297         1.98994         1.47662
LJ          -2.18641        -2.31669         1.61936
LJ          0.270015          -1.746        -1.30387
LJ         -0.634529        -2.11533        -1.71113
LJ           1.11204        -1.98982        -1.72868
LJ         0.0597326         1.40049        0.833913
LJ           1.34039       -0.703771        0.243831
LJ          0.859631        0.576748        0.145924
LJ          -2.47778        0.557522        0.205483
LJ          -2.24127        -2.19592        -1.27327
LJ              -nan            -nan            -nan
LJ          -1.28977        -1.27294         1.27108
LJ           1.54535         1.39583        -1.33504
LJ           2.23441        0.720686       -0.259223
LJ           1.90762        -2.50189        0.629798
LJ         -0.500831        0.978225        0.719296
LJ          0.325416        -2.21958        0.359991
LJ          -1.39568        0.946429         2.12229
LJ           -2.0243          1.3326        0.208879
LJ           1.48808         1.65116         2.15648
LJ          -1.67708         2.02815         2.26412
LJ         -0.865666         1.07423        0.807455
LJ              -nan            -nan            -nan
LJ          -1.33346        0.337366       -0.662529
LJ          -1.79119       -0.248197        0.921287
LJ              -nan            -nan            -nan
LJ          -2.47976        -1.11032       -0.089488
LJ           2.35503       -0.248934        -2.32341
LJ           1.94265        -2.35957        -2.19647
LJ          -2.18431         2.46441         2.40227
LJ          -2.48811       -0.418011        -2.41932
LJ           1.57799        -1.33952        -2.52197
LJ          0.750825        -2.47639        -1.71585
LJ         -0.194461         1.05162        -2.22572
LJ          -1.26408        0.259352       -0.288121
LJ         -0.921652        -1.38357         1.89264
LJ         -0.357482        0.662541         0.82299
LJ          0.927378        0.560598         -1.4356
LJ          -1.21698        -1.09922        -1.92536
LJ         -0.132802        -1.25965         1.87876
LJ          -1.64921        0.702242         0.88952
LJ          -1.85237         0.31717       0.0990438
LJ           2.56139        -1.30409        0.928113
LJ          0.192473         -1.5111         1.60002
LJ          -1.17982          1.4044        0.356834
LJ           1.27442         0.96274         2.32866
LJ           1.33534       -0.459459         2.38573
LJ          -2.56401       -0.268018         1.29943
LJ              -nan            -nan            -nan
LJ          0.283793        -2.54509       -0.708364
LJ        -0.0957088         1.70935          1.1481
LJ          -1.57312         1.51993       -0.131091
LJ           1.76276        0.893373         1.79305
LJ          -0.22828         2.40275          1.3914
LJ           2.18356         1.22243         1.56078
LJ          -2.55106         1.37497        -1.79094
LJ              -nan            -nan            -nan
LJ          0.732555        -1.73923       0.0265477
LJ           1.46802        -1.30619       -0.310661
LJ         -0.818568       -0.954408        -2.20987
LJ           1.90497         -2.3984         2.07173
LJ          -1.80608        -1.24354       -0.393985
LJ              -nan            -nan            -nan
LJ           1.48124        0.972222        -1.63619
LJ          0.454677       0.0948639        0.858971
LJ              -nan            -nan            -nan
