108
#Comment!
LJ          -1.93386        -1.83275         0.68326
LJ          0.836369         1.19861       -0.754821
LJ          0.273493        0.576144         1.37637
LJ          -1.48431         2.10838       -0.935623
LJ          -0.89646       -0.624879        -1.01585
LJ          -1.77648         0.19099        -0.76091
LJ          -0.34255       -0.474497         2.50215
LJ          0.969056         1.33333         2.38934
LJ          0.321676        -2.36861        -1.24119
LJ          -1.28504         1.30445       -0.146134
LJ              -nan            -nan            -nan
LJ          -1.66685          2.2496       -0.200076
LJ           1.67008         1.06998        0.234148
LJ              -nan            -nan            -nan
LJ           1.91165         1.21679        -1.06196
LJ              -nan            -nan            -nan
LJ              -nan            -nan            -nan
LJ              -nan            -nan            -nan
LJ          -0.70829       -0.583655        -1.45909
LJ              -nan            -nan            -nan
LJ         -0.721479        -1.88389       -0.474596
LJ          -1.44309         2.42895         2.32425
LJ           2.24306         1.25169      0.00181831
LJ              -nan            -nan            -nan
LJ           0.25342        0.460915         1.91276
LJ          -1.76257        -1.21666         1.36534
LJ          -2.09649       -0.959204        0.250922
LJ          0.128848        -1.67104        -1.67132
LJ          -1.95064       -0.118319       -0.734398
LJ           1.06642       -0.370056         1.53359
LJ              -nan            -nan            -nan
LJ          0.291593          2.0306          1.3196
LJ              -nan            -nan            -nan
LJ         -0.187615        -2.16128        0.876236
LJ              -nan            -nan            -nan
LJ            1.0537        -2.56172          2.0271
LJ          0.999061       -0.546105         2.46699
LJ          -1.12601        -1.42274        -1.63034
LJ          -2.19425       -0.330426        -1.78003
LJ          -2.07447       -0.768017        -1.86555
LJ           1.85577         1.38973       -0.809167
LJ           1.66027         1.93867         0.31052
LJ          0.799199       -0.564991        0.662286
LJ          0.101568         2.09746         -1.2044
LJ          -1.59048        -1.30262        -1.01946
LJ         -0.424439        -1.27772         2.51991
LJ           2.10387        -1.36676          1.8079
LJ           2.26143        -1.10565        -1.02021
LJ          0.969485        -1.14934         -2.2995
LJ          -1.01015       -0.329471         1.99657
LJ          0.678459        -1.79875         1.13413
LJ          -1.40454        0.731457         -1.6408
LJ              -nan            -nan            -nan
LJ          0.316347        -2.32166         -1.4964
LJ          -1.11576        0.444636       -0.481188
LJ          -2.56225       -0.278908      -0.0280808
LJ         -0.509581         1.23831       -0.715126
LJ           1.63974       -0.760576        -1.62785
LJ          -2.21969         2.01846        -1.74134
LJ          0.833003        -1.68711        -1.93421
LJ          0.236446        -2.51639          0.2251
LJ           -1.9058         2.02439         -1.2745
LJ           1.15237        -1.89742       -0.927375
LJ              -nan            -nan            -nan
LJ              -nan            -nan            -nan
LJ         -0.728154        -1.29571         2.38307
LJ         -0.496633        -1.89624       -0.916423
LJ              -nan            -nan            -nan
LJ          -2.39754         1.06668        -1.64491
LJ         -0.569014        0.587681        0.716017
LJ          -1.24172          1.5466         1.10811
LJ          -1.76826        -1.06078         2.43506
LJ          -1.88957       -0.818991        0.515919
LJ        -0.0963252         1.82934       -0.512396
LJ          -2.42654        -2.51301         2.54462
LJ          0.440104       -0.384146         -2.0973
LJ          0.645197        -1.57896         0.75797
LJ           2.51008         2.41866         2.50221
LJ          0.915543        0.572193         1.10277
LJ           -1.5856          1.2887         1.79809
LJ          0.314154         2.33635        -2.26442
LJ           1.88289         2.03938        -1.82287
LJ          0.342631         0.70376        -1.14735
LJ           1.19113        0.259501         2.35563
LJ           1.85776         1.68328        0.494969
LJ           -1.6834        0.391922         2.01621
LJ          0.791539          1.0578          1.0773
LJ          0.852043         -1.6258         1.68113
LJ         -0.515474         1.29045       -0.652772
LJ          0.866418       -0.841071        -1.35811
LJ              -nan            -nan            -nan
LJ          -2.53965         0.81893        0.539581
LJ           0.79988      -0.0599941         1.17253
LJ           1.10892        -1.45539       -0.298053
LJ        -0.0915192        -2.55473         1.66281
LJ          0.242719       -0.943323        0.341096
LJ          -1.86465        -1.99802        -2.07681
LJ          0.349359        -2.05347       -0.621583
LJ              -nan            -nan            -nan
LJ          -1.60925         1.23447         2.55441
LJ         -0.242295        0.801064        0.550283
LJ           2.37024        0.653732        -1.37848
LJ          -2.13416          1.8168          -1.117
LJ          0.245171         1.92363        0.484822
LJ              -nan            -nan            -nan
LJ         -0.737364        0.590545        0.642139
LJ          0.631441          2.0695         1.57223
LJ              -nan            -nan            -nan
