108
#Comment!
LJ         -0.547776         1.18344        0.956443
LJ          -1.48922         1.38035        -2.28896
LJ         -0.142966       0.0844448        -0.23476
LJ           1.28923         1.89401        0.611261
LJ          -2.46604         2.12913         2.24026
LJ         -0.679816        0.786662       -0.466489
LJ          0.994313         2.46606         2.48169
LJ         -0.746897        -1.95416       -0.360491
LJ         -0.361675         1.90693       -0.204121
LJ           1.20598         2.16187         1.81583
LJ              -nan            -nan            -nan
LJ          -1.63876         1.91058        0.894494
LJ          -2.19624        0.696768         1.95842
LJ              -nan            -nan            -nan
LJ         -0.397446        -1.23946         2.44744
LJ              -nan            -nan            -nan
LJ              -nan            -nan            -nan
LJ              -nan            -nan            -nan
LJ           2.51645         -1.1593         -0.9763
LJ              -nan            -nan            -nan
LJ          -2.34683         1.00876          1.3898
LJ          -2.22764        0.765257         -1.2813
LJ         -0.481809        -1.51255       -0.537594
LJ           1.69123        -0.53785       0.0989688
LJ           1.38213         1.02266        0.141757
LJ           2.10616        -1.03145        -1.96737
LJ         -0.621767        -2.24056        -1.17946
LJ         -0.908134        -2.31398          1.3242
LJ           2.33158         2.08792         2.04373
LJ        -0.0359214         2.07822        -2.12011
LJ              -nan            -nan            -nan
LJ           1.08679        -2.26414        -1.26431
LJ              -nan            -nan            -nan
LJ           1.00531         0.61899        -1.19648
LJ              -nan            -nan            -nan
LJ          0.633812         0.37176        0.102077
LJ          -2.48693        0.745659         1.53324
LJ           2.35383         2.40856        -1.15285
LJ          0.205311        -2.02305        -1.66617
LJ           1.13954        -2.37172         -1.6156
LJ           -1.1927        0.688191        0.230999
LJ          -1.61567        -2.11737        0.205039
LJ           2.25291         1.62995        0.349707
LJ           1.38179        -0.44763        -0.35241
LJ            2.0063        0.248185        0.719774
LJ           1.99299        -2.28403         1.55136
LJ         0.0265942        0.216661      -0.0810728
LJ          -2.19134         1.11549       -0.409408
LJ           1.45474         1.38884         1.55738
LJ          0.606778         2.16861        0.334033
LJ         -0.472391          1.0322        -2.18267
LJ           1.33095        0.145133       -0.891166
LJ              -nan            -nan            -nan
LJ         -0.286583         1.87059        0.519208
LJ          -1.94405         1.28581        -1.45379
LJ       0.000155332         1.91179         1.16636
LJ         -0.342217         1.15296        -1.99584
LJ          0.717868        -1.02913        -2.19853
LJ         -0.116271        -1.66254       -0.517037
LJ           2.01827          -2.164        -2.17654
LJ          -1.07104          2.0725         2.40342
LJ          -2.03009        -0.46056         2.36514
LJ         -0.460952        -1.74557         0.46418
LJ          -1.28415        -1.75493       0.0673909
LJ              -nan            -nan            -nan
LJ          -1.33493        -1.08694        -2.07323
LJ          0.552053        -1.52915        0.674138
LJ              -nan            -nan            -nan
LJ           1.47588        0.614608        0.283789
LJ          -2.21516       -0.508432         1.12985
LJ          -0.18179       -0.405891        -1.83645
LJ           2.49856       -0.250423         1.45556
LJ           -1.0852       -0.806833         1.67582
LJ        -0.0228236         2.51696          0.7587
LJ           1.51699         2.12074         1.31391
LJ           1.37173         2.45028         2.18243
LJ         -0.570346        -1.11188        -2.20025
LJ         -0.836523         0.68222      -0.0256454
LJ        -0.0923771         2.22816        -0.10091
LJ           1.25825         2.15961        0.264996
LJ           1.13763       -0.128696         1.92113
LJ          0.660319        -1.64225         -1.3441
LJ          -1.26481        -2.28096         1.12337
LJ          0.753313         2.33285        -0.20946
LJ           1.92758       -0.654464         1.46794
LJ           2.11506       -0.777855         1.62683
LJ          -2.55886         1.43093      -0.0595088
LJ          -1.98039        0.295328         1.22167
LJ           2.11264         1.47796         1.49355
LJ          -2.37808      -0.0880479       -0.704586
LJ              -nan            -nan            -nan
LJ           2.28421       -0.787779        -1.88511
LJ        -0.0070143         2.24843         2.02914
LJ         -0.509485       -0.725169       -0.841308
LJ           2.19023        -1.50594        -2.35621
LJ           -1.4111        -2.38781         2.48146
LJ          0.633834        0.928304         1.06236
LJ           2.18366        -2.06039         1.98198
LJ              -nan            -nan            -nan
LJ          0.274482         1.65705        -1.72662
LJ          -1.19357         1.96376        -2.26155
LJ            1.2123        0.611468        -2.27278
LJ          -0.28081        0.440687        -2.20221
LJ          -1.97691       -0.639672       0.0713296
LJ              -nan            -nan            -nan
LJ          -2.52732       -0.476693        -2.21977
LJ          0.625001       -0.536841       -0.949114
LJ              -nan            -nan            -nan
