108
#Comment!
LJ         -0.779525         2.32636        -2.13699
LJ         0.0444822        -1.39705        0.433791
LJ          -1.67779       -0.297482       0.0320448
LJ          -1.45578         1.17313        0.215608
LJ           1.41366         1.44258          1.8204
LJ         -0.818817         2.16922         2.11993
LJ          0.885139        0.287022         1.48841
LJ          -2.49684        -1.95207       -0.584187
LJ         -0.982124          2.5139         1.85076
LJ          -2.27372         1.74479        -1.02843
LJ              -nan            -nan            -nan
LJ           1.19532       -0.227695        -2.08099
LJ           1.52405        -2.40198       -0.153503
LJ              -nan            -nan            -nan
LJ           1.16906         1.75253         2.21624
LJ              -nan            -nan            -nan
LJ              -nan            -nan            -nan
LJ              -nan            -nan            -nan
LJ          0.173817        0.329997         1.91482
LJ              -nan            -nan            -nan
LJ          -2.37411       -0.303068         0.72075
LJ         -0.771789          1.0606         1.92055
LJ           1.60343        0.504897        0.868239
LJ              -nan            -nan            -nan
LJ          -2.44333        0.677043         1.45079
LJ         -0.736229        -2.08106       -0.558582
LJ          0.425877          1.8722        0.562946
LJ           0.76924         2.44082          1.6337
LJ          0.600962        -2.24849       -0.725405
LJ         0.0937098        -0.18422        -1.82893
LJ              -nan            -nan            -nan
LJ           2.25313        -2.11006         1.02741
LJ              -nan            -nan            -nan
LJ           2.00005        0.921401        -1.58163
LJ              -nan            -nan            -nan
LJ           2.00492      -0.0896494        -1.42528
LJ          0.729696         1.50717       -0.874158
LJ           1.46752        -1.39534         1.20584
LJ          0.554301        -1.33802        0.398265
LJ          -1.10848        -2.49472      -0.0997163
LJ          -1.83628         1.37157        0.957877
LJ          -2.49021        0.697506        -2.45861
LJ           1.23343       -0.154807         1.14359
LJ          0.557514         1.48434        -1.37835
LJ           1.82075       -0.407037         1.72209
LJ          -1.74544        0.826346         1.92919
LJ          -2.44781         1.93376         2.29549
LJ          -2.07753        -2.40499        0.240605
LJ          -2.21491         1.79863        0.654115
LJ           0.75394        0.634158         2.26956
LJ          -2.00302        -1.61516        -1.91297
LJ           -2.4736        0.572162        -2.55039
LJ              -nan            -nan            -nan
LJ           2.27885         -2.2366        0.376989
LJ          -2.46913       -0.356358        -1.58407
LJ          -1.35142        0.495664        -1.48565
LJ           1.86064         2.26271        -2.25549
LJ            1.9871        0.313723        0.869812
LJ          -1.42344         1.39557        0.431918
LJ          -2.03591       -0.817248       -0.501721
LJ          -1.27956       0.0120585         2.16257
LJ          -1.55782        -0.03945        -1.55515
LJ            2.3088         2.41139        -1.89584
LJ              -nan            -nan            -nan
LJ              -nan            -nan            -nan
LJ          0.533907       -0.524912        0.180082
LJ           -2.1184         2.12662       -0.948096
LJ              -nan            -nan            -nan
LJ         -0.242727          2.4732         2.45705
LJ          -1.89176         0.59093         1.53308
LJ            1.0863       -0.457443        -1.27464
LJ          -1.57563        0.194528        -1.71964
LJ            1.4011      -0.0207554        0.491442
LJ          -1.45614         1.96388       -0.076808
LJ          -1.75949       -0.576295        -1.99526
LJ         -0.506983         1.38359        -2.46919
LJ           2.18337       -0.812578        -1.04511
LJ           1.66857         2.11972         2.31716
LJ          0.658619        0.838717        0.699291
LJ          -1.59003         2.46028        -1.83532
LJ           1.29942        -1.22343        -1.72156
LJ          0.744656        0.764867          1.9609
LJ          -1.23965        -2.01216        -2.49164
LJ           1.96517       -0.480841       -0.661676
LJ         -0.226413       -0.203773       0.0340104
LJ         -0.753388        0.541196         -2.5639
LJ            1.4161        0.652649        0.972263
LJ            1.1473         2.49361        -1.88334
LJ           1.08657        -1.76854       0.0276122
LJ           1.21284         1.35204         2.56016
LJ              -nan            -nan            -nan
LJ          0.143289        -1.14012        -2.32322
LJ           -1.1647         1.56538        0.330357
LJ           1.95229       0.0786081        -0.34369
LJ         -0.863705         2.09013        0.132791
LJ          0.241673        0.260673        -1.63538
LJ          -2.46012        0.441974        -1.55303
LJ           2.13687        -1.50376        -2.00858
LJ              -nan            -nan            -nan
LJ          0.609609         2.42721         2.08938
LJ           1.20695         2.27779        0.370421
LJ           1.45035         1.13547         1.65843
LJ           1.72548       -0.375097         1.30115
LJ           2.36484       -0.916643        -1.60109
LJ              -nan            -nan            -nan
LJ           1.36991         1.25589        -1.33311
LJ           2.08136        -1.34237         -1.4676
LJ              -nan            -nan            -nan
