108
#Comment!
LJ           1.73016         1.42021       -0.759491
LJ           1.17167         1.84221        -2.53328
LJ         -0.340901         1.00358       -0.725332
LJ          -2.02482         1.62784       -0.203071
LJ          -1.02252      -0.0856078         1.02528
LJ         -0.186462       -0.858656        -1.22687
LJ         -0.504091          -1.167      -0.0655543
LJ           2.15775       -0.963851        0.219268
LJ          0.664621         2.38577        -2.36789
LJ         -0.540195         1.05975          1.4276
LJ              -nan            -nan            -nan
LJ          0.284537         1.54545        -2.33661
LJ          -1.16732         1.23844        -1.83806
LJ              -nan            -nan            -nan
LJ          -1.41114       0.0367589        -1.94303
LJ              -nan            -nan            -nan
LJ              -nan            -nan            -nan
LJ              -nan            -nan            -nan
LJ           1.93468          1.1209         1.28492
LJ              -nan            -nan            -nan
LJ         0.0854271         2.26958         0.69197
LJ          -1.66208         1.11755         1.14442
LJ           2.55745        0.848119           1.698
LJ              -nan            -nan            -nan
LJ          -1.24942         2.48341         2.05404
LJ           -2.5033         2.48149        -2.53885
LJ         -0.580228         2.46275         -1.8143
LJ           2.19732         1.00183        0.160805
LJ         -0.314764        -2.04153       -0.659555
LJ            1.6334        -1.57238        -2.20081
LJ              -nan            -nan            -nan
LJ           1.45651       -0.065516         1.51463
LJ              -nan            -nan            -nan
LJ          0.875731         1.64364          1.0448
LJ              -nan            -nan            -nan
LJ          -1.20912       -0.865932         1.42826
LJ          -1.45813        0.596637         1.89476
LJ           1.40568         1.62857        0.616947
LJ           1.22023       0.0225989         1.32315
LJ         0.0336421       -0.251055         1.48778
LJ          -1.99714         1.64782        0.452563
LJ          -2.52181         2.04594        -2.37188
LJ          -2.32682        -0.72119         -1.9284
LJ          0.155114        0.601375         2.54833
LJ          -2.28899        0.203771        -1.27983
LJ         -0.974108        0.988546        -2.52814
LJ          -1.10557        -1.05695        0.550011
LJ          0.195771        -1.71386         1.25745
LJ          0.865245       -0.592792        -2.31773
LJ         -0.713022        -1.82045         -1.6092
LJ           1.42712       -0.282144        -1.20623
LJ          -1.25297       -0.614086         1.08982
LJ              -nan            -nan            -nan
LJ         -0.513505       -0.111242         0.18221
LJ           1.81521         1.88118       -0.291534
LJ            -1.211         1.82938       0.0681761
LJ         -0.916084       -0.246507        0.709588
LJ          0.183793        -1.25978        0.166378
LJ           2.10937      -0.0440977        -1.76758
LJ           -2.1185        -0.22649        -1.62711
LJ           0.87198         2.27091        0.928998
LJ            1.7563        -0.42171        0.212938
LJ          -2.04616       -0.117692         1.75527
LJ              -nan            -nan            -nan
LJ              -nan            -nan            -nan
LJ         -0.715167        0.800684        -1.59353
LJ          -1.46198        -2.41409        -2.30931
LJ              -nan            -nan            -nan
LJ          0.825726      -0.0323029       -0.319831
LJ         -0.128203        0.885727         2.09824
LJ         -0.837754         2.27695        -1.25652
LJ           -2.1964        -1.74677         1.76009
LJ         0.0536952        0.128827       -0.660068
LJ          0.956999       -0.919595        -1.24175
LJ           1.29293       -0.669493         -1.6274
LJ          -1.86405        -1.44207           1.605
LJ          -1.15736        0.327708        -1.41482
LJ         -0.925027        0.873535        0.210208
LJ          -2.20063         -1.2622        -2.09655
LJ          -1.17718       -0.205924       -0.502648
LJ           1.64545          1.3388       -0.640771
LJ           2.01703        0.218387         1.80962
LJ           1.76883        -2.47708         1.65478
LJ          -1.47782       -0.749665         2.51598
LJ          -2.29832        0.930722        -1.26892
LJ           0.90267       -0.499416         1.78579
LJ          0.525379        -1.58775        -1.48045
LJ         -0.200355        -1.95093        -1.07073
LJ           1.18167         1.93389        -1.05436
LJ           2.27189         2.14621         1.12597
LJ              -nan            -nan            -nan
LJ         -0.204328        0.298768        -1.91946
LJ         -0.393002        0.211695         1.95208
LJ           2.31693        0.545097        0.631159
LJ          -2.49452          1.5595        -2.49159
LJ          -1.48696        -1.33086       -0.683787
LJ            1.7285         1.78956       -0.824286
LJ          -2.47859         2.03711         1.16956
LJ              -nan            -nan            -nan
LJ          0.366774        -1.59591        -1.81862
LJ           1.53889       -0.448787        -1.22091
LJ           1.22385         0.70601        -1.75036
LJ          -1.75425         2.13627       -0.729593
LJ           -1.5937        -1.37521        -1.20393
LJ              -nan            -nan            -nan
LJ           1.70566        -2.27915         1.98175
LJ          -1.15335         2.30397        -1.29552
LJ              -nan            -nan            -nan
