108
#Comment!
LJ          -2.05773        0.604419        0.339915
LJ          -1.28656        -0.60825        0.937572
LJ          -2.26859       -0.438116       0.0344878
LJ           2.38362       -0.405621       -0.215522
LJ          -2.05193         1.79327        0.686044
LJ           1.66715        -1.72861        0.602314
LJ           1.85512         2.47336       -0.589457
LJ         -0.591891        0.492665        -1.25672
LJ          -2.54936        -1.53393        -0.82492
LJ            -1.385        0.505185        0.456073
LJ              -nan            -nan            -nan
LJ            -1.713         2.55855          1.9024
LJ         -0.508318        0.377375         2.23816
LJ          0.683433         1.65468        0.872859
LJ          0.301912      -0.0397712          -1.271
LJ           1.18611        -1.02031       -0.490884
LJ              -nan            -nan            -nan
LJ              -nan            -nan            -nan
LJ          -2.00644         2.26504         1.36735
LJ              -nan            -nan            -nan
LJ         -0.595198        -1.03372       -0.545036
LJ          0.703361         2.31023         1.03516
LJ           1.79539         -1.5501         2.47899
LJ          -2.27972        -1.71192        -1.17763
LJ          -1.96478        -2.35847         0.26727
LJ         -0.870912       -0.485666         1.57504
LJ           1.63041        -1.17186        -1.82648
LJ          -0.42937         2.38465       -0.268717
LJ          0.564451        0.308006        -2.42392
LJ          0.350878       -0.396877         1.12331
LJ          0.352582      -0.0289703        -2.44388
LJ          -1.41278        -1.57555       -0.884239
LJ              -nan            -nan            -nan
LJ         -0.110702         2.09402          0.5006
LJ              -nan            -nan            -nan
LJ           1.21991         1.64666     -0.00834748
LJ         -0.149474       -0.160332       -0.395733
LJ          -2.45341       -0.520778         1.31631
LJ           1.43992        -1.09587        -1.29333
LJ          0.844725       -0.991553         -2.4737
LJ           1.72701        -1.75932       -0.227787
LJ          -2.38425        -1.57506         1.95557
LJ           2.12657        -1.47643       -0.992869
LJ          -2.03997         2.44347        0.177035
LJ           0.83583        -2.20874         1.38316
LJ           1.79754        -0.11457        0.435944
LJ          -2.03278         2.46741        -2.30505
LJ          0.719961        0.376488        -2.54384
LJ          -1.02902        -1.25761         2.19865
LJ          -2.30261        -1.69886       -0.173273
LJ           1.68724        -1.18429        -1.24899
LJ          0.916045        -1.77626        -1.75106
LJ              -nan            -nan            -nan
LJ          -2.22385         1.34968        -1.96194
LJ         -0.422559        -1.16731        0.205065
LJ          -1.63231        -1.97611         1.38165
LJ          -2.07924         2.01108        -1.17703
LJ         -0.480664         2.09264        -0.84895
LJ           1.18819        0.204939        -2.03282
LJ          -1.43294       -0.227835       -0.253822
LJ           2.51249       0.0294662        -1.04698
LJ          -1.36503         1.01711        -1.17673
LJ          0.803857        -2.36565       -0.201582
LJ          0.482475       0.0285875         1.62712
LJ          -1.95812         1.77363         2.55059
LJ        -0.0478145    -0.000449945         1.73015
LJ           2.19141      -0.0776951         1.80197
LJ              -nan            -nan            -nan
LJ          -2.27149        -1.57785         1.40157
LJ           2.56321        -1.38727        -1.66755
LJ       0.000680799       -0.640928        -1.79651
LJ           1.38784       -0.272261         0.32184
LJ           1.46694       -0.290742        0.628827
LJ          0.880221         2.50789        -1.37893
LJ           -0.7467       0.0717706        -1.93833
LJ          -1.35343       -0.544682       -0.271374
LJ           2.10719        -0.11691       -0.433872
LJ           1.02838        0.556178         1.44647
LJ          -1.95723         1.45961         -0.8202
LJ          -0.22746       -0.889895       -0.123934
LJ           0.10123         1.64477        0.097345
LJ           1.51183       -0.781322          1.6352
LJ          -2.16351         1.66219        -2.01772
LJ           0.53866        0.764108       -0.991235
LJ           1.08342       -0.828467        -1.62365
LJ           1.52096       -0.310907         2.14632
LJ          -2.38263        0.484795        -2.38899
LJ          -2.39529       -0.875276        0.633306
LJ          0.118506         1.13267       -0.535934
LJ          -1.95874         1.97205        -1.60798
LJ              -nan            -nan            -nan
LJ          -2.20308         -1.6622       -0.746051
LJ          -2.19143         2.52486         -1.8237
LJ         -0.594864         2.38733        0.596951
LJ          -2.19314        -2.36391        -1.80347
LJ          -2.38578         2.27683         2.25592
LJ          0.315486        -2.03148         1.02288
LJ          0.724225          1.0639        0.670267
LJ           2.22086        0.180111        -1.10172
LJ          0.723938        -1.50154       -0.460399
LJ          -1.22329       -0.599806         1.25512
LJ           1.07963        -1.14914         2.36711
LJ         -0.535173          2.1525         2.08453
LJ           1.59016      -0.0442223         2.00292
LJ          0.771661        -2.20695        -2.51806
LJ          -1.04091         1.59311       -0.137059
LJ            1.3357        -1.52991         1.62804
LJ              -nan            -nan            -nan
