108
#Comment!
LJ         -0.928698        -1.47815         2.17075
LJ          0.438079         1.59421         0.20255
LJ           2.51475       -0.105509       -0.819049
LJ          0.351473        0.780005         1.00765
LJ          0.118432         1.82865         2.03501
LJ          0.751169         1.57107        0.659557
LJ         0.0514826       -0.551364         1.56461
LJ          -2.32603         0.95661         1.15703
LJ           1.97576         1.95537         0.64736
LJ           1.77593       -0.986526       -0.469454
LJ              -nan            -nan            -nan
LJ          0.916706         -1.2811         -1.6959
LJ           1.07624      -0.0795196         2.17994
LJ              -nan            -nan            -nan
LJ          -1.42085       0.0511597         -1.1015
LJ              -nan            -nan            -nan
LJ              -nan            -nan            -nan
LJ              -nan            -nan            -nan
LJ          -1.77899        -2.27502        -1.28694
LJ              -nan            -nan            -nan
LJ          -1.65739        -1.39719       -0.927767
LJ           1.53018         2.14719        -2.32349
LJ          -2.44701         1.20003        -1.76799
LJ              -nan            -nan            -nan
LJ           1.06017        0.467846         1.76934
LJ            2.2839        -1.77423       -0.885943
LJ          -2.38501          1.8544        -1.23035
LJ           1.40632      -0.0925206        0.655548
LJ          -2.05524        0.145932         2.55409
LJ          -1.28692         2.33047       -0.576135
LJ              -nan            -nan            -nan
LJ          -1.14242       0.0363079        0.289488
LJ              -nan            -nan            -nan
LJ          0.467868       -0.405167        -1.08562
LJ              -nan            -nan            -nan
LJ          0.119859        -2.29378        0.217984
LJ         -0.128511         -1.6563        -1.72238
LJ          -1.12779       -0.121713        0.711044
LJ          -1.13717        -1.61751        0.316363
LJ          -0.14787        -1.08425           1.564
LJ          0.289492       -0.526004       -0.163076
LJ         -0.380075       -0.455317        -1.77057
LJ          0.485575         2.26557        0.276723
LJ          -2.21063       -0.397269         2.11611
LJ          -1.09222         2.35378        0.689749
LJ          0.863405       -0.963259       -0.839365
LJ         -0.732248          2.1092         1.64641
LJ          -2.41986        -1.81135      -0.0190257
LJ          0.878342        -2.47841        -0.29633
LJ          0.945824         2.45178        -1.58191
LJ          -1.85847        -1.72143          2.1306
LJ          0.263105          2.4188         0.79112
LJ              -nan            -nan            -nan
LJ         -0.655124        0.165097        -2.54045
LJ           1.76968        0.725609         2.32138
LJ           -2.4114         1.62139       -0.652905
LJ           2.51847        -1.73154         2.54759
LJ          0.138821       -0.675324        -1.59294
LJ          -2.40084        0.679532       -0.275633
LJ         -0.791421       -0.931494        0.513528
LJ          -1.48128         0.91552        -1.25781
LJ         -0.269423         1.11471         2.49458
LJ          -0.25709         1.68926        -1.93524
LJ              -nan            -nan            -nan
LJ              -nan            -nan            -nan
LJ          -1.09965       -0.292584       -0.579024
LJ           2.32105         1.66327         -1.7916
LJ              -nan            -nan            -nan
LJ         -0.467986        0.939014        0.158149
LJ         -0.853132          1.3197       -0.944155
LJ           1.42845         1.84918         1.48102
LJ          -2.36538       -0.982173        -1.54108
LJ          0.807973         2.02817        0.547657
LJ           2.07528       -0.270891        -1.53164
LJ           2.09678         2.05179        0.139972
LJ          -1.11249         -2.3837        0.534821
LJ           1.06156         1.64721         -1.9278
LJ           2.26166        0.875466        0.739598
LJ          -2.51956       -0.565939       -0.865316
LJ           1.56377        0.837989        -1.82549
LJ           1.84682         -2.2437        -1.74052
LJ           1.61815        0.286897         1.30401
LJ         -0.743035       -0.234798       -0.402273
LJ          -1.64005        -1.12394        -2.06186
LJ          -1.26131        -1.29776        0.476129
LJ          -1.42115         1.61362         2.55304
LJ          -1.78217         -1.2264        0.980606
LJ           0.50963         1.03494        0.664975
LJ          0.943008         2.18983         2.37642
LJ          0.417794         1.00356        -1.14738
LJ              -nan            -nan            -nan
LJ           1.86808       -0.863473        0.788842
LJ          0.971616        -0.77087        0.351377
LJ         -0.851745         -1.3622        0.676624
LJ         -0.622522         1.72554       -0.862904
LJ          0.553357         1.52495         0.69019
LJ          0.925835         1.52936         1.89646
LJ          0.355646       -0.594936        0.939208
LJ              -nan            -nan            -nan
LJ           2.41949       -0.347463         1.08264
LJ          0.112487         2.40044        0.616713
LJ           0.15147        -1.57022        -2.33112
LJ         -0.334665        0.424647        -1.26593
LJ          0.348234        -1.49342        -1.61562
LJ              -nan            -nan            -nan
LJ          -1.84271        -1.11887       -0.342202
LJ          -1.37189          -1.665       -0.920548
LJ              -nan            -nan            -nan
