108
#Comment!
LJ           1.95009      -0.0527136        -2.44209
LJ          -1.20351         -2.3683       -0.504569
LJ          -2.54844       -0.870393         1.42152
LJ          0.752501         -2.3774         2.11763
LJ           2.52153        0.756533         1.90006
LJ           -1.4646       -0.591366        0.794736
LJ          -1.94347       -0.837354         2.38722
LJ          -2.56191          2.2095          1.1669
LJ            1.0819       -0.659367       -0.247044
LJ           2.15357       -0.694599        -2.44015
LJ              -nan            -nan            -nan
LJ           1.55494         1.07383         1.84455
LJ          -1.27011         1.86101        -1.93136
LJ          -2.10858        -0.37746        -2.08837
LJ          -1.79789        -2.40528        0.989879
LJ          -0.86753        -1.67319        -1.03202
LJ          -1.73792        -1.58165         2.09773
LJ          -1.80958       -0.932689        -2.38439
LJ          0.794812        -2.21542       -0.618259
LJ           1.20095        -1.86149       -0.985561
LJ         -0.706206         1.29797        0.747949
LJ          -2.21634       -0.394904       0.0561084
LJ          -1.43215         1.33456        -1.62738
LJ           2.30142        -1.07222        0.855354
LJ          0.282662        0.917869        -1.54515
LJ           1.18182        -1.26327         2.10025
LJ          -2.18816         1.39417       -0.296874
LJ          -2.06102        0.752501      0.00458213
LJ         -0.856765         1.37297       -0.287853
LJ           1.54345        -1.75098        -1.05849
LJ          0.828093        0.255077         1.02722
LJ           2.45177         0.97869        0.846743
LJ              -nan            -nan            -nan
LJ          -1.55515           1.646         1.43872
LJ              -nan            -nan            -nan
LJ          -2.49102          -1.862        -0.33687
LJ          0.369584         2.19292         1.12433
LJ          0.303514        -1.84951        -2.53118
LJ          0.945787        -1.35393        -2.21174
LJ         -0.370088        -2.35644      -0.0740396
LJ           2.24822         1.53981        0.527147
LJ          0.560158         1.49372         1.93054
LJ          0.268023        -2.18969       0.0423922
LJ         -0.851471           1.874         2.13106
LJ          -1.30598         1.75846        0.820688
LJ         -0.436662          1.1324        0.759994
LJ           1.06591       -0.970151         -0.2476
LJ            2.4968       -0.321988        -1.94546
LJ        -0.0167548         1.14709        -1.24231
LJ           2.30829          1.4767         0.84753
LJ          0.670297       -0.105252        -2.13675
LJ          -1.96079         1.86668        0.851315
LJ           2.33121        -1.40368         2.37425
LJ           1.42438        0.884023       -0.901411
LJ          -1.91475        0.659848       -0.981647
LJ          0.411127         -1.2108        -1.88997
LJ         -0.598283         2.08612       -0.121322
LJ           1.95742          1.9506         1.40396
LJ          -1.80494        0.385169        -2.16948
LJ         -0.589469        0.112835         1.71919
LJ          0.710038        0.215435        -1.45421
LJ          -0.66953       0.0498805        -2.14925
LJ         -0.504549        0.789522         0.81737
LJ          -1.39436        0.267008        -1.19024
LJ          -1.15353        0.347872        0.771803
LJ          0.342215        0.553945        -1.87746
LJ          -2.32806         2.30233          2.2489
LJ              -nan            -nan            -nan
LJ           2.22299        -1.78987        -2.12544
LJ          0.189781         2.06171          1.5197
LJ           1.14515       -0.223548       -0.908974
LJ           1.85436         -1.7558        -1.14572
LJ          -1.37777        0.373375         2.27525
LJ           1.61484         1.95779         2.31702
LJ           1.79206        0.944684        -1.21523
LJ         -0.910417       -0.441125        -1.79127
LJ         -0.954831         1.12413       -0.547297
LJ           0.44701          1.8228        -2.03789
LJ           2.39017        -1.53048        -1.78675
LJ          0.533231         1.62764         1.79159
LJ           0.76239      -0.0708138         -1.9237
LJ          0.911497        -1.26721       -0.745036
LJ         -0.739829          1.6454       -0.280454
LJ          0.167709       -0.517487        -2.19794
LJ           1.26296        -2.22895        -1.58052
LJ         -0.925226        -2.56418        0.908139
LJ          -1.67308       0.0743127         2.30411
LJ         -0.830781          2.5024          1.8334
LJ          -1.97028        0.866647         2.21826
LJ          0.866373        -1.15177        -2.32715
LJ           1.78614        0.229859         1.26562
LJ         -0.700109        -1.77936        -1.55486
LJ          -1.29339         2.10761         1.58061
LJ          0.599555       -0.846001         1.95626
LJ          0.285036        -1.66214         2.32159
LJ          -1.55804        -1.38151       -0.122633
LJ          0.647924         1.87023         2.04658
LJ          -2.28711        -1.16492        -2.42611
LJ         -0.253891        -1.33821         1.25143
LJ          -1.20276        0.349115        -2.24249
LJ          0.929418         1.76865        -1.05758
LJ          -2.06058        0.959304        -0.14272
LJ           1.50118       -0.431314        0.551128
LJ          -2.28848         1.89997         1.71877
LJ          -1.23863        -2.29445        -1.76228
LJ           1.00342       -0.982293         2.02187
LJ         -0.506509         1.65163        -1.61827
LJ          -0.41454        -2.07065         1.89127
