108
#Comment!
LJ          0.615565        0.317484         1.24771
LJ        -0.0915941        0.250591      -0.0381767
LJ          -0.38067         2.41241         2.52157
LJ           1.30623       -0.120197         1.05411
LJ          -2.35545        -2.45798         1.92166
LJ          0.180358        -2.35586        -2.09285
LJ         -0.256168        -1.33887         1.02106
LJ         -0.212461         2.52628        -1.25523
LJ          0.553674         2.00407        -1.46888
LJ           2.21836        0.497477         1.02158
LJ              -nan            -nan            -nan
LJ          0.539511       -0.847706        -1.55799
LJ         -0.884877          1.5426         1.15553
LJ           -1.1307        -1.10915        -1.56876
LJ         -0.657231       0.0556334         1.70506
LJ          0.909265       -0.575198          1.1224
LJ              -nan            -nan            -nan
LJ              -nan            -nan            -nan
LJ           2.30428       -0.300404         2.39733
LJ              -nan            -nan            -nan
LJ          -1.99431       0.0544976        -1.29503
LJ          0.428325        0.168154        -2.56301
LJ          -2.11415        -1.62372        0.470189
LJ          0.883536        -1.04674        -1.58127
LJ          0.382077         2.36328         1.55633
LJ           1.66237         2.19041        -0.21941
LJ         -0.874118        0.477413        -1.49853
LJ          0.459708      -0.0396162       0.0540808
LJ           1.63452        -2.52373        -1.08564
LJ           2.39535        0.523488        -2.44338
LJ         -0.151183        -1.57188       -0.672275
LJ            2.1474       -0.574449       -0.350992
LJ              -nan            -nan            -nan
LJ          -1.28148       -0.375571       -0.632792
LJ              -nan            -nan            -nan
LJ           1.46072         1.44264       -0.553009
LJ           1.39023       -0.357603        -0.12169
LJ           -1.9497       -0.436968        -1.47642
LJ           2.41885        -1.91896         2.53938
LJ          -1.82617        -1.34027      -0.0090014
LJ          0.447102         0.74237         1.80222
LJ           -1.5282         2.54515        -1.09544
LJ          -1.53705        -2.55654      -0.0717176
LJ         -0.582305        -2.06567         1.99919
LJ          -2.33556        -1.01109         1.51573
LJ           -1.4239         2.20366        -1.61459
LJ           1.20809         2.06236        0.306833
LJ          -1.53532       -0.843511        -1.29537
LJ           1.15989       -0.160979       -0.413503
LJ           1.92412        -0.14467         2.09855
LJ           1.39528         1.35497        -1.94402
LJ          -1.37985       -0.839463        -2.04143
LJ              -nan            -nan            -nan
LJ          -1.08562       -0.629198         2.24661
LJ           2.17296        0.274288        -2.01378
LJ          -2.10498        -2.54641        -2.31793
LJ           1.90988        -2.56142         2.27415
LJ          -2.03713        -2.30549         1.04607
LJ          -1.33304        -2.35756        0.415288
LJ        -0.0429312        -1.94128         1.95746
LJ          0.612652        -1.60917        -2.55159
LJ          -2.41688        0.692279        0.294039
LJ          -1.60054       -0.613178        0.947142
LJ          -0.45292       -0.207426         -1.0455
LJ           1.01352       -0.307164        -1.84604
LJ         -0.534835         2.23889        0.173678
LJ           -1.0745         2.15479         2.03242
LJ              -nan            -nan            -nan
LJ           1.79383         1.30347       -0.969841
LJ          -2.07848        -1.84992        0.898997
LJ          0.282069        0.451403        -1.73591
LJ          -2.35724         2.38788        0.629514
LJ         -0.350468        -1.85173        0.410285
LJ        -0.0277809         -2.2895        -1.04014
LJ          -1.76821       -0.193541         2.54202
LJ         -0.540083        0.270312        0.690176
LJ           2.26233        -1.53581         1.25053
LJ         -0.987842          2.2232         1.27121
LJ          -1.87822        -1.64945        0.331949
LJ          -1.62949        -2.43001         1.41556
LJ           0.10719       -0.415644         1.21063
LJ          -2.08502         2.41629        0.889962
LJ          0.722265        -2.25828       -0.984292
LJ           2.04575         2.02284         2.26776
LJ           1.00054         -2.2115         1.43482
LJ         -0.119172         2.56344        -1.95578
LJ          -1.04588        0.399319       -0.395418
LJ           2.54421        0.772019        0.708997
LJ           1.68105         1.47024       -0.699003
LJ          -1.76358        -2.25243         1.95015
LJ              -nan            -nan            -nan
LJ         -0.128353        0.562597         -1.2687
LJ           2.14654        -2.47198        -0.60281
LJ          0.284945         2.11346      -0.0367925
LJ           1.46198       0.0292975          2.4864
LJ          0.992077        -2.18114         2.24401
LJ          -1.79648        -1.62057        -2.21895
LJ          -1.96049        -2.00677        0.404513
LJ          0.790166        0.100827       -0.976024
LJ          0.167548       -0.453484       -0.359186
LJ         -0.713434         1.99434      -0.0218856
LJ         -0.830254        -2.33657        -2.37061
LJ           1.63659         2.35312        -1.02014
LJ           2.33907        -2.19774       -0.796146
LJ           1.05974        -1.91176         -1.3894
LJ           1.23268         2.44655         2.30543
LJ          0.919045       -0.195174        -2.10798
LJ              -nan            -nan            -nan
