108
#Comment!
LJ          -0.75122         1.11671       -0.943474
LJ           -1.3921       -0.555893         -2.4224
LJ           1.48786         1.73184        -2.24667
LJ          0.939478       -0.432413        -1.48098
LJ           1.95518        -2.02882        -1.88184
LJ          -1.76458        -1.90658         2.49451
LJ          0.450679       -0.951709         2.17887
LJ           -2.1335        -2.07065        -1.04052
LJ          -0.23523         -2.3275        -1.09983
LJ           0.60287       -0.821005       -0.786646
LJ              -nan            -nan            -nan
LJ          -1.18143        -2.02429       -0.897722
LJ           2.04623       -0.066893         1.51123
LJ          -1.46051       -0.236654         2.46849
LJ          0.285122       -0.658786         1.42724
LJ           1.91297        -2.38725        -2.19634
LJ           1.44305        0.589477         1.19974
LJ          0.883424         0.89187        0.955446
LJ           1.29035         1.75181        -1.39395
LJ          -1.21727         1.79731          1.3871
LJ          -0.59953        0.918751        0.625524
LJ           1.48671       -0.954141        0.364832
LJ           1.13112         2.09526        -1.09393
LJ           -1.5489        0.294005         -2.4092
LJ         -0.500579        -2.48455        0.276429
LJ           2.39606       -0.102384       -0.204887
LJ           1.37939       -0.115269        0.354503
LJ         -0.583375        0.964944       -0.272304
LJ         -0.946453        -2.15358         2.43493
LJ         -0.425105       -0.299937        -1.78644
LJ          -1.07532         2.14606       0.0419058
LJ         -0.433032        -1.31209       -0.741931
LJ              -nan            -nan            -nan
LJ           1.93825         1.54408          0.6196
LJ          0.996421        -1.81139        0.897607
LJ          0.784855       -0.150694         1.96488
LJ           1.58507         1.19457         1.46358
LJ           1.52985        -2.26868        -1.75267
LJ         -0.596402        -1.84858         0.31571
LJ          -2.48298        -1.82675        0.414255
LJ          0.343223      -0.0865533        -1.10113
LJ          0.302887         1.03277        -2.06119
LJ          -1.63981        -1.34626       -0.222257
LJ           2.04126        -2.46053       -0.717956
LJ          -2.44089         1.83362        0.366611
LJ           2.39739         2.09663        -1.25843
LJ          -1.39431         1.13227       -0.182734
LJ         -0.636268        0.974081        -2.49614
LJ           1.87712        -2.52557         1.87243
LJ         -0.679967        0.608047        -0.22983
LJ             -1.43        -2.09233         0.24332
LJ          -1.80401        -1.11354        0.349437
LJ         -0.015267        -2.42198        -1.07024
LJ          0.953857        0.273119        -2.43551
LJ           1.12374        -1.38774       -0.583551
LJ           1.62028       -0.437793       -0.847716
LJ           2.25245         1.10255        -2.37581
LJ          -1.12524        0.408297        0.826383
LJ         -0.706724        0.614982        -1.52905
LJ          -1.11684         1.98618        -1.50391
LJ         -0.125562        -1.30858         1.82653
LJ          -2.22711       -0.674517         1.09378
LJ          -1.56389       -0.953782        -1.77935
LJ             1.748        -1.07095        -1.73661
LJ           1.18279         2.44989        -1.36634
LJ           1.72544        -1.27369         2.07448
LJ           1.73529        -2.27029        -1.29225
LJ          0.533149           -0.29       -0.391553
LJ           1.81032       -0.609147       -0.990927
LJ          -1.89953         1.36231        -2.16268
LJ            -1.931       -0.419452        -1.39522
LJ          0.906128         2.38967         -1.8763
LJ          -2.52855         1.77904       0.0612708
LJ         0.0882215        -1.91177         1.80038
LJ           2.26173        0.237872        -2.51802
LJ           1.07648        -1.13457        -1.16252
LJ           2.26432         1.77774        -2.36552
LJ          0.432906         2.11228         2.42677
LJ            1.3858        0.582045        -2.24206
LJ          -1.10034        0.442064        -1.27393
LJ          -1.91094         1.43315         0.17696
LJ          -1.47532         2.19082       -0.780108
LJ          -1.51181        -2.27911        -2.31022
LJ          -2.45514        -2.39204        0.695972
LJ           2.19248         1.44266        -2.38525
LJ         -0.733352       -0.357587         1.32056
LJ          0.296984        0.310462        -1.05543
LJ          0.833506         2.10827        -2.12449
LJ           1.93297         1.36837        -1.76829
LJ         -0.151649       -0.871684         1.16555
LJ           1.17235         2.29701        0.393773
LJ          -1.47281       -0.628927         1.81749
LJ         -0.633177         0.89184        -1.92355
LJ          -1.52277       -0.611373        -2.25234
LJ           2.12325        -1.69762       0.0337364
LJ          0.278848      -0.0861078        -1.78288
LJ          0.799999        -1.82331          1.6505
LJ          -1.74241         1.68936        -2.20985
LJ         -0.812018         2.00101         2.11269
LJ           2.30738       -0.455621        0.470009
LJ         -0.729374      -0.0421791         1.28418
LJ          -2.29661       -0.203131       -0.563666
LJ          0.632123         1.99129        0.665297
LJ           1.80992       -0.160968       -0.456731
LJ           2.37597        0.714926        0.890644
LJ           2.39778        0.877375       -0.328806
LJ           2.14197       -0.463822        -1.51353
LJ           2.36565     -0.00645764        0.219008
