108
#Comment!
LJ           1.69738         1.36374       -0.649506
LJ         -0.171665        0.161196       0.0869584
LJ          -1.77859         1.24726       0.0156877
LJ         -0.884342        -1.95451        -1.38874
LJ          -0.02606        -1.82263         2.12898
LJ          0.831055         2.40935         1.22245
LJ         -0.199873         2.40921         2.14055
LJ          -2.29343        -1.66916         2.13976
LJ          -2.32011      0.00937542        -1.86384
LJ          -1.70223         1.90343         1.39246
LJ              -nan            -nan            -nan
LJ          -1.48669       -0.323203         1.98519
LJ         -0.437582        0.129025         1.43823
LJ         -0.717686        0.440573        -2.31742
LJ          0.317092       -0.539342         -2.3793
LJ          -1.13223       0.0631387       -0.330133
LJ          -1.23558       0.0322251         2.34765
LJ           1.76654        0.932739        -2.48068
LJ          0.814753       -0.277028        -2.50714
LJ          0.619024       0.0875364        -1.81382
LJ          -2.46842         2.26055        0.131564
LJ          -1.09655         1.49634         1.65501
LJ         -0.218681         1.15334        -1.50209
LJ           1.76109         2.34441       -0.169214
LJ           1.78474        0.984052         1.44179
LJ         0.0116615        -1.31981       -0.518505
LJ          -1.09532        -2.23149        -1.60509
LJ           1.20259         1.15553       0.0241262
LJ            2.3106         1.84744        0.592908
LJ          -1.06793         2.36939         2.56449
LJ       -0.00723346        -1.19295       -0.776044
LJ           2.14642        0.877482       -0.968202
LJ              -nan            -nan            -nan
LJ           2.22824        0.328865         1.53706
LJ          -1.78988       -0.971503       -0.797467
LJ          0.900961        -1.06851         2.40585
LJ          -1.25759       -0.183367         1.23852
LJ          0.623031         1.59639       -0.737397
LJ           1.93109        -1.69812       -0.869654
LJ         -0.254812        -2.06676         2.07329
LJ          -2.23738         1.05318        -2.40165
LJ          -1.34842        0.913162         1.33719
LJ          0.710154         1.36562         1.53631
LJ           1.60368        0.181253       -0.494272
LJ          -1.55447       -0.219421       -0.432371
LJ         -0.251798         1.96623        -1.53455
LJ          -1.01012         1.08317         2.54186
LJ           1.81997       -0.784984       -0.549634
LJ           2.12119          1.0755        -2.43054
LJ           1.68093        0.015062          0.0695
LJ          -1.81539        -1.97188         1.40549
LJ          -2.35394       -0.838832       -0.719263
LJ          -2.19678         2.09485       -0.741173
LJ          0.559525       -0.517182         1.28804
LJ          -1.06253        -1.07552       -0.684701
LJ          -0.55773         -1.2791        0.103608
LJ          -1.58808         1.53337         2.29691
LJ           1.02701       -0.127219        0.942145
LJ           0.48342       -0.939772         2.08927
LJ         -0.740632        0.589887        -1.52164
LJ          -1.02718        -1.56821        -1.45059
LJ           2.13633       -0.284868         2.33829
LJ          -1.58309       -0.609145         2.43916
LJ           1.08188         1.28273         1.76184
LJ          -2.49365      -0.0464517         2.47345
LJ          0.673679        -1.70301       -0.653347
LJ          0.275754       -0.825757        -1.97918
LJ          -1.30942        -2.16791        0.771548
LJ           1.97051         1.23962         2.24546
LJ          -1.17782         2.20446         1.03246
LJ          -1.42522         2.13775        0.670157
LJ           0.76119         2.45455        -1.53117
LJ           2.05662        0.201851        0.089118
LJ          -1.92137         1.13477        0.374203
LJ          -1.03165       -0.821596         1.60513
LJ          -1.37616        -2.03711        -2.44973
LJ          -1.11102         -2.4256        0.504396
LJ          0.807124        0.505598        -1.37577
LJ           -2.3273         0.38571       -0.202588
LJ          -1.88055       -0.184364         1.96787
LJ          -2.24676        -1.37307         1.11598
LJ         -0.775574       -0.672509        0.866095
LJ         -0.323562        0.895593       -0.995715
LJ          -1.54599        -2.39626        0.919243
LJ          0.752195        -1.15338         1.18492
LJ           2.14542         1.67979        -1.89949
LJ           1.12868           2.317       -0.688084
LJ           1.52167        -2.19805       -0.167547
LJ           0.88143       0.0553678        -2.40163
LJ          -2.31598        -1.05785        -2.54484
LJ          -1.17607         1.50905         -1.6038
LJ           2.37858         1.92889       -0.137871
LJ            1.9526        0.587427       -0.662867
LJ           2.34431        -1.00778        -2.28315
LJ         -0.858653        0.721187        -1.68409
LJ           1.06898         1.26254        0.134907
LJ          -2.40809        -1.10112        -2.22091
LJ         -0.142352        -2.22289        0.928235
LJ          -1.42958       -0.453931       -0.375877
LJ         -0.498892        -1.89344        0.767972
LJ             -1.91        -1.48609        -1.52977
LJ           1.40921            -2.2       -0.627536
LJ          -2.37054          1.5846        -2.10594
LJ            0.4468        -2.39844        -2.19076
LJ          -2.33639        -1.90204        -1.02394
LJ          -0.74976         -2.2541        -2.32886
LJ          0.961415       -0.512498         1.33578
LJ         -0.343517         1.14017        0.509732
