108
#Comment!
LJ            1.6768       -0.820067        -1.72495
LJ           0.38296       -0.598525       -0.204268
LJ          -1.74726         1.99849         2.43261
LJ          -1.71341        -1.17204       -0.926568
LJ         -0.967927        -1.74523        -2.36939
LJ         -0.682344         1.71542        0.978099
LJ           1.38001         1.30708         0.43948
LJ           1.54402        -1.37654         1.04095
LJ         -0.738667        -1.94769        -1.62737
LJ            1.7184         1.41978        -2.02118
LJ              -nan            -nan            -nan
LJ           2.22316        -1.03622       -0.851376
LJ         -0.768825        0.534173        -2.53027
LJ          -1.25863         2.44226        0.277246
LJ         -0.131814       -0.305436       -0.372943
LJ              -nan            -nan            -nan
LJ              -nan            -nan            -nan
LJ              -nan            -nan            -nan
LJ           1.55369       -0.757475         1.96765
LJ              -nan            -nan            -nan
LJ           1.20669        0.305732        -1.85989
LJ          -1.10552         1.99691        -2.35737
LJ          -1.86209         2.49405         -2.0804
LJ         -0.394576        -1.67947         1.30372
LJ          -2.21043       -0.343068        -1.91258
LJ        -0.0914936          1.7421         2.11452
LJ          -1.08394        0.496942        -2.06748
LJ          0.166266        0.740793        -1.11868
LJ          -2.53844         2.05692        -2.00979
LJ           2.42846        -1.71811        -1.50633
LJ           1.92546         1.27749        -1.68324
LJ           -1.9778        0.807332       -0.591963
LJ              -nan            -nan            -nan
LJ         -0.596845         1.60113        0.370466
LJ              -nan            -nan            -nan
LJ          0.848589       -0.765171        -1.49368
LJ          -1.77591       -0.730199        0.563777
LJ           1.29635         1.64785        -1.66473
LJ          -1.04081        0.641528        0.157372
LJ          0.440634        0.132794        0.396797
LJ           2.43487         1.00583        -2.22403
LJ          -1.58399          2.4954       -0.498876
LJ          -2.47671        -1.86331        -2.42086
LJ           2.04758       -0.718707         2.01574
LJ          -1.09259         1.32112       -0.530119
LJ           2.13372         1.79451        -2.19032
LJ           2.26449        -2.42481       -0.172738
LJ           1.40537        -2.38614         2.08815
LJ          -1.61375         1.64931        -1.96705
LJ          -1.84569        0.673323        -2.48975
LJ            -1.209         -1.1801         1.27899
LJ            2.1056        -1.91649       -0.610914
LJ              -nan            -nan            -nan
LJ          0.363144       -0.145641        -1.24968
LJ          0.152902         2.39526        -0.46235
LJ          0.259239         2.17616        0.602313
LJ          0.662299       -0.146626       -0.804264
LJ           0.60055         -1.0046        0.423519
LJ          -2.14576         1.59225       -0.794169
LJ          -1.83664          0.9446        -2.23586
LJ           2.26227        0.517704        0.157802
LJ           1.86626         1.93171        -1.85478
LJ           1.05879       -0.901512         0.16201
LJ          -1.26182       -0.217264         2.42245
LJ            1.1379         1.38857        -1.89377
LJ          0.268866       -0.642432      -0.0924312
LJ          0.798797         -2.2871         1.73793
LJ              -nan            -nan            -nan
LJ          0.939603        0.835429         1.76567
LJ         -0.513826        -2.10457       -0.876928
LJ          -2.28627         -1.3628        -1.77079
LJ          -1.20062         1.81874       -0.147056
LJ          0.917388         1.69371        0.895675
LJ           1.12045        0.778657        -1.32924
LJ         -0.361691        0.518051       -0.985872
LJ           0.45635       -0.260322         1.40342
LJ            1.0136       -0.467123       -0.271634
LJ          -2.24606        -2.33315        0.795731
LJ           -1.6274         2.12239         2.15666
LJ            2.0904        0.663221       0.0149086
LJ           1.93454         1.22683        -2.11217
LJ          0.110859        0.147506        0.738479
LJ           1.44073        -1.14747        -1.26756
LJ           -0.1123        -2.02702          1.0579
LJ          -1.20923        -2.33293         1.32185
LJ           0.83779         1.63739        -1.14058
LJ          0.274487         1.07229        0.990269
LJ         -0.464174        -1.69717       -0.214869
LJ          0.619041         1.48051         2.20984
LJ          -1.05056        0.375005       -0.492857
LJ              -nan            -nan            -nan
LJ         -0.399665        -2.28771         1.49093
LJ          0.582597        0.253172         1.38672
LJ         0.0348046          1.8427         2.41391
LJ         -0.484759         1.09111       -0.430845
LJ           2.56413        -1.07529        -2.14315
LJ         -0.843282         -2.0902         2.49671
LJ           1.10812       -0.152319         1.60318
LJ              -nan            -nan            -nan
LJ           1.80053         2.39086         2.52279
LJ            1.1097        0.146947       -0.112143
LJ          -2.13933        -2.12849        0.863236
LJ           2.50343         -2.3821         0.16404
LJ           -1.0505        0.202283        0.400994
LJ           1.87871       -0.938172        -1.50265
LJ          0.399144        -2.37828        -1.15112
LJ          -2.46118        -2.46412        -1.71919
LJ              -nan            -nan            -nan
