108
#Comment!
LJ           1.51516        -1.25576         1.09693
LJ           2.42609        0.609047        -2.49673
LJ           1.18782         -0.6228         1.10256
LJ         -0.332844        -1.89573        -1.99677
LJ          0.912719         2.42783       -0.354438
LJ          -2.30463          1.5866         1.48617
LJ          -2.52871        0.429183         2.54619
LJ          -1.84795         2.13831         1.25241
LJ          -1.26555         2.51498        0.664793
LJ          -2.35251        -1.13766        -1.26064
LJ              -nan            -nan            -nan
LJ           1.47336        -0.55412         -1.3544
LJ        -0.0626193        0.720777        -1.84245
LJ              -nan            -nan            -nan
LJ          -2.42669       -0.176544        0.438479
LJ              -nan            -nan            -nan
LJ              -nan            -nan            -nan
LJ              -nan            -nan            -nan
LJ           2.22192         2.46723         1.03862
LJ              -nan            -nan            -nan
LJ           1.99532        0.267948         1.90353
LJ         -0.130475        0.954738        -2.40948
LJ           1.80571        -1.81889         1.54792
LJ              -nan            -nan            -nan
LJ          -1.01193        0.767742        -2.11731
LJ           1.34304        0.175172        -2.08218
LJ          -1.05724         -1.4822        -1.92463
LJ           2.54813        -0.13857         2.49057
LJ           1.16698       0.0227684      -0.0437704
LJ           1.00384        -1.91602        -2.48972
LJ              -nan            -nan            -nan
LJ          0.217176        -1.43139        0.186333
LJ              -nan            -nan            -nan
LJ           1.45177       -0.347547        0.271146
LJ              -nan            -nan            -nan
LJ          -1.90339        -1.53135        -2.37187
LJ           1.41613          2.4328        -2.37224
LJ          0.205855        -1.14958       0.0768317
LJ           1.74793       0.0715843        -1.08369
LJ          0.808092        -2.49919        0.684915
LJ           1.12933         2.47401        0.282006
LJ          0.620043       -0.831581        -1.22614
LJ         -0.754985        -1.19408         0.55699
LJ           2.36359        0.466841        0.725181
LJ           2.52065       -0.826861         2.00712
LJ          -1.44739        -2.06048       -0.201733
LJ          -1.89138        -1.88598       -0.159603
LJ          -2.36111         2.46826      -0.0676945
LJ           2.32199        0.960005       -0.848867
LJ          0.477269       -0.410582        -1.74941
LJ           2.22971         2.34321       -0.839438
LJ           1.29676       -0.298439        -1.14229
LJ              -nan            -nan            -nan
LJ           2.00644         0.90125       -0.222507
LJ          0.368569          1.9242        0.917758
LJ           1.06653      -0.0957458         2.49069
LJ           2.23826        0.793574        -1.57444
LJ          -1.53192         -1.8164        -1.74294
LJ          0.954417      -0.0909226         1.88597
LJ           1.02221         1.63235        -2.51718
LJ         -0.214149         2.27457         1.97704
LJ          0.999485        -2.52926        0.602821
LJ         -0.605676          1.3691         -2.1825
LJ              -nan            -nan            -nan
LJ              -nan            -nan            -nan
LJ            1.7938         1.41263         1.29561
LJ           -1.8746       -0.452495        0.241158
LJ              -nan            -nan            -nan
LJ          -1.89831        0.362151        0.552032
LJ         -0.365293          1.7425        0.737738
LJ           2.11602        0.229097      0.00269229
LJ           1.15308        0.727616         2.30974
LJ           1.33249        -2.27227       -0.315321
LJ          -1.63412        -1.04828        -1.91908
LJ          -2.36766        0.212465        0.557925
LJ            -2.015        0.110465        -1.82577
LJ         -0.687302       -0.475002        -1.65957
LJ           0.95914       -0.118837        -1.04894
LJ           1.54763         2.30002        -1.85199
LJ            1.6149         2.47835         1.61399
LJ           -2.2116       -0.800028        -2.16243
LJ           2.19456        -1.42111         1.21664
LJ          -1.34047         1.02645         1.54585
LJ          0.556038         2.19982         1.38961
LJ          0.998919        0.372486        -1.34181
LJ           2.01626       -0.928435         -0.4761
LJ           1.76066         1.00858         2.17798
LJ           0.95351         1.53356        0.234573
LJ           1.77946        -1.62429         1.60935
LJ         -0.281094        -1.21228       0.0559218
LJ              -nan            -nan            -nan
LJ           1.85372       -0.429691       -0.443962
LJ           1.52588         1.23806         1.29749
LJ           1.18517         2.09682        -1.32462
LJ          -1.88726        0.188644         1.16584
LJ          -1.96704         1.36489        -1.62814
LJ         -0.815403        0.111772        -2.49136
LJ           2.34826         2.09593      -0.0748718
LJ              -nan            -nan            -nan
LJ           1.57007         2.04218         1.31871
LJ          0.681987         -0.6052        -2.35362
LJ           1.92307        0.832673        -2.04176
LJ              2.54        -1.20643        0.714857
LJ          -2.10659       -0.983229        0.803809
LJ              -nan            -nan            -nan
LJ         -0.203297        0.185918        -1.35013
LJ            2.1895        -1.98301       -0.931464
LJ              -nan            -nan            -nan
