108
#Comment!
LJ          0.484048         2.04408         1.58348
LJ          0.296138        0.700767       -0.573034
LJ          0.774751        0.819436         1.34541
LJ          0.882149         2.28576        -1.20001
LJ           1.19634        0.111252       -0.636633
LJ          0.277061        -1.04076         2.06163
LJ           2.28862         0.79347        -1.56587
LJ           -1.3639        0.469729        0.614498
LJ           1.94013        -2.29864       -0.676822
LJ          -1.49777         1.99127        -2.32252
LJ              -nan            -nan            -nan
LJ          0.416115        0.290035         2.28754
LJ         -0.426318         2.28628         2.47015
LJ              -nan            -nan            -nan
LJ            2.0053       0.0375137        0.978733
LJ              -nan            -nan            -nan
LJ              -nan            -nan            -nan
LJ              -nan            -nan            -nan
LJ          -1.20242        -1.20569        -2.16248
LJ              -nan            -nan            -nan
LJ         -0.715121        -1.59829         2.54633
LJ          -1.85066        0.998667        0.679792
LJ          0.583392        -1.71001      -0.0357881
LJ              -nan            -nan            -nan
LJ          -0.30896        -2.11575         -1.0993
LJ          -1.35969        -2.53063         1.96581
LJ           1.56183        0.323976       -0.931008
LJ          0.489906        -2.25086         -1.3767
LJ          -2.36733        0.677269        -1.72714
LJ           1.81946       -0.763849        -1.58252
LJ              -nan            -nan            -nan
LJ           1.20536        -1.30327         1.13237
LJ              -nan            -nan            -nan
LJ          -1.86028        0.825486       -0.597318
LJ              -nan            -nan            -nan
LJ           2.30296        -2.09335       -0.944586
LJ         -0.651618       -0.762703        -2.03907
LJ         0.0316017       -0.368507      -0.0794764
LJ          -1.89415         1.01042         2.43653
LJ          0.543575         1.25464          1.9564
LJ          -2.16879         2.04332       0.0663729
LJ          -2.52191       -0.312666         -2.4141
LJ         -0.724032        -2.49598        -2.39618
LJ           1.87508         1.90973         1.36585
LJ        0.00152736       -0.270701       0.0843174
LJ           1.53962         2.41161         2.52155
LJ           0.53423        0.605165      -0.0905529
LJ           1.26047          -1.779         2.40313
LJ           1.34358         1.60684       -0.903751
LJ         -0.750869        -1.78807         2.20108
LJ          -1.47412        0.945868        -1.40117
LJ           -2.0197       -0.433348        0.493296
LJ              -nan            -nan            -nan
LJ         0.0604588       -0.932332        -1.48026
LJ         -0.909912         0.99309        -1.19201
LJ         -0.754185         1.01545       -0.755176
LJ         -0.392042        -1.94372        0.429414
LJ          -2.22956       -0.379854        -1.26237
LJ          -1.99344       -0.648635       -0.736334
LJ          -1.06335        0.245721        -2.29165
LJ         -0.686052        0.358743         1.56954
LJ           2.07585         0.13715        0.341854
LJ          0.117559         1.88705         2.10053
LJ              -nan            -nan            -nan
LJ              -nan            -nan            -nan
LJ         -0.879126         1.61807        0.151924
LJ           1.86344         0.32474         0.42759
LJ              -nan            -nan            -nan
LJ           1.21796        0.939503        0.932201
LJ        -0.0527972        0.671303          1.9867
LJ          -1.07098        -1.61819       -0.677363
LJ           1.98968         1.82207           1.341
LJ           1.80454        -1.22641        -2.56159
LJ           1.07155       0.0262314        -2.09704
LJ           1.54997       -0.917364        0.941589
LJ           2.31187       -0.459402        -1.04592
LJ           0.28253       -0.418248         2.09715
LJ         -0.563932         2.09127         1.88305
LJ           1.48227         1.35056         2.26511
LJ         -0.242599        -2.26213       -0.760662
LJ           1.31111         2.39429       -0.620825
LJ           1.52053        -2.15929         0.26766
LJ          -1.36666       -0.421856        0.725737
LJ          -1.10252       -0.577484       -0.461367
LJ         -0.222304        0.847366         2.26998
LJ          0.286785         1.22878         1.10742
LJ          -2.40465       -0.650719      -0.0333594
LJ          -0.17744       -0.280247        -1.57462
LJ           2.01726         1.56549        0.510123
LJ         -0.156001      -0.0819768        -1.13268
LJ              -nan            -nan            -nan
LJ         -0.669498      -0.0612251        0.630306
LJ            1.7379         -2.2624      -0.0450337
LJ           1.52294        -2.05192         2.18879
LJ          -1.03978        -1.29394       -0.753797
LJ          0.764123         -2.1079        0.385545
LJ         -0.200685        0.901614        -1.13046
LJ          -1.69913        0.760532         1.23837
LJ              -nan            -nan            -nan
LJ           1.39704         0.58587        -1.41638
LJ          -0.33552         2.46979       -0.462123
LJ          -1.31111         2.38746        -1.54775
LJ           1.93831       -0.846249        0.618044
LJ            1.9986         -1.7196        -1.87381
LJ              -nan            -nan            -nan
LJ           1.23461      -0.0844175       -0.886299
LJ           2.29199        -1.99678         1.35698
LJ              -nan            -nan            -nan
