108
#Comment!
LJ           1.24598        -1.42531         1.14159
LJ           1.69609       -0.649346         2.31606
LJ         -0.789973        -1.64502         1.56909
LJ          -2.01578       -0.876402        0.319868
LJ            -1.858       -0.609876        -2.44073
LJ          -1.56918       0.0611222          -1.363
LJ          0.599357        0.440742        -0.40301
LJ          -2.47329       -0.407002       -0.490271
LJ          0.709395        -1.91244         1.91842
LJ           1.22005         1.86364        -1.73068
LJ              -nan            -nan            -nan
LJ           2.44949        -1.54387         1.28121
LJ       -0.00359932       -0.404402         2.45919
LJ           2.56319       -0.529502        -1.32158
LJ           1.38201       -0.657335        0.430236
LJ           1.36501         0.49422        -1.50076
LJ          -0.84934        0.468225        0.544011
LJ          0.906143         1.82833       -0.399755
LJ          -1.42103        -2.33077        -2.51167
LJ           1.23596        -1.17768         1.88707
LJ           2.19708         -1.8241         0.20926
LJ          -1.35233       0.0119415        -1.18639
LJ          -1.85265       -0.455907          1.0872
LJ           2.26614       -0.938343        0.663513
LJ           2.23006        0.334349        0.894687
LJ          -2.40856        0.143358         2.36171
LJ          -1.25455       -0.794454       0.0151105
LJ         -0.257752        -2.34916        0.296159
LJ           2.46827         2.19888        -1.72381
LJ           1.20207         2.07872         1.12323
LJ          -1.89296       -0.502639        0.769922
LJ          -1.74728        0.166302        -1.28208
LJ              -nan            -nan            -nan
LJ         -0.537411        0.342015        0.602882
LJ              -nan            -nan            -nan
LJ           0.80926        -1.76852         2.28466
LJ          -2.17425         1.08226      -0.0315041
LJ          0.411817         2.52663        -2.06103
LJ         -0.273066         1.48022         1.21778
LJ            1.4413       -0.747962       -0.430348
LJ          0.100669        0.202291         2.33947
LJ           1.89851         2.05984       -0.504779
LJ         -0.188925        -0.31256         2.02635
LJ          -2.12367        0.427419        0.613411
LJ          0.441283        0.245131         2.53234
LJ         -0.144531       -0.666984        -2.09596
LJ          0.847358        -2.07724        -1.45059
LJ         -0.716176         -2.1182         1.77239
LJ           2.00826        0.152028        -2.38894
LJ           1.98543         2.43671        -2.47133
LJ         -0.801378        -2.27997       -0.160621
LJ         -0.794863         1.16422        0.798215
LJ         -0.375952       0.0981089        -1.50845
LJ           2.54761       -0.560207    -0.000675233
LJ           2.28203       -0.828481        0.634924
LJ           1.47636        -0.44749      -0.0305095
LJ          -1.91905        -1.06204        0.111906
LJ          0.635424         1.99187        0.879585
LJ         -0.459688       -0.060786        -1.65068
LJ           1.88939         2.12899       -0.444691
LJ          -2.26908     -0.00808032        0.819784
LJ         -0.730615       -0.903852         1.41511
LJ          0.198936        -2.48955        -1.81923
LJ          -2.09408        -1.13361       0.0991479
LJ           1.90045        -1.34893        -1.20856
LJ          -2.09449        -1.71586       0.0157612
LJ         -0.960364          1.2749       -0.156729
LJ              -nan            -nan            -nan
LJ          -2.03641         1.41246         2.30191
LJ         0.0581807         2.17202         1.45372
LJ           1.85211        -2.00362        0.378311
LJ           1.60677       -0.670372         -1.9895
LJ         -0.601344       -0.880414        -1.82203
LJ           0.71845        0.436891         1.05813
LJ           1.53682         1.75019        -2.54873
LJ       -0.00642869        -2.03891        -1.50012
LJ       -0.00205165        -1.83293         1.89573
LJ          -2.12962         1.82012         1.31753
LJ         -0.976691         1.18898       -0.355959
LJ         -0.902657         1.12844         1.95641
LJ           -1.3179        -2.12804        -1.84853
LJ          -1.18744         1.84045       -0.969499
LJ          -1.18826    -0.000520554        0.737703
LJ          0.421807         1.18528        -1.11673
LJ          0.202209        -1.37171       -0.585951
LJ          0.896911        0.299337        -2.13311
LJ          -1.98279         1.34303       -0.874632
LJ          -1.53886        0.251028        -2.15527
LJ          -1.91195        0.218084       -0.330253
LJ           1.04829        0.763849         1.40296
LJ         -0.884459        0.901706         1.74839
LJ          -1.60074         1.19531        -1.58422
LJ         -0.916178       -0.222749        -1.12319
LJ          -2.26502        -1.35457        0.892878
LJ          -1.57861         1.45394        -2.11617
LJ          -1.81628         1.37953        -1.84707
LJ        -0.0878209        0.470872       -0.517184
LJ            -1.639         1.20382         1.49623
LJ          0.130976         1.25874        -2.19063
LJ         -0.306804       -0.903297         2.45329
LJ           1.99581        0.895465      -0.0890594
LJ          0.930039         1.52307          1.2364
LJ         0.0177709       -0.896181         2.02754
LJ          -0.66916         1.68787        0.751045
LJ          -2.06759        -1.88269        -2.28626
LJ         -0.116857         1.78571         1.69383
LJ         -0.304802       -0.184234         -1.3553
LJ         -0.782909         2.24167        -2.31831
