108
#Comment!
LJ           0.99827       -0.410793       -0.808991
LJ          0.223698        0.812893        0.656859
LJ           2.06855        -1.42739       -0.136759
LJ           -1.8146        -2.09824         2.55983
LJ          0.547963        -1.69071         1.62865
LJ          -1.14901        -2.17929        -2.48137
LJ            1.9811         1.80376         1.66462
LJ         -0.903095          1.1307         1.16624
LJ           1.70363          -1.404       -0.996123
LJ          -1.87062        -1.51852       -0.824114
LJ              -nan            -nan            -nan
LJ          -1.22898       -0.484505         1.72499
LJ           2.00696         2.08156         1.95946
LJ              -nan            -nan            -nan
LJ          -1.64571        -2.47185        -2.20058
LJ              -nan            -nan            -nan
LJ              -nan            -nan            -nan
LJ              -nan            -nan            -nan
LJ         -0.997418         2.07464         1.01413
LJ              -nan            -nan            -nan
LJ           1.92669        0.236581          2.4242
LJ           1.38903         2.50105        -1.17905
LJ           2.45115          1.5135         2.51825
LJ              -nan            -nan            -nan
LJ           0.43283         2.37525        -1.83634
LJ           0.78695        0.432271        -1.24293
LJ         -0.491046        -0.51452        -1.47598
LJ         -0.982116        0.399654        0.919108
LJ          0.529367         1.39303        -1.32542
LJ          -2.02326       -0.868612       -0.268811
LJ              -nan            -nan            -nan
LJ          -2.39346        -1.82895        -1.62633
LJ              -nan            -nan            -nan
LJ          0.481643         2.22413        -2.20235
LJ              -nan            -nan            -nan
LJ           1.82578         1.94119        0.207423
LJ          -2.29706       -0.836569        -1.85915
LJ          -2.39116        -2.15004        0.656121
LJ          0.500398         2.25421        -1.60192
LJ          0.216475         2.29696       -0.277471
LJ         -0.704876        -1.62333        -1.02472
LJ           -1.0169        0.552345        0.154066
LJ           1.84687         2.02563        0.882725
LJ           2.48977         2.50467        -2.19938
LJ          -1.09393        -1.20533         1.66883
LJ          -1.79062         1.49603        -1.20735
LJ         -0.702518       -0.377778       -0.416577
LJ          -2.34183         1.92337       -0.508875
LJ          -1.40911         1.52758        -1.33445
LJ           1.08313       -0.020557         2.18717
LJ           2.50263       -0.234929       -0.860283
LJ         -0.528969        -1.51355        -1.66669
LJ              -nan            -nan            -nan
LJ         0.0714519        0.238093         0.13949
LJ         -0.368758        -1.07979        0.488819
LJ           1.61015         -1.6308        0.773157
LJ           1.23015        -1.24526        -2.09406
LJ           1.74675        -1.29941         1.00434
LJ           1.82747         2.09766        -2.12075
LJ           1.48189        -1.78532         1.79965
LJ          -2.49879        0.713669       -0.997176
LJ         -0.456637        -2.04699        -1.33804
LJ          -2.13573        0.384698          1.2551
LJ              -nan            -nan            -nan
LJ              -nan            -nan            -nan
LJ           1.59501         2.08358        -2.25633
LJ           1.11341        0.563118        -1.14609
LJ              -nan            -nan            -nan
LJ          -2.19122        -1.93593         1.53615
LJ         -0.435286          2.2452       -0.401351
LJ           -1.0002        0.654052        -1.79973
LJ           2.36785         1.98945        -1.60057
LJ          0.169635         2.16355       0.0280517
LJ          -1.85345       -0.289827        -1.43997
LJ          -1.31696        -1.03408        -1.74968
LJ          -2.23909        -1.97114         2.20078
LJ         -0.925594        -2.14898         2.15198
LJ          -2.07548        0.380479         1.33246
LJ          0.998699         1.46966         2.48257
LJ           1.90481         1.66533          1.1081
LJ          -2.48127         2.43649         2.23516
LJ          -2.39072        -1.33213        -1.22467
LJ          0.958404        -0.43324         1.65842
LJ         -0.949302         1.51338        -1.38928
LJ          -1.72808        -1.61026         1.55335
LJ          -1.21882        0.281528       -0.302664
LJ           1.70976         1.84555        0.152441
LJ           1.16809         2.30648        -2.18595
LJ           0.78156        0.264955         0.63072
LJ         -0.295666        -2.23232        0.725183
LJ              -nan            -nan            -nan
LJ          0.131317        -2.51467        -0.99128
LJ           1.02726        0.591551        0.538859
LJ          -2.26115        -2.37406       -0.434928
LJ           1.09316        -2.00522       -0.954895
LJ          -2.12491         1.89294         1.04921
LJ          0.808506       -0.445503        0.718567
LJ         -0.501654         2.22414        -2.48245
LJ              -nan            -nan            -nan
LJ           1.15427        -2.05093         1.41139
LJ           1.14212        0.640321        0.337906
LJ          -1.71608        -1.48832        0.677461
LJ          -2.39779        -1.33133        -2.53333
LJ           1.74695       -0.417633         1.03805
LJ              -nan            -nan            -nan
LJ           1.77916        -1.58118        -1.61971
LJ         0.0663499        -1.61813        -1.54746
LJ              -nan            -nan            -nan
