108
#Comment!
LJ          0.359259         2.44762         2.23423
LJ           2.36133       -0.566277       -0.603239
LJ          -1.63669        0.853708        -1.96127
LJ           1.62253         1.70915        0.553877
LJ           1.77839         2.21946         1.62228
LJ          -1.81066        -1.59734       -0.966121
LJ          0.770192       -0.369747        -2.33102
LJ          -2.33567        -2.43228       -0.343911
LJ           1.20969        -1.79818        -1.94268
LJ         -0.216475        -1.10002        0.402989
LJ              -nan            -nan            -nan
LJ          0.405038         1.74903        0.189865
LJ           1.18097       -0.644176         1.83492
LJ         -0.696181        -1.01961         1.99904
LJ           1.89212       -0.617061        0.387098
LJ           1.75892        0.555343         1.60433
LJ            2.2779        0.429576         0.32958
LJ           -1.7035         1.88984        -1.17763
LJ          0.372893        -1.19506        -1.98097
LJ          0.252209        0.708378        -0.97653
LJ           2.06577       0.0782508         2.10195
LJ          -1.96788        -1.52448        -1.44491
LJ          0.120925        -1.35314         2.08761
LJ          -2.39309        0.526193         1.17056
LJ          -1.82759        -1.09737        -1.29772
LJ           0.57077        0.889476         2.02019
LJ          0.965311        0.881758         1.23794
LJ          0.527321         -1.2651        0.477374
LJ          0.183956         1.11125         0.82522
LJ         -0.409344         2.30095        -1.11655
LJ          0.608636        -2.07571        -2.05785
LJ         -0.719473        0.614353        0.634662
LJ              -nan            -nan            -nan
LJ           -1.9974         2.38011         2.27483
LJ         -0.306883        0.707604        -1.00738
LJ           1.57206         2.17602       -0.619445
LJ         -0.913805         -1.3935        0.867792
LJ          -1.51046        -2.11684        0.934644
LJ          0.977145       -0.553045       -0.547365
LJ          -2.48623          1.0254        0.137193
LJ        -0.0780249       -0.738017         1.40137
LJ           1.11177         1.19764         1.18207
LJ           1.96896       -0.368095       -0.179218
LJ          -1.50019        0.966344         1.96401
LJ          -2.03225       -0.106944        0.159797
LJ          -2.27641        -2.12915          1.6962
LJ         -0.372927        -2.15912        -1.32324
LJ           1.26057         2.44403         2.42123
LJ          -2.38225         2.09007       -0.098847
LJ         -0.837306         2.23905        -2.19347
LJ           1.97414       -0.431272         2.32488
LJ        -0.0142964         2.53773       -0.370082
LJ          -2.37498        0.318076        -1.20561
LJ          -1.38192         2.48438        0.507963
LJ           2.54518         -1.8155        0.127949
LJ            1.7665        -1.39418         1.09871
LJ           2.30554       -0.973439        -2.09248
LJ         -0.484879       -0.792922        0.454558
LJ           1.61693         1.55507         2.48655
LJ           2.22354       -0.211324       -0.606691
LJ         0.0814149        0.619054         2.46738
LJ         -0.652319         2.01263        -2.02966
LJ           0.53579        -1.18765       -0.968447
LJ           1.15093          1.1624      0.00830286
LJ           1.06018        -2.46219        0.275036
LJ          0.700164         1.42161         2.12231
LJ          0.196194        -1.28921         1.31628
LJ          0.873361       -0.196677        0.318275
LJ           1.30209         2.48737          1.0773
LJ           1.76286        -2.47663         2.49857
LJ          0.142798         2.43184        -1.99909
LJ         -0.493129         2.00639        -1.48608
LJ          -1.89708       -0.442009       -0.644062
LJ           1.12513       -0.659518        0.127387
LJ            1.9153         1.50317         1.43949
LJ           0.71443        0.625169       -0.115307
LJ           1.05511        0.643035       -0.669994
LJ          0.517559        -1.23546       -0.165815
LJ         0.0675328      -0.0466238       -0.945891
LJ         -0.432075       -0.636669       -0.155529
LJ           1.69488         1.68515        -2.43318
LJ           2.33972       -0.736005        -1.06363
LJ           2.48431       -0.037597         1.06714
LJ          -0.14568         1.81734       -0.842981
LJ          -1.30484         1.91583         1.17198
LJ          -1.35824        -1.91013         -2.0657
LJ          -2.26016        0.356491         1.36614
LJ          -1.83829         1.95179        -1.93637
LJ           1.12698        -1.42971        -1.78458
LJ          -2.24358        -2.41538        -1.38271
LJ          -1.98979         1.15615        0.542391
LJ          -1.92854         1.95104         0.46175
LJ           1.73304        -2.04525         1.01721
LJ           -2.2802         -1.4201        0.672188
LJ        0.00524792          1.3282         1.04666
LJ           1.29763        -1.86851        0.631837
LJ           -2.2036         2.51544        -1.89232
LJ           1.52682         2.33265       0.0499603
LJ          -2.21203       -0.318612       -0.642905
LJ          0.919935       -0.770088        -2.38056
LJ          0.378402       -0.491458        -2.43501
LJ          -1.57883       -0.852229         -0.1416
LJ           1.47268         1.20945         1.78876
LJ         -0.697491       -0.901803        -1.59179
LJ          0.809127        -2.38233         2.07735
LJ          0.208812         2.44212        0.439482
LJ           1.83469        -1.92212          2.4463
LJ          -1.53215       -0.395301       -0.635556
