108
#Comment!
LJ          -1.90245       -0.408012        -0.66416
LJ          -1.39939        -1.38372        0.735975
LJ          -1.80122        0.976227        0.944895
LJ          -1.12281        -2.44553        -1.39395
LJ           1.52883      -0.0510646          1.7121
LJ         -0.645169         1.93496        -1.77852
LJ          -2.54562        0.278047        -1.01935
LJ           1.80271         1.85174         1.80189
LJ           1.72957         2.49519         2.13307
LJ          0.808337       -0.931507         1.09937
LJ              -nan            -nan            -nan
LJ           1.28367        0.152218        -1.68673
LJ           2.12927       -0.865829        0.660264
LJ           1.54288        0.199205       -0.119123
LJ         -0.246978         1.78396        -1.14901
LJ           2.22018        0.452877         2.10101
LJ              -nan            -nan            -nan
LJ              -nan            -nan            -nan
LJ          -1.45856        -2.53909        -1.46408
LJ              -nan            -nan            -nan
LJ          -0.75121         2.12744         1.30019
LJ          0.600739       -0.630429       -0.215021
LJ           1.88222       -0.210949        0.414362
LJ          0.924077        -1.79614        -1.28447
LJ          0.851782        0.175531        0.248516
LJ          0.203599       0.0387229        -2.16892
LJ          -1.38289         0.57324        -2.19886
LJ          0.392236        0.299885       -0.178829
LJ           1.87983       -0.936644        0.947463
LJ          0.320291      -0.0970621        -1.60587
LJ          -1.28225        -1.43115         2.34012
LJ          0.393022       -0.857064        -1.75664
LJ              -nan            -nan            -nan
LJ         0.0923519         1.51411        0.180134
LJ              -nan            -nan            -nan
LJ            -1.903        0.236322         1.23231
LJ         -0.834236         1.52969         1.53403
LJ         -0.285662         -2.4622         0.65531
LJ           1.32608        0.956048       -0.457887
LJ          -1.55772        0.290701          2.2986
LJ          -2.40419        -1.39093        -2.30979
LJ           2.31001        -1.61345       -0.155254
LJ          -1.54816        -1.44008         2.20048
LJ       -0.00265621       0.0690751       -0.678833
LJ           -2.1902        -2.05013         1.97056
LJ          0.451767        -1.17346         1.54702
LJ          0.345295       0.0582919         0.20081
LJ           2.30718        -1.90531        -0.72829
LJ          -1.55194        -2.31404         1.79668
LJ          0.873182         1.09078        0.844634
LJ           2.21745       -0.904934         -1.9888
LJ           1.29441        0.483284         1.94192
LJ              -nan            -nan            -nan
LJ          -1.43461         1.69274        -1.06866
LJ          -1.39844         2.19141        -1.10547
LJ         -0.551595         1.30901        0.782057
LJ          -1.81005         1.89335         2.18825
LJ          -1.11451         2.42553       -0.825545
LJ         -0.202516          -1.667        -1.91076
LJ          0.979103       -0.283868        -1.15454
LJ         0.0440003        -1.62389         1.98835
LJ         -0.141229         1.24567          2.5301
LJ          -2.14095        -1.89419        -2.11115
LJ           1.94979        -2.11687       -0.518333
LJ           2.29431        -1.89389       -0.486608
LJ           1.50138       -0.349384        -1.36053
LJ          0.352637      -0.0816353        -1.63658
LJ              -nan            -nan            -nan
LJ         -0.996444       -0.127785         1.30207
LJ          -0.20583        -1.76381        -1.79405
LJ          0.351124        -1.91453        0.537502
LJ            1.5529        -1.72256       -0.180674
LJ          0.445312       -0.361328       -0.894531
LJ        -0.0905828        -1.77997        0.558162
LJ          0.754808         1.28948         1.16781
LJ          -2.18998          1.0622         1.53776
LJ           1.93014        0.210133       -0.310363
LJ          -2.42939      -0.0999504        -0.24248
LJ          -2.18146        -0.78295       -0.842008
LJ          -1.79954         2.11337         1.62373
LJ           1.57369        0.542802        0.448954
LJ            1.5049         2.04427       -0.470227
LJ          -2.53923        -1.47646         2.05549
LJ          -0.70028        0.313754        -1.49573
LJ         -0.273867        -1.77197        -1.48684
LJ             1.419        -1.48748        0.309711
LJ            1.6134        0.241381        -2.18248
LJ          -1.09032        -2.40034        -2.45455
LJ         -0.146215       -0.852273         1.35964
LJ          -0.99479        -1.97959        0.798303
LJ              -nan            -nan            -nan
LJ           2.33567         -2.2353         2.24772
LJ          0.355092         1.77474      -0.0526182
LJ          -2.00846        -2.48324        -2.07993
LJ           1.52552       -0.660569        0.292479
LJ          -1.54943         2.00421         2.39982
LJ           -2.4074         2.47121        0.713796
LJ         -0.847488         1.42107         1.73305
LJ           2.26362         2.33939       -0.630466
LJ          -2.20664        0.428499        -1.61019
LJ           1.36285         0.15526       0.0789529
LJ          0.280151       -0.916727        0.850513
LJ           2.46571        -1.49594        -1.77381
LJ           2.13273        -1.01944         2.16287
LJ            -0.803       -0.637712        -1.52478
LJ          -1.29202         2.09867         1.74646
LJ          -1.62326        -1.25818        -2.05882
LJ              -nan            -nan            -nan
