108
#Comment!
LJ           1.35191        -2.01724       0.0577491
LJ          0.076395         1.73193         1.82426
LJ          0.880497        -1.10617         2.15836
LJ           1.92739       -0.532918         1.54522
LJ         -0.656368         1.63895       -0.880861
LJ           1.59451         2.16967         1.58443
LJ          -2.31315       -0.158308        -1.82516
LJ          0.357954        -2.55821        -1.27463
LJ           1.86013       -0.216562          1.4348
LJ           -1.3602        0.333938        0.850244
LJ              -nan            -nan            -nan
LJ          -1.41676      -0.0133591         1.78502
LJ         0.0259153         0.27694         1.05508
LJ          -1.09945        -2.14839        0.612281
LJ          -1.95513        -1.04456         2.53319
LJ          -2.32958        0.590363          1.7746
LJ         -0.717673        -2.18335          1.1291
LJ          -2.54101        -1.50749       -0.908483
LJ          0.919768       -0.551996        -1.72159
LJ            1.2174     -0.00815682        -1.28794
LJ          0.260907        -2.17857         -1.0645
LJ          -2.54032        -2.13737         0.33267
LJ          -2.11198         2.03372       -0.407687
LJ          -1.26257        -0.34315        -2.32254
LJ           1.47044        0.937675        -2.28133
LJ         -0.909322        -2.03993      -0.0675984
LJ          -1.36264       -0.594162         1.26086
LJ           1.30733         2.10206        0.297279
LJ          -1.70738        -2.35154        -1.87334
LJ         -0.379591        -1.93202         1.73667
LJ          0.914098        0.131463       -0.069297
LJ         -0.435265        -1.55321         2.49773
LJ              -nan            -nan            -nan
LJ           2.47644         1.93165       -0.482778
LJ              -nan            -nan            -nan
LJ           1.75935       -0.535735       -0.344613
LJ         -0.679159       -0.985135        -1.81273
LJ          -2.56166        -1.10036        0.559265
LJ          0.197111         2.31364         1.32916
LJ           2.15492        -2.12982        -1.48468
LJ           1.85393        -2.23721         1.33193
LJ          -2.55965       -0.528974        0.491107
LJ          0.278301        -2.10718       -0.898181
LJ           -1.2952         -2.4185        0.995298
LJ          -2.36647         1.26689        -1.85807
LJ           1.45517        0.872825         1.20727
LJ         -0.108163         1.92611        0.774337
LJ         -0.710232        0.168954       0.0240259
LJ           1.65195        0.158631        -2.40251
LJ           2.49161         1.97415        -2.05974
LJ           -0.5293        0.986612         1.96098
LJ          -1.29514         1.27244       0.0490439
LJ          0.597724          2.3992         1.57436
LJ        -0.0472547        0.375696       -0.719381
LJ          -1.29783      -0.0632319         1.19714
LJ         -0.519312         1.52764         1.19233
LJ          0.912745        -1.31903        -2.51543
LJ         -0.378757        -1.91146        -1.08491
LJ          0.919426        -1.33543         2.40262
LJ          -1.77907       0.0974755       -0.766408
LJ           1.56707         1.63102        -1.61879
LJ           -2.1076        -1.66576        0.446789
LJ           2.38809        -0.90013         2.49494
LJ         0.0514916         1.07069        -2.40462
LJ         -0.346048        -2.11856         1.19905
LJ          -1.36107        0.730974          1.8712
LJ          0.290764        0.719502       -0.205486
LJ              -nan            -nan            -nan
LJ          -0.35988         1.83987        -1.28301
LJ          0.226418         2.22136       -0.221513
LJ           2.13512       -0.744287        0.421334
LJ           1.25196       -0.737518         2.20777
LJ           1.85217       -0.877059          1.2733
LJ         -0.674655         2.42821        -2.10625
LJ          -1.44605         1.83456         1.80854
LJ           1.67134         2.37254        -1.24217
LJ          0.437867       -0.526573       0.0522206
LJ             -1.63        0.553077         2.00378
LJ           1.99707         1.93086         2.44606
LJ         -0.386885         1.29173        -1.21513
LJ          -2.38706        0.551561         1.54914
LJ           1.31639        -1.58521       -0.965866
LJ           1.90503         2.50885        0.410061
LJ           2.32263        0.635412         1.67746
LJ          -2.53637         1.75601         1.27675
LJ          0.449778       -0.416377        -1.48173
LJ           1.98993       -0.253637       0.0410125
LJ           -1.1358       -0.503921         1.74774
LJ        -0.0651678        -2.14875        0.682499
LJ          -1.60467        0.341104        -2.33189
LJ         -0.345593         1.15487        -1.78446
LJ           1.83165       -0.404021        0.714389
LJ          -0.38574         1.13601         -1.5831
LJ           2.32418        -2.08585       -0.370413
LJ           2.19427        0.943602        0.422563
LJ         -0.389994        -1.16935         1.91318
LJ          -1.98767          1.0518        0.785134
LJ          -2.49406        -1.68944         1.19377
LJ            2.3712        0.491405       -0.338127
LJ           1.46709       -0.154072         1.13227
LJ         -0.374942       -0.835656        -1.37377
LJ          -1.39478         1.16156        -1.04629
LJ           2.23802       -0.952295        0.460386
LJ           2.10972         1.96966        0.777513
LJ           2.33624        0.827776        -1.85304
LJ           2.05212         2.37944         1.53058
LJ          -1.97182        -1.44699        0.702311
LJ         -0.820179       -0.211659        0.117397
