108
#Comment!
LJ           2.33069         2.05527         2.51912
LJ          0.239697        0.582973         1.95559
LJ          -1.36958        0.223774        0.481954
LJ         -0.922159        0.294126       -0.542074
LJ          0.844818        0.980588         1.31588
LJ          -2.41715       -0.229895         1.73072
LJ          -2.21788         0.93014         2.13612
LJ           1.19988         1.86214       -0.379845
LJ          -1.81771         2.54229         1.94965
LJ           2.35459       -0.693435        -1.48187
LJ              -nan            -nan            -nan
LJ          0.373946         0.87828      -0.0532057
LJ         0.0980121        -1.67265       -0.449998
LJ              -nan            -nan            -nan
LJ           1.76284        -1.70498         2.55831
LJ              -nan            -nan            -nan
LJ              -nan            -nan            -nan
LJ              -nan            -nan            -nan
LJ         -0.105723         1.70559         1.54452
LJ              -nan            -nan            -nan
LJ          -1.82343        0.501394         2.17413
LJ          0.883314        0.981945       -0.659709
LJ         -0.238574       -0.365812         1.18094
LJ              -nan            -nan            -nan
LJ           -1.7556         1.21113         2.17618
LJ          -1.37446        -0.52922        -0.33136
LJ            2.0063         1.36965          1.0965
LJ          -1.14779         1.39364        0.463987
LJ          -2.28014        -2.26829         1.18399
LJ          -2.19577        -1.99965         1.48864
LJ              -nan            -nan            -nan
LJ         -0.946054       -0.732566         1.82749
LJ              -nan            -nan            -nan
LJ           1.90713        -2.55612         1.48394
LJ              -nan            -nan            -nan
LJ          -1.44788       0.0371099         1.56386
LJ           1.14954        0.414787        -0.36372
LJ          0.508697        -2.33789        -2.01193
LJ         -0.365401        0.351117        0.776439
LJ          -1.93081        0.899619        -0.18595
LJ           1.75374         1.16897       -0.434693
LJ           -2.4707        -1.88575        -2.12538
LJ           2.05156       -0.858693       0.0487011
LJ           2.20906        0.379108         -1.5453
LJ            1.5193         -1.4523        -1.17693
LJ         0.0466617       -0.145892        0.541684
LJ           0.41689       -0.318222        -1.22121
LJ           2.52352        -2.13249        0.215693
LJ           2.37773        -1.60419        -2.16466
LJ         -0.950583        0.442283        0.101818
LJ         0.0567383        0.831919         1.69744
LJ           1.73036          1.9619        0.379939
LJ              -nan            -nan            -nan
LJ            2.1428       -0.669768         1.94364
LJ           1.24335        -2.27783         1.60985
LJ           1.69303       -0.233687        -1.10643
LJ         -0.815784         1.55213       -0.412109
LJ         -0.510122         1.57001        0.535471
LJ           -1.3579       -0.179332        0.461229
LJ          -1.56836       -0.532849        -1.89924
LJ         -0.121379        -2.36404        -2.30833
LJ          0.578518       0.0952148         2.08857
LJ          -2.01715         2.13544        -1.64641
LJ              -nan            -nan            -nan
LJ              -nan            -nan            -nan
LJ         -0.749454         1.92468        -1.11631
LJ          -2.41671        0.731386         1.33193
LJ              -nan            -nan            -nan
LJ           1.45882        -2.14126         0.40407
LJ          -2.51304        -1.48083        -1.32507
LJ          0.336483       0.0369077        -2.12639
LJ           2.09849        0.800148          2.1046
LJ           1.52438        -1.24181         0.57498
LJ         -0.611254       -0.220943         1.54933
LJ          -1.44831       -0.986221         1.20637
LJ         -0.438807         1.21776        -2.47753
LJ           1.11651        -2.50029        -0.21648
LJ           1.01219        -2.54295       -0.256898
LJ          0.784076         2.09835         1.74616
LJ           0.70569        0.681363        -1.26549
LJ          0.687903        -2.22561        -1.10612
LJ          0.453366        0.276443        0.394829
LJ           2.25103        -1.25345         1.54962
LJ          0.382009         2.45832        -1.35157
LJ          -0.30215        0.693021        -1.15469
LJ          0.675658       -0.488339        -1.06356
LJ          0.954887        -2.46654        -1.52473
LJ          -2.19166        -1.00032        0.373618
LJ          0.133122       -0.211449         2.00002
LJ          -2.12413        -1.02234         1.04788
LJ              -nan            -nan            -nan
LJ           1.73799        -2.08676         2.50739
LJ          0.353626        0.965956        0.190116
LJ           1.92327        0.380272        -1.38346
LJ         -0.931047         2.03928       -0.713402
LJ          -0.36084       -0.104443         2.30594
LJ         -0.504046         -1.9506         2.46431
LJ         0.0805639         2.24593        -2.13797
LJ              -nan            -nan            -nan
LJ           2.10398        -1.28532         2.56341
LJ          0.454575       -0.837607        0.675872
LJ          -1.43677       -0.534925         1.39857
LJ           1.29259           1.828       -0.344479
LJ          -1.56479         2.43418         1.45598
LJ              -nan            -nan            -nan
LJ            2.1427       -0.465299        -2.01813
LJ           2.38576        -1.45016          -0.403
LJ              -nan            -nan            -nan
