108
#Comment!
LJ          0.727054       -0.026069        -2.48615
LJ           1.85541        -1.48423         1.28375
LJ         -0.986214        -2.09298        -2.08249
LJ          0.297361      -0.0650792        -2.51759
LJ          -1.95046        -1.78748       0.0312829
LJ           0.68145        -2.50166       -0.787393
LJ         -0.158942        0.453004        -1.41284
LJ           0.79275       -0.456747        -1.84276
LJ         -0.372027         2.48769        0.389759
LJ          0.515553       0.0059831        0.313138
LJ              -nan            -nan            -nan
LJ           1.91899        -2.50586        -1.64411
LJ          0.459887        -1.09947          2.2507
LJ           1.86638        0.179498         2.33381
LJ         -0.578681         1.26241         -1.8243
LJ         -0.407405         1.85358        0.369085
LJ              -nan            -nan            -nan
LJ              -nan            -nan            -nan
LJ          -0.61724        -1.86757          1.6391
LJ              -nan            -nan            -nan
LJ          -2.35537       -0.590421       -0.586889
LJ            2.1402        0.164528         1.73983
LJ            1.3046         1.56387        -2.50811
LJ          0.806281        0.157984         -2.2104
LJ           1.90049        0.217287        -2.33168
LJ           2.48953         1.65721        -0.53463
LJ          -1.45986       -0.913654       -0.102111
LJ          0.223372        -1.97932        0.694444
LJ         -0.475871        -2.38186       -0.978975
LJ          -2.48582        0.837398       -0.827146
LJ          -1.08986         1.38273       -0.700672
LJ          -1.41713       -0.492371         1.73222
LJ              -nan            -nan            -nan
LJ           1.17975        -2.25246         1.80603
LJ              -nan            -nan            -nan
LJ           2.11937        0.733732        0.792042
LJ           1.78437        -2.35875       -0.598688
LJ           -0.1429         1.31269         -1.7127
LJ          -1.15983        -0.89932         1.71925
LJ           1.76402        0.838926         2.51898
LJ           1.24593        -1.42615         1.20231
LJ          -1.96203         2.51351         1.15073
LJ           -1.3851        -2.51206        -1.24037
LJ           1.02767        -1.31888       -0.876928
LJ           1.11111        -1.67046        -1.68126
LJ          -0.24252        -0.25112         1.41726
LJ           1.83578       -0.841692         1.25512
LJ           -2.4323         1.19097       -0.141069
LJ          0.396431         1.17929        -1.66567
LJ           0.78345        -2.46914         1.54658
LJ          -1.89784       -0.238835         2.42076
LJ          0.343297        0.662822        -2.50323
LJ              -nan            -nan            -nan
LJ          0.736215         1.90949        -1.18349
LJ           1.81231        0.346801        0.686635
LJ           1.35558         1.18764       -0.524353
LJ             2.486        0.812337       -0.975065
LJ           2.22871         2.25185        -2.20758
LJ          -1.64917        -2.02747         1.97205
LJ           1.71366        -1.29904         1.92964
LJ           2.45121        -1.52621        -1.93462
LJ           1.04477       -0.769474        -2.14986
LJ          -1.16337        -2.42539       -0.268734
LJ          -2.10113       -0.134095        -1.37237
LJ           1.96196         2.34015        -0.64848
LJ          -2.46899       -0.168635       -0.231227
LJ          -2.50682         1.42643         2.22085
LJ              -nan            -nan            -nan
LJ          -2.35989       -0.856555         1.00729
LJ           2.05124        -1.86006         1.42059
LJ         -0.593316        0.791314         -1.5794
LJ         0.0881699         1.14232       0.0155256
LJ           1.18379         1.06818       -0.791932
LJ          -1.27498        0.855303         2.00327
LJ          -2.43166       -0.268399         0.98168
LJ          -2.43092        -1.77682         -1.4283
LJ          -1.00265        0.521239        -1.61333
LJ            1.0518        -0.69214       -0.776414
LJ          -2.47007         1.15997        0.587811
LJ        0.00575638        0.435004       -0.330208
LJ          0.850787       -0.829859         2.16479
LJ           1.00575       -0.721651       -0.316763
LJ          0.366399         1.84526        0.334998
LJ         -0.447017         -2.3373        0.301154
LJ           1.54617         1.96716        -1.94799
LJ           -1.6943         1.77986       -0.324488
LJ          -1.45811        -1.48984         1.73249
LJ          0.907472         1.98685        0.610542
LJ         -0.159705         1.53462       -0.445826
LJ         -0.335445        -2.33587         2.02464
LJ              -nan            -nan            -nan
LJ           0.75048         2.26956       -0.963577
LJ         -0.862065        -2.34588      -0.0523998
LJ         -0.197861       -0.682672        -1.37653
LJ          0.610122         2.06746         1.31694
LJ           2.49841     -0.00395264        -1.57002
LJ          0.747989       -0.348228         1.61293
LJ         -0.253575         1.45711         1.69204
LJ           2.38253         2.33579        -2.27712
LJ           1.51051        -1.02926        -2.53539
LJ          -1.01403        0.869382        0.907198
LJ          0.553953        -2.41175        -1.63334
LJ          -0.45855         1.23147         1.04084
LJ           1.51774        -2.21569         1.63645
LJ           1.68525       -0.878225         1.56209
LJ          -2.47453        -1.33632         1.80334
LJ           1.67591       0.0291001        0.550763
LJ              -nan            -nan            -nan
