108
#Comment!
LJ          -2.55004         1.81977        -1.31619
LJ          0.580594        -2.30288         0.11547
LJ          0.814032        0.603696         1.93299
LJ         -0.921838        -2.16925        0.723232
LJ        -0.0242429        -1.15603        -1.76492
LJ           2.29538        -1.94434        -1.87634
LJ           1.70779        0.339199         -1.8883
LJ          -1.16059         1.13637       -0.707804
LJ          0.310646         1.39204        -1.87052
LJ         -0.813566       -0.217011         1.26635
LJ              -nan            -nan            -nan
LJ          -1.38427       -0.693462         1.73363
LJ           1.09032         1.95773       0.0261631
LJ          -1.49691        -1.38616       0.0792693
LJ          -1.36061        -1.89477         2.55683
LJ          0.248402         1.11324        -1.81293
LJ              -nan            -nan            -nan
LJ              -nan            -nan            -nan
LJ            1.0038         2.53125         0.24467
LJ              -nan            -nan            -nan
LJ          -2.27997        -1.58102        -1.95116
LJ           1.07465        0.879041        -1.72829
LJ          0.777507         1.82182        -2.48845
LJ          -2.40009        0.117861        -1.24863
LJ          0.572112        0.173233        0.516356
LJ          -0.56568         -2.0056        0.965036
LJ           2.07172         -1.4235         2.23144
LJ           1.98465       -0.571185        -2.27568
LJ           1.69907            2.19         -1.3834
LJ           1.98399        -2.39917        0.631719
LJ          0.894167         1.24435         1.53665
LJ         -0.555281      -0.0339759         2.09454
LJ              -nan            -nan            -nan
LJ           2.46093       -0.814888        -1.64634
LJ              -nan            -nan            -nan
LJ           1.04692        -2.21892       -0.986654
LJ        -0.0302103         1.69041         2.53252
LJ          -1.51288         1.12516         1.31587
LJ         0.0366656        -2.49413        0.361978
LJ          0.809137         1.21046         1.77094
LJ         -0.715019         -2.4804        -1.01394
LJ          -1.94838         2.16455       -0.191283
LJ          -1.45355        -1.47928         1.74336
LJ           1.88416         -2.3619       -0.506653
LJ          -1.02646       -0.965336         1.77636
LJ          -1.58506        0.391808        0.901354
LJ         -0.951132        -1.30143          1.9506
LJ           2.44703         -1.6918         2.50646
LJ          -1.49727         2.50048         2.44559
LJ           2.13432        -1.36458       -0.761344
LJ          0.176634       -0.021522         0.66763
LJ           1.92126        -1.17236        0.596763
LJ              -nan            -nan            -nan
LJ           1.51025        -1.30653        -1.83363
LJ          -1.74821         1.48299         2.26803
LJ          -2.01419         1.36224        -1.41153
LJ           1.09283         1.28015        -2.32019
LJ          -1.54463         1.75748          1.9754
LJ          0.597122        -1.34406         1.04722
LJ            1.5039       -0.767461       -0.800368
LJ          -1.54359       -0.858211        -1.46196
LJ         -0.527387        -1.74086         2.47436
LJ         -0.902569        -1.57791        0.557644
LJ          0.454793        -2.48176        0.607662
LJ          -1.37254        -2.30687        0.622601
LJ           1.71758        -2.35836         1.60931
LJ           0.18633      -0.0628056       -0.389452
LJ              -nan            -nan            -nan
LJ       -0.00811721         1.33181         2.44384
LJ         -0.575043       0.0795725          2.0558
LJ           1.56107          2.5501      -0.0292975
LJ          0.363384         -1.7201        0.131796
LJ           1.84425         1.87153       -0.155447
LJ         -0.738286       -0.564267        0.338427
LJ          -1.66046       -0.167903        -1.66149
LJ           2.40056         1.51694         1.25163
LJ          -1.91482         2.20117        0.195494
LJ          -1.55682         0.11506        -1.56844
LJ           1.94964         1.07167       0.0677266
LJ            1.6422        0.896101         2.53102
LJ           1.96175         2.44603         1.69468
LJ           2.15916        -1.50017         1.90712
LJ          -1.41949         2.10869       -0.480952
LJ          -2.22439          -2.035       -0.806135
LJ           2.16619        0.445513         1.00697
LJ         0.0722696        -1.26577         1.17196
LJ         -0.537557         2.39146       -0.307185
LJ         -0.833446        -2.48843         1.46477
LJ        -0.0116281        -1.33606         2.54235
LJ        -0.0442855       -0.993977         -2.0183
LJ              -nan            -nan            -nan
LJ           1.53197        0.471294        -1.98381
LJ         -0.990408        -1.88246         2.53671
LJ           -1.8553        -2.05821        0.865638
LJ           2.04385       -0.023776        -1.54795
LJ          -1.98338       -0.931426        -1.61304
LJ          -2.24118        0.650145        -2.43221
LJ         -0.988449        -1.10572         1.55577
LJ          0.437627        0.421882        0.853069
LJ          -1.70171       -0.295067       -0.600075
LJ           2.33441      0.00161573         1.49912
LJ         0.0360334         1.39065        0.124894
LJ          -1.42294         1.71201         1.75257
LJ          -1.27053         2.30686       -0.711078
LJ          -1.59367         0.30411         -1.9786
LJ         -0.967264        0.615244        -1.98376
LJ          -2.00841       -0.882685        0.197765
LJ              -nan            -nan            -nan
