108
#Comment!
LJ            2.4382        -1.29818       0.0109459
LJ          -1.71397        0.907625        0.299297
LJ         -0.404484        0.653493        0.184086
LJ           1.21475        -2.50753        -2.21796
LJ          -1.55761       -0.722093        0.649731
LJ           2.01508       -0.547042        -1.92456
LJ         -0.753788       -0.318209        -1.12583
LJ           2.02194        0.928803         2.54947
LJ          -2.47785        -1.09684         1.63231
LJ           1.50984         2.40647         1.77393
LJ              -nan            -nan            -nan
LJ          0.771184        -1.19709       -0.773593
LJ          -2.40607       -0.516316        0.202236
LJ           2.46487       0.0862203         1.33279
LJ         -0.742871         1.70068        -1.02246
LJ           1.68312         1.41406        -1.61133
LJ           2.39283        -2.13799       -0.929476
LJ           2.22366         1.55446        -1.01444
LJ           0.85974      -0.0955421         2.09441
LJ           2.46574         2.51646          1.5671
LJ          -1.24654         2.18225         1.64041
LJ           1.33376        0.443067       -0.242769
LJ           2.56082        -1.72956        -1.00019
LJ           1.95651         2.15688        -1.71494
LJ          0.884457        0.307354        -1.24005
LJ           1.51194         1.44139         1.34021
LJ             -1.01         2.01414         -2.1731
LJ            1.7447        -1.65201        0.995959
LJ          -1.75198       -0.190697         1.65288
LJ           1.54899        -2.32638         1.40262
LJ          -1.81577       -0.381493        -2.20164
LJ          0.851211         -1.5416         2.32747
LJ              -nan            -nan            -nan
LJ          -2.49546          1.5151         1.73116
LJ         0.0956575        -1.58989       -0.357908
LJ          -1.91239         1.51713         -1.6623
LJ          -1.71408         1.55522          2.1823
LJ           1.76484        0.105098       -0.193116
LJ         -0.779871         1.22494        -1.93615
LJ          -1.47081         1.20604        0.741053
LJ         0.0132577        -1.13839       -0.730381
LJ           1.95377         2.14539        0.164992
LJ          -1.94901        0.902464        -2.24981
LJ          -1.65724        0.120093       -0.624563
LJ        -0.0953861         2.24402        -2.43597
LJ        -0.0277737         2.46546       -0.601597
LJ           1.08473       -0.826336       -0.418109
LJ           2.54011         2.35169         1.23734
LJ          -1.23759      -0.0734549         -2.0585
LJ         -0.496261         1.55661         2.44915
LJ         -0.526642        -1.45868       -0.813227
LJ         -0.421027       -0.762826          2.4052
LJ          -1.56699         0.61066        0.419411
LJ          0.430112        -1.37987         1.13325
LJ           2.32397        0.600604        0.678816
LJ            -2.156          2.0021        0.480822
LJ         -0.265266        0.210386         1.60393
LJ         -0.111659         1.61495         1.54901
LJ          -2.29307         1.41438        -2.32751
LJ          0.137123        -2.06534        -2.05747
LJ          0.138625        0.747785        -1.80736
LJ           2.41352        0.964248        -2.55975
LJ            2.4434         1.61742         1.73701
LJ          0.152821         1.97239         1.11031
LJ          0.479729        0.341211         1.97856
LJ          0.631002         0.69251         1.05009
LJ           2.52178        -0.52933        -1.54671
LJ         -0.803206         2.31645         -1.2576
LJ           2.48229         1.59591         -1.1349
LJ           0.58772         1.45531        -1.85643
LJ         -0.487091       -0.391172        0.762757
LJ         -0.480375       0.0847394       0.0241659
LJ           2.25901           1.968         1.29563
LJ       -0.00720689         1.61659         -1.6379
LJ          0.011503       -0.731492        -1.22707
LJ           2.26541         2.13304         -1.0985
LJ         -0.723692        0.399743       -0.338066
LJ        -0.0520812         1.81632        0.728046
LJ         -0.818012        -1.47148       -0.200041
LJ         -0.777014       -0.326908         1.03666
LJ         -0.984512         -1.3003        -2.30281
LJ          -1.31267         2.02527        -1.56055
LJ         -0.315105        -2.14913        -1.31138
LJ         -0.488842         2.32702        0.597585
LJ          -1.72779       -0.247926         2.56334
LJ          -1.07395        0.268036        -1.48242
LJ           1.05194       -0.706604        -1.51518
LJ           1.35429       -0.293376        -2.35695
LJ          0.195823        0.575324        -1.57125
LJ           1.64352          1.4345       -0.729435
LJ          -1.93472         1.10524         1.17747
LJ           2.41539         1.26775        0.539655
LJ          0.781233         1.91231        -1.91274
LJ          -2.26778        -2.16131        -1.06666
LJ          -1.13595        -2.08672       -0.628395
LJ            -1.826         1.14328         1.87134
LJ           1.83465       -0.909714        0.398702
LJ           1.35798         1.84673         2.20687
LJ          0.919264        -1.04974        -2.55994
LJ           1.93638        0.913108         2.03126
LJ           2.07194         -1.4574         2.29222
LJ          -1.71341         -2.5595        -2.32455
LJ           1.55681         2.47328        0.836652
LJ            1.7422        -1.22823       -0.510347
LJ           2.24321         2.22739       -0.199125
LJ          -0.25646        -2.36677        -1.29045
LJ          -1.00564      -0.0454812         1.68136
LJ           2.13731       0.0417463         2.31461
