108
#Comment!
LJ           2.39609        0.294853         -2.3837
LJ          0.600227        0.718759         1.23191
LJ           1.12536      -0.0285938        -1.70222
LJ          0.580616       -0.391382        -2.20879
LJ         -0.448572       -0.295664         1.40431
LJ         0.0937618         -1.4525        -1.76642
LJ           2.24208        0.563625        -2.08319
LJ          -2.54536       -0.384433           1.768
LJ           1.68304        -1.03503        0.939853
LJ         -0.581059        -1.85276        -1.19466
LJ              -nan            -nan            -nan
LJ         -0.909953        0.677708         1.62006
LJ          0.149656         1.89699          1.7363
LJ          -1.08664         1.64004         0.22059
LJ          -1.16258       -0.297691          1.8378
LJ              -nan            -nan            -nan
LJ              -nan            -nan            -nan
LJ              -nan            -nan            -nan
LJ          0.156852        -1.74105         2.31639
LJ              -nan            -nan            -nan
LJ           1.87518         1.89276        -2.11213
LJ           1.08001        -1.24698        0.817819
LJ          0.206702       -0.751987       -0.435695
LJ          -1.34047        -2.21917        -1.16426
LJ          0.518626         2.01933        0.814446
LJ          -0.88908       -0.563687       0.0836885
LJ         -0.637497        -1.23798         2.37738
LJ          0.194309        -2.30418        0.128592
LJ          -2.47554        0.356705        -1.86208
LJ         -0.326946        -2.11199         2.38056
LJ          -1.21275       -0.264662        0.382308
LJ           1.95127          0.0529         2.11166
LJ              -nan            -nan            -nan
LJ           2.24036        0.287595       -0.912531
LJ              -nan            -nan            -nan
LJ          -1.02776         1.59429         -1.1289
LJ         -0.099161         1.14616        -1.97154
LJ          0.318028       -0.924095         2.44678
LJ         -0.556141        0.190971        -2.16284
LJ           1.98079          1.5788         1.66798
LJ           2.52375        -1.99303        0.166499
LJ          -2.52273         1.58263       -0.853136
LJ          -1.71554         2.01073       -0.761996
LJ           1.66067        -1.30055       -0.694797
LJ          -1.79821        -1.39424         2.10364
LJ          -1.73472        0.946699        -2.38129
LJ          -1.50065         2.26473        -1.80395
LJ         -0.379427        -1.18736        -1.42577
LJ           1.42366          -1.784        0.742153
LJ           1.78608        0.721373         1.12246
LJ          0.877643      -0.0940453        -2.26835
LJ           1.10159        -1.01065       -0.709709
LJ              -nan            -nan            -nan
LJ           2.19367         1.16874       -0.247677
LJ            2.2297         1.18728         1.21434
LJ          0.746433        -0.62553        -1.63876
LJ            2.5126         1.76052        0.335844
LJ          -1.22827         -1.4852        -2.33005
LJ         0.0683765         2.21874        0.885092
LJ         -0.363522       -0.405155        -1.69428
LJ          -1.82178        -1.47194        0.451336
LJ          0.350615        0.252909        -1.20836
LJ           1.22229         2.44763        -0.86434
LJ           1.46443         1.41396       0.0202828
LJ          -2.49269         2.26704        0.757424
LJ          0.995306         1.92194        -1.10568
LJ            1.5008        -2.04851         2.52583
LJ              -nan            -nan            -nan
LJ         -0.399169        -1.74825       -0.708693
LJ         -0.347011          1.0445        0.307392
LJ           1.87171        -2.06549        0.170291
LJ          0.526125         2.16199       -0.111456
LJ          0.996189       0.0126044         2.35857
LJ           1.37209        -1.54933         2.50718
LJ           -1.4135        0.486287         -1.3295
LJ           1.13597       -0.269886        -1.60497
LJ          -2.21192         1.61592         1.83138
LJ          0.549499         -1.3093        -2.48374
LJ          -1.72364       -0.320043        -2.09708
LJ          -1.15698        -2.00265         1.05108
LJ         -0.945824         1.44401        -1.43103
LJ         -0.587792         1.36845        0.622728
LJ           0.54776        -2.29252        -1.63541
LJ         -0.562587         1.17871         1.71003
LJ           1.05841        -1.70426        -2.04326
LJ          -2.00812         2.51185        -2.43011
LJ          0.876245         1.01776        -1.30689
LJ         -0.163306        0.636859        0.781545
LJ          -1.29398         2.16854         1.39368
LJ         -0.398302         1.63166      -0.0312878
LJ              -nan            -nan            -nan
LJ         -0.323308      -0.0810478        0.693304
LJ          0.180309        -1.20611        -2.43194
LJ          -1.94201          1.5908         1.24482
LJ           2.42855        -1.67158         1.02466
LJ           1.20687        0.550158         2.26496
LJ          0.993637       -0.510347        -1.69906
LJ          -1.42253     -0.00818903         1.26111
LJ              -nan            -nan            -nan
LJ          0.925569        -2.43574        -1.14085
LJ          -1.13005        -1.68579       -0.288259
LJ          -1.05733        -1.32427        -2.34352
LJ          0.961636         1.62353         1.49753
LJ          -1.35156        0.269947        0.600402
LJ           1.04089         1.77457          2.5265
LJ          0.732902       -0.659002         2.27413
LJ         -0.185915         -1.4192       -0.689365
LJ              -nan            -nan            -nan
