108
#Comment!
LJ         -0.259127        0.555818         2.56097
LJ          0.581468        -2.41478        -2.00333
LJ          -1.10117         1.26645        -2.01622
LJ         -0.650938        -2.14363       -0.543135
LJ           0.49948        0.927927        -2.51644
LJ           1.57835        0.477913        -1.81476
LJ         -0.199752       -0.386483        0.388994
LJ         -0.935338        0.126817         2.03507
LJ          -2.54257       -0.375869       -0.542688
LJ         -0.159475        -2.36504        -2.10837
LJ              -nan            -nan            -nan
LJ           1.84392        0.483393       -0.846182
LJ         0.0362103        -2.22326        0.955917
LJ          -1.93384          2.1611        0.540515
LJ           1.69083         1.04662        0.751276
LJ              -nan            -nan            -nan
LJ              -nan            -nan            -nan
LJ              -nan            -nan            -nan
LJ           2.02134         1.10394         1.03038
LJ              -nan            -nan            -nan
LJ          -1.75455         1.67627        0.339274
LJ          0.923012        -2.21504        -1.68353
LJ         -0.717316       -0.615883       -0.683148
LJ           1.78377       -0.433126          1.5261
LJ         -0.856333        0.379829        -1.73543
LJ          -1.80461        -1.57035        0.208135
LJ         -0.785633       -0.481183        0.383903
LJ        -0.0672657        -1.95167         2.51605
LJ          -2.48584         1.65062         1.68966
LJ          -1.97323        -1.20913       -0.973268
LJ          -1.00167         1.02745         1.22933
LJ          -1.35661        -1.28436         0.65082
LJ              -nan            -nan            -nan
LJ         -0.958342         0.24976         2.12663
LJ              -nan            -nan            -nan
LJ         -0.712648          1.7153         1.07819
LJ          -2.09372        -2.35897         1.09388
LJ          -1.70496        0.928252        -1.48183
LJ         -0.529163      -0.0887309        -2.45386
LJ           2.00728         1.53487          0.8285
LJ           1.57331       -0.847999        -0.71022
LJ           2.35156        -1.95484        0.266766
LJ         -0.680786        -2.38873       -0.739923
LJ           2.29891        0.520302         1.86382
LJ          -1.65627       -0.287863       -0.970765
LJ          -1.62077        0.863007        -2.47392
LJ           1.50117         2.30803        -2.45228
LJ           1.07408        -2.36721         2.51587
LJ          0.165701       -0.299015         1.54847
LJ          0.986998        0.252378        -1.64453
LJ          -2.23144       -0.946122       -0.986487
LJ          0.702211        -1.67292        -2.21951
LJ              -nan            -nan            -nan
LJ           2.17256       -0.319603         1.01182
LJ           1.01732        -2.55035         2.27224
LJ         -0.460219        0.220523         1.84543
LJ           1.98317        -2.44739       -0.745146
LJ         -0.629718        -1.29371          1.3049
LJ          -2.42739         1.01617         1.48905
LJ           0.19969        -1.51245         2.48594
LJ         -0.491785         2.54314        -2.05584
LJ           -1.5906        -2.43241       -0.876301
LJ          0.555499         2.49413        -2.37881
LJ          0.214517       -0.480434       -0.763991
LJ          0.513173        0.287681        0.812702
LJ           2.24752        -1.91451        0.763391
LJ          -0.92278        -1.01326       -0.461214
LJ              -nan            -nan            -nan
LJ          0.601312         1.04993         1.26055
LJ          0.251267         2.01958       -0.422935
LJ          -2.44536       -0.789759        0.403186
LJ          -1.38629        -1.66643        0.614882
LJ           1.80138       -0.305028        -1.88978
LJ          -2.00926         2.31635         1.62493
LJ           1.49057        -2.27118        0.972317
LJ           1.53452        0.987148       -0.816801
LJ          -2.41036         1.77173          1.4071
LJ          -2.53377       -0.712923        -2.53726
LJ           0.67295      -0.0613212        -1.79928
LJ           -1.9306        -1.23315       0.0855499
LJ           1.19609         1.51884        0.807945
LJ            2.2184        -2.34991       -0.784302
LJ          0.961565        -0.53189       -0.512911
LJ          -2.40501          2.4812         0.60892
LJ           1.36177         1.54626       -0.474656
LJ           1.64634        0.764199         1.60549
LJ         -0.929296         -2.2831       -0.180079
LJ           1.57685        -2.03721          0.2969
LJ           1.99356        0.141115        -1.39917
LJ           2.32421          1.7448          1.0834
LJ              -nan            -nan            -nan
LJ          -1.26774        -1.25408        -1.50854
LJ         -0.179165        -2.44221         1.86664
LJ          -1.58109         1.42977          2.0307
LJ           -1.6262         2.31342       -0.471048
LJ             -1.84        -2.49326        0.622871
LJ            1.8431         2.03938        0.874172
LJ          0.397842       0.0151182         1.47323
LJ              -nan            -nan            -nan
LJ          0.538205        -1.56535        0.233578
LJ          0.246799        -1.94469        -1.81116
LJ          -1.94033        0.736823        -1.42147
LJ          -0.45774        -1.43301         1.21062
LJ           1.34086       -0.269697         2.52843
LJ           1.29139          1.2117        0.889822
LJ           2.48396         2.07008       -0.919438
LJ           1.12007        0.334467        0.250814
LJ              -nan            -nan            -nan
