108
#Comment!
LJ            1.1722        0.186085          0.6368
LJ         0.0239765        -1.37067        -1.41726
LJ         -0.538168        -1.57959        0.352627
LJ           2.28872       -0.116155         2.16837
LJ           1.80318        -2.56402        -2.23784
LJ           1.97007         2.09335         1.87075
LJ           1.68227        -1.55562        -2.50204
LJ         -0.380506       -0.582604        -1.16803
LJ          -1.63221        -1.63967        -1.03883
LJ           1.96861        -1.63562        0.755075
LJ              -nan            -nan            -nan
LJ           2.36103        0.627291       -0.876099
LJ          -2.55987        0.370787         1.76704
LJ              -nan            -nan            -nan
LJ          -0.46996       -0.444409        -1.39444
LJ              -nan            -nan            -nan
LJ              -nan            -nan            -nan
LJ              -nan            -nan            -nan
LJ          -2.07295        -2.06765         1.41983
LJ              -nan            -nan            -nan
LJ          -1.07253         -2.1086        -2.04244
LJ          0.531047        -2.12041         2.31498
LJ            2.4836         1.73426        -1.42705
LJ           -1.9101        -2.45852          1.8185
LJ           1.37548       -0.532272       -0.384365
LJ           0.11929        -2.04791         2.39682
LJ         -0.601375         0.57115        0.343405
LJ           1.55003      -0.0952548       0.0206246
LJ          -1.00315        -1.11344         1.98322
LJ           1.76272        -1.67925        -0.24584
LJ              -nan            -nan            -nan
LJ          -1.25408        -2.06378       -0.658668
LJ              -nan            -nan            -nan
LJ          -2.21536      -0.0505198          2.4593
LJ              -nan            -nan            -nan
LJ         -0.643806         1.12832       0.0684608
LJ          -1.01483       -0.590272       -0.833053
LJ          -1.65321         1.15011         -1.4392
LJ            1.8139         1.84183        -2.02479
LJ          -2.30253        -1.76884       -0.292109
LJ           2.55412       -0.294203         2.46581
LJ         -0.713591        -1.73708          2.4551
LJ         -0.593496        -1.02697        -1.97536
LJ           2.26547        0.976505        0.419712
LJ          0.389484         1.68763       -0.539563
LJ          -2.17511         2.22046        0.447882
LJ         -0.625316         1.49703         1.27696
LJ           1.77439        0.299538        0.484402
LJ           2.26129        -1.77412        -1.44639
LJ           -1.3697      -0.0662674         2.25221
LJ           2.16553     -0.00408808         -1.6893
LJ           2.09135         -2.1073        0.178224
LJ              -nan            -nan            -nan
LJ           1.03565         1.25199         1.87433
LJ        0.00920386       -0.389644        -2.08292
LJ           1.54922         2.40904         1.56917
LJ           2.23612         2.24198        -2.43262
LJ          -1.38751       -0.269974       -0.916418
LJ           2.28634        0.963711         1.49197
LJ          0.759995       -0.281859         -1.2978
LJ           1.96963         1.80184        0.307908
LJ         -0.604905       -0.666745       -0.077462
LJ          -2.40991         2.48651       -0.278468
LJ           1.49222        -1.01474         1.12797
LJ              -nan            -nan            -nan
LJ         -0.286422         1.36151         1.35487
LJ         -0.386512         1.52906         1.87644
LJ              -nan            -nan            -nan
LJ         -0.805221        0.687776         1.46944
LJ          -1.88076       -0.449703        -1.90527
LJ           2.51425          2.4414        -2.33146
LJ          0.231967         2.53815         -1.3563
LJ          -1.25002         1.68934        -2.18396
LJ          -2.33883        0.725193        0.539045
LJ         -0.756277        -2.25316         1.33928
LJ          -1.55838        0.751399           1.968
LJ          -2.23285         1.67241        -0.70005
LJ         -0.402264       -0.426064        0.501112
LJ          -1.09052       -0.570992          2.2966
LJ          0.810531        0.472761        -1.67214
LJ           1.43456        -1.99742        -2.35644
LJ           1.01151         1.60193         1.48881
LJ          -1.06582       -0.221681         1.22976
LJ           1.80056         2.41562       -0.730128
LJ         -0.137512         1.87313         2.06031
LJ          -1.72934       -0.902172      -0.0618784
LJ          -1.22556         2.15105         1.10014
LJ          -1.99194       -0.835124        0.691192
LJ           2.41777         2.25483        -1.57682
LJ          -1.90626       0.0986299       0.0512579
LJ              -nan            -nan            -nan
LJ           1.79174        -1.23259        -2.51119
LJ           1.79907       -0.463641        0.544312
LJ          0.057359       -0.784557        0.881081
LJ          -1.05453        -0.41032      -0.0829371
LJ           2.35054         1.78442       -0.591251
LJ          -1.23573       -0.571055        -1.22212
LJ         -0.959754        -1.47457        -1.64163
LJ              -nan            -nan            -nan
LJ           1.40122         2.30382       -0.711079
LJ          -1.09437         2.01793        0.455847
LJ          -1.43753        -1.51179       0.0866074
LJ           1.27456         1.96827         2.07157
LJ         -0.414848          1.9861        -1.11582
LJ              -nan            -nan            -nan
LJ        -0.0475141      -0.0253068        -1.35887
LJ        -0.0138781        -2.53119         1.53573
LJ              -nan            -nan            -nan
