108
#Comment!
LJ           1.52737         2.47066       -0.741693
LJ          -1.51712         2.22599        -1.08722
LJ           1.26579        0.878384        0.785711
LJ           1.94931       -0.797583        -1.53906
LJ         -0.973222       0.0902596        -2.37504
LJ           -2.4123       -0.644677       -0.508215
LJ          0.635412         1.69961       -0.965529
LJ           -1.8089       -0.778951        -1.04095
LJ          -0.94957        0.243988        -2.31138
LJ          0.266591        -1.17572        -2.17025
LJ              -nan            -nan            -nan
LJ          0.850315          2.4366        0.964236
LJ           1.10334        -1.87748        -1.86054
LJ          -1.83269         2.19429        -1.14641
LJ         -0.854663         1.20269         1.72989
LJ          0.280322       -0.526066        0.722399
LJ          0.254262         -1.2303        -1.70953
LJ           1.14819       0.0332193        -1.49161
LJ            1.9931        0.918371       -0.605009
LJ         -0.945146        -1.17067        -1.55842
LJ        -0.0534807         0.17678       -0.156789
LJ          -1.83104         1.95952         1.57225
LJ          -1.48178         -2.1649         1.59537
LJ          -1.24585        -2.38417         2.45378
LJ         -0.697289      -0.0209445         1.27112
LJ          -1.07283         1.42801        0.671418
LJ           1.38639          1.8459      0.00285865
LJ          -1.71076       -0.737453        -1.02461
LJ            1.8637         1.76253         1.08848
LJ          0.385728         1.69051        -1.70829
LJ          0.497839        -1.85852        0.110439
LJ          -1.24764        0.553215        -1.48753
LJ              -nan            -nan            -nan
LJ          -1.03745        0.792548       -0.426393
LJ              -nan            -nan            -nan
LJ          -1.15037        -2.13185         1.28448
LJ         -0.362689        -2.30937        -2.35405
LJ         0.0869125       -0.445668        -1.79503
LJ         0.0813451         1.00189         1.66353
LJ          -1.62895        0.313083         1.59504
LJ           1.48365        -2.43022       -0.027096
LJ           2.05827        -2.29932        -1.90889
LJ            1.4288        -1.72475         1.56648
LJ           1.47511        -1.63535         1.05794
LJ          -1.85597         -0.5147        -1.27677
LJ          -1.64344        -1.18887        -1.11516
LJ          -2.33119       -0.353905        -1.65045
LJ           1.90456       -0.372726        0.517421
LJ           2.38337        0.261973        -1.82983
LJ           1.97839        -1.25273        -1.30828
LJ           1.67088         -1.6259         1.71985
LJ          0.792813        -1.83968         -0.8453
LJ           1.14649        -1.68711        0.376228
LJ          -2.00451        -1.63136        -1.20817
LJ           2.22607        0.375668       -0.687175
LJ           0.97576       -0.388696         -2.0024
LJ          -1.48344        0.862743         1.44585
LJ          0.891386         1.69933         2.22161
LJ         -0.786136        -1.33409        0.252146
LJ          -1.09011        -1.75109        -2.15348
LJ         -0.192635        0.310334        -2.08005
LJ           1.97783         0.20563        -1.25499
LJ          -2.55707       -0.173885        -1.83959
LJ         -0.810249         0.58262        0.922163
LJ         0.0927384         2.17606        0.971313
LJ           -1.8329        0.574855        -0.39433
LJ          -1.44459        -1.38001         1.79454
LJ              -nan            -nan            -nan
LJ           1.17862        -0.80943       -0.824349
LJ          0.918791        0.643349         1.08964
LJ          -1.66033       -0.475129        0.391142
LJ           2.09417        0.221907       -0.891209
LJ             0.013       -0.857376        0.279966
LJ           2.32902       -0.814454        0.358009
LJ          0.274388         1.08794        -1.21768
LJ         -0.515923        0.907361        0.559719
LJ         -0.442984        -2.53148        -1.63593
LJ          0.796279        -1.12388        0.907563
LJ          -2.33354        -1.14238        -1.97194
LJ          0.875956        -1.53449        -1.90456
LJ          0.634895         2.40571         1.72973
LJ            2.0696        0.685521       -0.252357
LJ          -2.08854         2.56048        -1.88952
LJ          -2.07211          2.5132         2.15635
LJ         -0.293762        -2.51169        -2.10479
LJ            2.0263        0.215716       -0.700774
LJ            2.1174         2.18542         -1.7727
LJ          -2.34851        -1.85827        -1.77031
LJ          -1.56923        -1.09645         -2.0512
LJ          0.337244        -1.40647       -0.594266
LJ          -2.35818        0.947632        0.180839
LJ          -1.27592         0.31612       -0.264766
LJ          -1.52675        -1.17667         1.56174
LJ           2.23573        0.333282         1.19619
LJ         -0.831633        -1.77819       -0.195464
LJ          0.971829       -0.518457        0.756373
LJ         -0.682474        -2.40495       -0.139976
LJ         -0.185453         1.56332        -2.09897
LJ         -0.606606         2.01353        -1.28352
LJ          0.401126        0.318766        -2.12744
LJ          -1.65151       0.0459513        -2.02199
LJ          -2.21983         1.33185        0.154195
LJ         -0.817762       -0.850573          1.7659
LJ          0.251927        -1.47424         2.12146
LJ           1.59503        -1.53362        -1.18564
LJ           0.35704        0.522893       -0.774002
LJ           -1.8196        -2.30611        -2.42242
LJ           -1.4671         1.54118         1.42352
