108
#Comment!
LJ         -0.870738        0.642495        0.799845
LJ            1.5462       0.0315473        -1.11946
LJ          0.586587        0.567332        0.516352
LJ        -0.0646068         0.83243       -0.998684
LJ          -1.11181       -0.629923         2.56489
LJ          -1.47556         1.74508        -1.74836
LJ         -0.063409        0.709833       -0.221192
LJ          -2.32437        -1.73693         1.72924
LJ            1.0767        -2.45498        -0.25793
LJ           2.36825          1.1509        -2.32365
LJ              -nan            -nan            -nan
LJ          0.420259        0.779038        -1.22466
LJ           2.05237       -0.287178         2.22555
LJ          0.879062         1.61195         1.08062
LJ            2.3871         2.11401         0.63183
LJ          -1.59101       -0.994752       0.0485339
LJ         -0.741364         1.03776       -0.596581
LJ           1.73363        -2.42208        0.867576
LJ           1.86478         1.17615         1.89809
LJ          0.474214        0.714372        -2.22983
LJ         0.0775109         2.39848       -0.316982
LJ          -1.99795         2.07091        -1.08902
LJ          -2.28348        -2.33874       -0.754955
LJ         -0.117163        -1.79214        0.927721
LJ          0.518268         2.13077       -0.218178
LJ           1.80077        -2.50913         1.51296
LJ         -0.711209         2.16873         2.40239
LJ          -1.79949       -0.196414       -0.298987
LJ           1.37982       -0.768739        -0.27052
LJ          -1.31027        -2.03172        0.295728
LJ         -0.379643         1.23019       -0.995078
LJ          -1.87661        -1.15766        -1.53853
LJ              -nan            -nan            -nan
LJ          -1.79878         2.31629        -1.11568
LJ              -nan            -nan            -nan
LJ          0.999537         1.69096         0.46024
LJ          0.470145        0.959723         1.87319
LJ         -0.346277         1.84966         2.12258
LJ            2.0243        0.566693         2.40788
LJ          -1.03426      -0.0969722        -1.53706
LJ         -0.449794         2.08977         2.09005
LJ           0.86782        -2.20883      -0.0828259
LJ         -0.807604         1.91269       -0.568501
LJ          -1.69079         2.19859       -0.575864
LJ          -1.78317       -0.708416       -0.667961
LJ         -0.520318        -2.38892         1.39957
LJ           1.77828          1.9931        -1.72317
LJ        -0.0223072        0.780212        -1.10302
LJ           -2.5498        0.502096        0.101255
LJ          -1.26069         1.53471         1.85608
LJ           1.66985         1.20932         2.06119
LJ           1.46989        -1.65395        -1.05092
LJ          -2.03511         -0.1416        0.196615
LJ           -1.1185        -0.43111        -1.04192
LJ          -1.25887        0.941044       -0.919589
LJ          -1.87762        -1.00856       -0.314875
LJ           1.15424       -0.714065        -1.16019
LJ           1.74843         1.06611         1.65145
LJ           2.19436       -0.695828        0.297306
LJ          -2.00644         1.66946          1.0165
LJ          -2.04667         1.92259        -2.09863
LJ           1.52125         0.54777         -1.2671
LJ           2.22985       0.0871757       0.0535068
LJ         -0.709429         1.25245       -0.584928
LJ          -2.07087         1.52662       -0.487111
LJ            2.3497        0.894175         1.80159
LJ          0.892173         2.02264        -2.20002
LJ              -nan            -nan            -nan
LJ          -1.62767        -1.34219         1.76625
LJ           1.11432         1.74204        -0.98675
LJ          -2.30022         2.50484         1.49546
LJ           2.50356       -0.666327       -0.107379
LJ           2.08277       -0.567257       -0.782888
LJ           -1.5545        -2.25893         1.16983
LJ            1.5204        -1.18914        -1.70286
LJ         -0.138115      -0.0663751         2.55453
LJ            1.1357        -2.06347        -1.42667
LJ          -1.15086        -1.64263        -2.22876
LJ         -0.408154       -0.344495        -2.26009
LJ          -1.76506       -0.781311        -1.46434
LJ          -1.25281        -1.05972        0.331585
LJ          0.893761        0.142977         2.38448
LJ           2.30236        -1.75824        -2.43524
LJ          -1.81385        -1.06646        0.990584
LJ         -0.401963         1.09319        -0.72111
LJ           1.86888         2.38841         1.16901
LJ          -2.11197        0.467856        -1.99611
LJ          -1.85538         2.53457        0.836067
LJ          -1.67134         -1.4035         -2.0028
LJ          -2.40162         2.38389       -0.506056
LJ          -2.05475      -0.0733298        -0.48627
LJ           2.17401         -1.2559       -0.375373
LJ         -0.651178        -1.61199        -1.41593
LJ          -2.27287        -1.41748       -0.475339
LJ          0.235786       -0.202818         1.98476
LJ          -2.01118        -2.15749         2.31232
LJ           0.61579         1.80562         2.44383
LJ           1.59918         -2.0897         1.28712
LJ          0.400513       -0.700659        -1.86888
LJ           1.38402        -2.06112         1.04075
LJ          -1.91941       -0.790686         2.04613
LJ           -1.1729         -2.2675        -1.15846
LJ          -1.27237         1.62897         2.54644
LJ         -0.240231        -2.28598       -0.808492
LJ          0.691263         2.43884        -2.16561
LJ          0.208046        -1.32425        0.175011
LJ          -1.06051        -2.30301        -1.02761
LJ         -0.568442       -0.481061         1.52007
