108
#Comment!
LJ          -2.33121        0.884544        0.342943
LJ           1.83518        -1.78046         0.42913
LJ           1.81025         1.65384        -2.40436
LJ         -0.720997        0.148701        -0.85327
LJ         0.0026617         2.10465         1.92731
LJ          -1.31402        -1.31136        0.866402
LJ          0.619499        0.279491         1.40876
LJ           1.27675        -1.69827       0.0803983
LJ           2.33947        -1.15173        -1.67189
LJ           1.85319         2.52817        -2.09582
LJ              -nan            -nan            -nan
LJ           2.51842        -1.20332        0.413557
LJ         -0.720641       0.0207417        -1.73314
LJ          -2.21698          2.1752         2.19005
LJ         -0.762686         1.53959         2.43911
LJ         -0.793997        -2.00061       -0.636235
LJ              -nan            -nan            -nan
LJ              -nan            -nan            -nan
LJ          -2.42322        0.912405        0.797857
LJ              -nan            -nan            -nan
LJ          -2.25222        -1.02802          1.4431
LJ          0.673681        0.535131        0.285032
LJ          -1.78432       -0.167185       -0.331099
LJ           1.48599        -2.31374         -2.3141
LJ           1.45885        0.702163        -1.45935
LJ         -0.502696         2.03036       -0.873438
LJ           2.24047        -1.26808         0.43137
LJ           -1.3849         -2.4403        -1.24344
LJ          -1.81085       -0.151673       -0.236585
LJ          -1.23146        -2.07266        0.905263
LJ         0.0222654         -1.7153       -0.704952
LJ          -1.69048      -0.0514498       -0.162699
LJ              -nan            -nan            -nan
LJ           1.01361         2.36682         1.27629
LJ              -nan            -nan            -nan
LJ         -0.705664         0.25208       -0.752415
LJ          -1.47726        -1.28452         1.23917
LJ            1.9984         1.36284        -0.68443
LJ           1.16887         1.24196         1.38446
LJ         -0.757478         1.88161         1.03825
LJ           1.68308        -1.25982         2.38552
LJ           1.10621       -0.283803         -2.1506
LJ          0.390354        -2.21887        0.673124
LJ         0.0927639        -1.09115        -2.18004
LJ          -1.54105        0.244536      -0.0498087
LJ          -1.90006        -2.54605        -2.50754
LJ          0.938669        -0.66063         1.88479
LJ          0.532832         1.91296        0.607717
LJ           2.55828         2.07255       -0.269476
LJ          0.864303        -1.24536        -1.55966
LJ          -0.67436        0.863247         1.89074
LJ          -1.91861        -1.43501      -0.0772467
LJ              -nan            -nan            -nan
LJ           1.86864         1.92101       -0.815391
LJ          0.791546        -1.94961        -1.84978
LJ          -1.72975         1.80527        -0.97576
LJ           2.31817        -2.51246        -2.03203
LJ           1.70607        -2.15527        0.443494
LJ          -2.56248         1.55887        -2.54148
LJ           2.37996        -1.08815        -1.25437
LJ           1.07033         1.05762        0.510083
LJ           1.32222          2.3541         2.48024
LJ           1.73734         2.38716       -0.294974
LJ          -1.55461        0.780112         2.50092
LJ            1.3274       -0.512364       0.0242391
LJ          -1.68816        -2.52855         1.13968
LJ          -1.56503         1.25439        -1.45612
LJ              -nan            -nan            -nan
LJ          -0.47451        -1.06819         1.03902
LJ           1.57568         1.79961         2.23102
LJ         0.0151959        -1.29985        0.166242
LJ           2.42601       -0.209777         1.80192
LJ         -0.943659        0.979433        0.954257
LJ          -1.14547        -1.35393       -0.685531
LJ         -0.105258        -1.92876         2.40842
LJ         -0.711914         2.15848        -2.20081
LJ          -1.19196       -0.881452         2.04738
LJ          -1.30664        -1.11481        0.488596
LJ          0.160946        -1.11337       0.0407333
LJ          0.384955        0.758983       -0.763809
LJ         -0.226558         2.50507       -0.405015
LJ          -2.34196        -1.08638       -0.701952
LJ       -0.00835703        -2.16983        -2.17218
LJ          0.341629         1.86293        -1.85165
LJ           1.84766        -2.25109         1.33487
LJ           1.31285       -0.943333        -2.55985
LJ         -0.486845        -2.22394        -1.64143
LJ          -2.34047         -2.3525      -0.0364106
LJ          -1.13566      -0.0582934       -0.894385
LJ            0.7284         1.26068        -2.19915
LJ              -nan            -nan            -nan
LJ          -2.05545        -1.48925         -1.7022
LJ           1.33033         1.99589       -0.464655
LJ           2.16106         2.26969        0.203472
LJ           1.10179       -0.314879       0.0596749
LJ           2.56085         1.71331        0.713225
LJ           0.55749        -2.52802        -2.06569
LJ          -1.64077       -0.517974       -0.316041
LJ           2.03655       -0.608584        0.496349
LJ           1.69798        0.184482       -0.732558
LJ          0.578422        -1.26942        0.372468
LJ          0.447916        -1.95248        -2.50445
LJ          -1.01497        -1.14011        0.721065
LJ          0.504298        -1.44099        0.302062
LJ         -0.444373        -1.74354       -0.401234
LJ          0.303638        -2.13705          0.8649
LJ           1.04495       -0.840646        0.519277
LJ              -nan            -nan            -nan
