108
#Comment!
LJ         -0.981288        -1.72772       -0.233061
LJ            2.0673         1.22125         -1.3667
LJ          -1.66611         2.02804         1.38361
LJ         -0.100583       -0.447901         1.05685
LJ          -1.13295         2.03353        0.434007
LJ          -1.06381        -1.13898        -1.09956
LJ           2.10936        0.691882         0.55816
LJ           1.83326        -1.11735        -2.46935
LJ           2.28055         1.45704        0.659012
LJ         -0.858338          1.0205        -1.47601
LJ              -nan            -nan            -nan
LJ          0.944074        -1.39652        0.853004
LJ          -2.42447        -0.49218         1.41346
LJ           2.16196       -0.118067         2.11067
LJ          -1.95964         1.85025         1.44245
LJ          -1.56448         1.67169        -2.21677
LJ           1.89294        -2.23085         1.43346
LJ          -1.15857         1.55645       -0.918064
LJ          -2.15861        -2.16118         2.02485
LJ         -0.235096        -1.39987        -1.79988
LJ          -1.54451       -0.223775        0.184331
LJ          0.122708        0.722604        -1.45508
LJ         -0.436742         0.10172        -2.13567
LJ         -0.720299        -1.20003        -1.02862
LJ          0.150363       -0.291648        0.744541
LJ           -0.3526        -1.34138         1.64837
LJ          0.430938        -1.16525       -0.738798
LJ           -2.2419        -2.36842         1.03564
LJ         0.0991879        0.960142         1.26775
LJ          -1.96933       -0.671765        -2.15117
LJ           2.01751         1.49853       0.0915719
LJ           1.93496        -2.53406        -1.71948
LJ              -nan            -nan            -nan
LJ            2.0954       -0.291932         2.31679
LJ         -0.413678        -1.60511         2.41581
LJ            1.8986        -1.48144        0.426785
LJ           2.43618        0.456187       -0.847889
LJ          -1.41482         1.44382       0.0760103
LJ         -0.852748        -1.07619        -2.34781
LJ          -1.01238         1.01193         -1.8903
LJ         -0.379435         1.02771         2.10485
LJ         -0.308591         1.23013         2.44036
LJ          -2.32545         2.02344         1.82858
LJ          -1.14401         1.19122        -2.00828
LJ           2.19973         2.24062         1.24006
LJ           -2.0199          2.0222         1.87863
LJ            1.4653       -0.120252        -1.79438
LJ           1.30842       -0.650865        -1.41161
LJ          -0.84041         1.78159         1.17829
LJ          0.700496        -1.35294       -0.911519
LJ         -0.330641        0.976942       -0.983335
LJ          -1.34919       -0.572199        -0.18108
LJ           1.51283        -2.02886       -0.372342
LJ          -1.77079         2.52007       -0.322016
LJ         -0.539953        -1.54669        0.128767
LJ          -1.96455         1.90644        0.182537
LJ          -2.31642         1.96865         -2.0362
LJ         -0.501058        0.277769        -1.95576
LJ          0.486792         1.53998         -1.0956
LJ          0.905785        0.820209       -0.836491
LJ         -0.977837         1.73504       -0.771399
LJ           -2.2777         1.92653        -2.09097
LJ          -1.12882        0.952364         1.55054
LJ          -2.29362       -0.281071        -1.01378
LJ          -2.43804       -0.185655          2.3823
LJ          -0.41538        -1.46037        0.897749
LJ         -0.524886         1.69152        0.123337
LJ           1.24843       -0.308438        0.917602
LJ          0.666573         1.44836         2.31286
LJ           2.10969         2.52703         -1.9516
LJ          0.561847         2.05056        -1.98345
LJ          0.482435        0.852132         -2.2099
LJ          -2.41791         1.49341         -2.2539
LJ          -1.08782       -0.331284        0.872255
LJ          -2.21355       -0.431195       0.0331084
LJ          -1.03104        -1.37788        -1.40689
LJ          -1.00726         1.23062        -2.20128
LJ          -1.63862        -1.97486         1.88387
LJ          0.956452       -0.659974         2.23068
LJ         -0.317585       -0.531673        -0.86082
LJ         -0.509079         1.06132       -0.381271
LJ         -0.592134       -0.795453        -2.09866
LJ           1.88631        -1.52957        -2.31516
LJ          -1.65384        -2.22312         1.94723
LJ          0.456727       0.0424543        -2.37617
LJ       -0.00219365       -0.642543      -0.0113853
LJ         -0.556053         1.70374         1.41194
LJ          -1.84062         2.52921         1.22365
LJ          -1.68917          1.5893        -1.94361
LJ           2.29686        -2.09423         0.23295
LJ           2.06418       -0.132867        -2.53549
LJ         -0.791077         2.42628         1.12011
LJ           1.75978       -0.538897        -1.54523
LJ           2.36865        -2.46978        0.367089
LJ          -1.09001        0.522874          1.6621
LJ           2.21173      -0.0769498        -0.68077
LJ           2.45646         1.72707         1.70112
LJ         0.0140757       -0.679375         1.36549
LJ          0.660524         0.39496       -0.313089
LJ         -0.758442        0.717831        0.117247
LJ         0.0501857          1.4546         2.07247
LJ           1.45783        -2.21326        0.833059
LJ          -2.16915        0.267187        -2.36427
LJ          -2.05933         2.24401        0.758742
LJ            2.4123       -0.763011        -1.09965
LJ          -1.18326        -1.78615       -0.429892
LJ          -1.26595        -1.38127       -0.851098
LJ           -2.1783        -2.35696       -0.486286
