108
#Comment!
LJ          -1.57467        -1.03065         1.95805
LJ           1.00022         1.39846         1.89481
LJ          -2.11794       -0.785449         1.11212
LJ          -1.42335       -0.130681         2.14761
LJ        -0.0209998         1.17269        -2.35667
LJ          0.709131         1.23738           1.391
LJ        -0.0117278        0.131831      -0.0246101
LJ           2.31109        -1.44055        -1.53637
LJ            1.4194        -1.53805       -0.233771
LJ           2.09991      -0.0542633        -2.44004
LJ              -nan            -nan            -nan
LJ           1.49281         1.50655         1.13771
LJ           2.25851         1.96015         1.88999
LJ         -0.577235        0.575456        -1.34187
LJ           1.49523       -0.602894         2.35507
LJ              -nan            -nan            -nan
LJ              -nan            -nan            -nan
LJ              -nan            -nan            -nan
LJ           1.73663        0.849317        0.832741
LJ              -nan            -nan            -nan
LJ          -0.67065        -1.76013        -0.20526
LJ          -2.48309        -2.55626       -0.914979
LJ         -0.823175        -2.15609         2.19492
LJ          0.737187         2.19255       -0.869708
LJ          -2.12492        -1.00709        0.491236
LJ           1.89172       -0.482624        0.732048
LJ            2.4468         -1.8806        -1.24464
LJ           -2.3898       -0.811207        -1.81115
LJ          -1.56162        0.172969         0.39903
LJ          -1.22078        -1.90347       -0.604653
LJ           1.87008         1.46746         2.30594
LJ           1.49187       -0.762206       -0.806805
LJ              -nan            -nan            -nan
LJ        0.00622559        0.931367       -0.132877
LJ              -nan            -nan            -nan
LJ           -0.4759        0.137248         2.11044
LJ          0.210402        -1.22965         0.68685
LJ          -2.16419        -0.25147        0.829295
LJ          -1.36283       0.0681216        0.284747
LJ         -0.202744        -1.51652         2.47066
LJ           2.12794         1.39187         1.04457
LJ         -0.798246          2.4998         1.37902
LJ          -1.11131         0.81308         1.26732
LJ           2.26375        -1.70463        -1.34194
LJ           1.26654       -0.815183        -2.34691
LJ           1.21872         0.86389        -2.15102
LJ           1.08541        0.635289        0.434253
LJ            2.3538         1.96196         2.12122
LJ          0.156074        -1.99542       -0.476314
LJ         -0.246573         2.55384        -2.48983
LJ         0.0556294        -1.19547        -2.25053
LJ          -1.77925        -1.21313           1.199
LJ              -nan            -nan            -nan
LJ          0.839734        -1.41467        0.153509
LJ           0.43581       -0.472366         1.27837
LJ         0.0487595        -1.46589        -1.88792
LJ          -1.67221         1.42942        -2.24062
LJ          0.770625       -0.355777       -0.135389
LJ           1.89453         1.26114         1.52663
LJ           2.00779       -0.671391       -0.041788
LJ           2.09034         1.66835         2.21637
LJ          -1.51953         1.95048       -0.714891
LJ         -0.759927        -2.23826         2.34723
LJ          0.777421        -1.16516       -0.680877
LJ           2.03127         1.92968         1.31855
LJ           1.85862         2.03031        -1.03748
LJ         -0.742196        -1.04013        0.494487
LJ              -nan            -nan            -nan
LJ          -2.55185        -2.29479        -2.21787
LJ          -1.25863       -0.762267      -0.0610363
LJ            -1.726       0.0183082         1.12429
LJ         -0.434136        -2.23852       -0.719885
LJ          0.648718        0.942531          1.2243
LJ           2.54404        -1.34467         1.59012
LJ          -1.26121         2.46386         2.38298
LJ         -0.584498        -1.50985         -1.4181
LJ          0.157129         -1.5689       0.0387889
LJ          -2.09426         1.01189        -1.32712
LJ         -0.705405        -1.09013        0.432606
LJ         -0.658612        -1.79705        0.284735
LJ           2.10921        -1.66986         -2.1767
LJ          -2.17688        -2.11446         2.07267
LJ          -1.87157         1.14357         2.39401
LJ         -0.529814        -1.34354         1.34382
LJ         -0.444962        -2.50185      -0.0869619
LJ          -2.22116         -1.2987        0.320056
LJ           1.51531         2.33324        -1.66427
LJ         0.0549977        0.382285         1.05719
LJ          0.639809         1.98749       0.0357586
LJ           1.93199         1.06202         1.82739
LJ              -nan            -nan            -nan
LJ           2.19826       -0.746425        -2.56457
LJ           1.00753        -0.71867         2.11952
LJ           2.38713        -1.38818       -0.574082
LJ          0.352323       -0.956755       -0.316178
LJ          -1.93294        0.786445          1.9728
LJ           2.43235         2.54432         0.77912
LJ          -2.52013       -0.298053       -0.895258
LJ              -nan            -nan            -nan
LJ            1.1138        -2.55294        -1.34604
LJ           2.34176         1.05216        -2.23819
LJ          -2.40392         1.06482       -0.717716
LJ          0.985664        -1.89153         2.03623
LJ         0.0802828         1.82489         2.40849
LJ            1.5521        -1.65764         2.54358
LJ         -0.777558        0.330567         2.55013
LJ           2.03562       -0.686653        -1.35878
LJ              -nan            -nan            -nan
