108
#Comment!
LJ           1.23158         2.01263         1.14975
LJ          -0.19841       -0.214121        0.773909
LJ           0.89258         1.86055         1.54248
LJ          -1.64853        -1.71899       0.0571858
LJ          0.629827        -1.28383         1.44438
LJ           1.47401        -1.13828        -1.12629
LJ            1.6313        -1.80783       -0.137775
LJ         -0.288481        -1.16206       -0.260036
LJ          -1.76333        -2.08567     -0.00189458
LJ           2.22526       -0.441357         1.67116
LJ              -nan            -nan            -nan
LJ       -0.00881688        -2.07965        0.183598
LJ          -1.44078         -0.1355        0.864716
LJ              -nan            -nan            -nan
LJ          0.252195         1.60537        -1.31598
LJ              -nan            -nan            -nan
LJ              -nan            -nan            -nan
LJ              -nan            -nan            -nan
LJ          -1.44036          1.7435         -1.2871
LJ              -nan            -nan            -nan
LJ           1.65763       -0.259191         -2.1785
LJ           1.42009         1.28381         2.30979
LJ           1.80501       -0.780026        -1.77112
LJ           -1.9202        -1.24666          2.5579
LJ          -2.17415        -2.13509        -1.84005
LJ          -1.19425         1.17535        -1.21014
LJ           2.41421        -2.46062       -0.460738
LJ          -2.38207        0.706089        -1.29863
LJ          -1.99536         1.46125        -1.22164
LJ           2.43975        -1.90999          1.9412
LJ              -nan            -nan            -nan
LJ           1.01416         1.25517        0.773942
LJ              -nan            -nan            -nan
LJ          0.866036        -1.64356         2.09309
LJ              -nan            -nan            -nan
LJ           0.27427        -2.40231       -0.854558
LJ           1.57957        -2.44832        -1.58446
LJ          -1.40145       -0.823325        -1.43727
LJ           1.61215         0.10042        -1.01508
LJ          -2.49396        -1.51135        -2.44308
LJ         -0.719243         2.29734        -1.74779
LJ          -1.51272         1.25347          1.6968
LJ            1.0016         2.42284         1.94541
LJ         -0.699903         2.30058         0.74574
LJ          -2.20977        -1.93602         2.26437
LJ          -1.62752       -0.144761      -0.0132747
LJ          0.505674        -1.40998        0.736957
LJ          -2.43876         2.03069       -0.926544
LJ           1.09253       -0.894883        -2.51013
LJ           1.36055        0.910082         1.47057
LJ         -0.115295        -1.39244        -2.37258
LJ           1.97916        0.477247         1.89028
LJ              -nan            -nan            -nan
LJ          -1.34613        -1.42214         -1.2971
LJ           2.06193        0.832354         2.48139
LJ          -1.52281        -2.35375        -0.96064
LJ        -0.0131657         1.47719        -2.02418
LJ           2.17009        0.382157         0.60118
LJ          -1.24484      -0.0362692         -1.9688
LJ           1.68591         1.71879        -2.22623
LJ          -1.62157        -2.52697        -2.28221
LJ          0.703771       -0.755074        -1.32751
LJ           1.60986         1.09326         1.75647
LJ           -2.2001         1.72746     -0.00329374
LJ              -nan            -nan            -nan
LJ           1.98522        0.679278         1.53564
LJ          -1.71706        -1.35189         1.58929
LJ              -nan            -nan            -nan
LJ          -2.16929          2.5124         1.42115
LJ          0.831963         2.24909       -0.196124
LJ           1.06832       -0.319604       -0.945306
LJ         -0.699353        -1.87143         -2.1143
LJ         -0.200011        -1.16749         0.81051
LJ         -0.554803         1.55459         2.15386
LJ          -2.01289       -0.576889        -1.64759
LJ           2.54727       0.0576976         -0.8918
LJ           1.27461        -1.73091         2.12646
LJ           1.72519        0.826606         2.07297
LJ          -1.85331        0.785041       -0.621538
LJ            1.3614        0.700906          2.1544
LJ           1.93026         1.81886         2.03123
LJ           2.15166       -0.344357         2.20132
LJ          -2.30623         1.32754        0.704512
LJ           1.29823        -1.41094        -2.31319
LJ          -2.40368        -1.61823         1.78021
LJ         -0.136125       -0.909445        -1.46466
LJ          -2.28649        -2.33129        0.205393
LJ         -0.996663         2.15766        -2.52657
LJ          0.525438        0.544336       -0.568509
LJ         -0.777933        0.629013         2.00286
LJ              -nan            -nan            -nan
LJ           -1.1384          2.0426         2.51742
LJ           1.84419         1.78178        -2.34458
LJ          -1.19842         1.42035         2.11284
LJ          0.570398          0.6964         1.96429
LJ           -1.1062         1.11535        0.280166
LJ         -0.152479         2.12417      -0.0904661
LJ           2.47632        -2.45609        0.914791
LJ              -nan            -nan            -nan
LJ           1.38635        -1.85607       -0.157306
LJ           2.43453       -0.720515          0.6967
LJ          -1.53525        -1.52169        -1.10996
LJ          -2.27892        -2.12903         1.52291
LJ          -1.37281        0.866168         1.60144
LJ              -nan            -nan            -nan
LJ           1.44791        0.508154         2.25624
LJ         -0.600176         2.45835        -1.42418
LJ              -nan            -nan            -nan
