108
#Comment!
LJ         -0.248626        -1.85107         2.38231
LJ         -0.432012         1.25913        -2.27807
LJ        -0.0910117        -2.55502        -1.05219
LJ         -0.954666        -1.87431        -1.08603
LJ        -0.0674171        0.811832        -1.67017
LJ            2.2376         1.22906         1.40472
LJ          -1.00039        -1.99614        0.164094
LJ          -1.42273       -0.552468       -0.574529
LJ           2.28393         1.68076        0.571507
LJ          0.329136       -0.953745       -0.396125
LJ              -nan            -nan            -nan
LJ         0.0226676         1.33741        -1.35593
LJ           2.28911       -0.355391       -0.797547
LJ           2.50297        0.829945       0.0875376
LJ          -1.56943       -0.341417        -1.28174
LJ           1.87833         2.39836         1.82088
LJ              -nan            -nan            -nan
LJ              -nan            -nan            -nan
LJ         -0.805334         1.85491        0.738189
LJ              -nan            -nan            -nan
LJ          -1.04431       0.0442508        -1.63786
LJ          0.594489         1.04777        -1.86775
LJ          -1.15422       -0.677411        -2.50196
LJ          -2.39736          1.0056        -1.38313
LJ         -0.899994       -0.446379         -1.1165
LJ           -2.1092       -0.567722       -0.320045
LJ         -0.386345        -2.10696       -0.257257
LJ           -1.5465       -0.055862       -0.789296
LJ           1.95658        -1.60016        0.165542
LJ          -1.95528         1.73848         1.08143
LJ           1.26099         1.37403        -1.78601
LJ         -0.577815        -2.20977      -0.0700558
LJ              -nan            -nan            -nan
LJ           1.36638         1.62198        -1.36611
LJ              -nan            -nan            -nan
LJ         -0.258971         1.25367       -0.992656
LJ           1.22645         1.83582       -0.536805
LJ          0.648637         1.82601        -1.76951
LJ         -0.979089         1.64646        0.829711
LJ          -2.11432         -2.0288          2.4487
LJ           2.53409          -2.142       0.0102666
LJ            1.8663       -0.916226         1.73689
LJ           2.18275       -0.189234        -1.79437
LJ          -1.32726        -1.73596        -1.41383
LJ           1.85892        -1.83261         1.25009
LJ           0.83585        0.263165        -2.26094
LJ          -0.94504          2.4655        -2.07022
LJ           2.44052         1.26416        0.330878
LJ         -0.953623        -1.31066       -0.710264
LJ         -0.636035        -0.81824         1.19888
LJ          -2.20203        -0.84886        -2.07797
LJ             0.273         2.19726       -0.613212
LJ              -nan            -nan            -nan
LJ         -0.702005         1.85254        0.395029
LJ           1.21718         1.53625        0.521023
LJ         -0.245635        0.971262          0.8778
LJ           1.03182        0.698149       -0.859144
LJ         -0.561129        0.452262        0.439065
LJ           1.69881        -1.33467       -0.299444
LJ           1.57379       -0.295491        -2.40525
LJ          -1.83301         2.46012       0.0187811
LJ            1.4333         1.35055       -0.910864
LJ          -1.87973         -1.1086         1.80373
LJ          -2.46993         0.95948        0.180834
LJ          -1.08727       -0.109873        -1.36538
LJ          0.177171        0.801743        -1.37546
LJ          -0.95171       -0.932707         1.69032
LJ              -nan            -nan            -nan
LJ          -1.88558         0.27681        -1.35908
LJ          -1.25676         2.06351         2.05116
LJ          0.816453        -0.86336        -2.23989
LJ          -1.62675       -0.995845        0.093391
LJ          0.636203        0.798821        -2.15323
LJ           2.43381        -1.47682         1.14565
LJ          -2.41454        -1.18911       -0.544719
LJ           1.82182       -0.136817       -0.556737
LJ         -0.551441        0.775092        -0.43745
LJ           1.82244        -1.25767         1.24446
LJ         -0.900775        0.823639        0.501308
LJ         -0.466975       -0.411171        0.227675
LJ         -0.157865       -0.692292         1.20604
LJ          -1.17156        0.114336        -2.55556
LJ         -0.707413       -0.250583        0.676892
LJ        -0.0912363        0.348555        0.276626
LJ           -1.8149         -1.1856         1.16355
LJ          -2.23924         1.70919         1.95405
LJ         -0.894965        0.799568         -1.2946
LJ           2.28066         1.96154        0.866613
LJ          -1.84734        -2.02128        -1.40397
LJ           2.17777         2.17808          1.3062
LJ              -nan            -nan            -nan
LJ           2.24461          2.1733        0.195187
LJ         -0.354721        0.594236        0.905188
LJ          -2.25329       -0.980072       -0.727347
LJ           2.51924        -2.37888         -1.1397
LJ           1.33739        0.725498        0.589539
LJ            2.3658        -2.06764         1.68604
LJ           1.00333         -1.4677         2.29401
LJ          0.396083         2.02316          1.4492
LJ           2.47184         0.67123        0.526025
LJ          -2.48293         2.40271       -0.501749
LJ            1.0805        -0.47646        0.887629
LJ           -2.3848         1.65667         2.52329
LJ          0.400685       -0.774973         0.49443
LJ          -0.38483        -1.99177        -2.20205
LJ           1.25673       -0.875462        -2.03694
LJ          0.229977         1.18875         1.72237
LJ              -nan            -nan            -nan
