108
#Comment!
LJ          -2.45947        -1.74619           1.822
LJ           2.37647        -2.40758        -1.09946
LJ          0.774816         1.94875        0.774753
LJ           1.36098        -2.44077        0.249642
LJ           -1.7158        0.116647        0.885957
LJ          0.423159       -0.480746         1.95337
LJ           1.10635         2.34792       -0.769848
LJ          0.753462        0.971385         1.77623
LJ           -2.1246          1.2232        0.229567
LJ          -1.55682        -2.50859         2.21701
LJ              -nan            -nan            -nan
LJ         -0.367454       -0.729597         1.79285
LJ          -2.27265         2.23419        -1.26598
LJ              -nan            -nan            -nan
LJ           2.03544         -1.0015        -2.12929
LJ              -nan            -nan            -nan
LJ              -nan            -nan            -nan
LJ              -nan            -nan            -nan
LJ          -1.44961       -0.374903         -1.3982
LJ              -nan            -nan            -nan
LJ         0.0981037        -1.35702        0.128226
LJ          0.469431         2.41041         1.15073
LJ         -0.609741        0.599046         1.28981
LJ              -nan            -nan            -nan
LJ          -1.03928         1.50787       0.0363589
LJ          -1.56874        -1.71028       -0.741698
LJ           0.20076        0.410375         1.75549
LJ          0.437278         -1.3781        -2.36834
LJ         -0.313562        0.597926          1.1602
LJ          -1.49581        -2.25328        -2.04799
LJ              -nan            -nan            -nan
LJ          0.761491        -1.85775        -1.39252
LJ              -nan            -nan            -nan
LJ           1.94924         1.71095        -2.19883
LJ              -nan            -nan            -nan
LJ          0.612951        0.267883        -1.92811
LJ           -1.8883        0.217332       -0.153324
LJ         0.0180762        -1.60219         2.36376
LJ           1.48058       -0.570343        -2.41726
LJ          -2.06459        0.557006        0.972414
LJ           1.39307         1.44111         0.47687
LJ            2.4233       -0.308196         1.10479
LJ           1.84019         2.19617         1.19587
LJ           1.36124        0.823682        -2.10369
LJ          -1.90562       -0.628406        -1.88784
LJ           0.35193       -0.767347      0.00850131
LJ           2.34078        -1.53905        -1.87921
LJ          0.472249        -2.34337         2.40909
LJ         -0.572029        0.984893        -2.36974
LJ          0.171363        0.492462        -2.48776
LJ           1.55768        0.492962       -0.463209
LJ          -2.35523         2.09477        -1.99521
LJ              -nan            -nan            -nan
LJ           1.31397         -1.0116        -1.52173
LJ           1.11799        0.818497        -0.18448
LJ          -2.50749        0.206753        -1.90913
LJ         -0.321933        -1.73604        0.290787
LJ          -2.25803         2.01881       -0.267927
LJ           1.56747        -2.49127       -0.373175
LJ          -1.43529       -0.893439        -2.30139
LJ          0.755509         -1.4486       -0.691393
LJ          0.417378        0.672821       -0.788975
LJ          0.560145         2.45299         1.37495
LJ              -nan            -nan            -nan
LJ              -nan            -nan            -nan
LJ           2.33393       -0.733774         1.95916
LJ          -2.18464         1.27262         2.32626
LJ              -nan            -nan            -nan
LJ          -1.35513         2.31288         1.05167
LJ          0.296127         1.26506         1.36217
LJ          0.042261         2.43725        -2.00164
LJ         -0.193031        0.302851       -0.898404
LJ          0.137258         2.24099        -1.82049
LJ         -0.471581         1.48841          -2.335
LJ           2.29383        -1.22684     -0.00243947
LJ          0.138869        -1.75592       -0.608091
LJ          -0.93756        -1.81439         1.94911
LJ          0.506736        0.430847         2.08469
LJ           1.19311       -0.320901         2.17825
LJ          0.966983         1.72023       -0.676036
LJ         -0.823202         2.13546       0.0997602
LJ         -0.030564        -2.02005         2.51258
LJ           -1.0442        0.186084         2.23428
LJ          -2.43571        0.937368        -1.88341
LJ           1.02447         1.58689         -1.4764
LJ          -1.49859        -1.68847       -0.849194
LJ          -1.20908        0.344403       -0.160377
LJ          -2.19167       -0.969822         2.32574
LJ           1.18047        -1.33568        -1.09948
LJ          -0.64262        -0.13937      -0.0391065
LJ              -nan            -nan            -nan
LJ         -0.567047        -1.13346       -0.707246
LJ           2.19816         2.06319          1.6887
LJ         -0.445601       -0.475021       0.0978951
LJ          -2.09902         1.45065         0.51239
LJ          -2.14834        0.720999        -2.37369
LJ           2.30853       -0.435958         1.67735
LJ            1.3166       -0.957519         2.37814
LJ              -nan            -nan            -nan
LJ           2.54116        -1.36206         -1.7427
LJ           2.54191      -0.0499962       -0.415791
LJ         0.0509409         2.25464        0.116885
LJ           2.55561         1.60399        0.315687
LJ           2.34451        -2.30857       -0.948626
LJ              -nan            -nan            -nan
LJ          -1.18683         1.83069          2.2729
LJ           1.97299        -1.38262        0.776217
LJ              -nan            -nan            -nan
