108
#Comment!
LJ            1.8196           1.704      -0.0596396
LJ          0.451124        -1.81378       -0.462006
LJ        -0.0268491        -2.22142     -0.00860028
LJ          -1.71458         -2.1904        -1.18779
LJ          -1.58895       0.0936889        -2.01246
LJ          0.385087        0.996883        0.418109
LJ           1.07955          1.6218       -0.256087
LJ          0.394183        -1.02856         1.71119
LJ           1.39151         2.16185         1.94014
LJ           1.49539        -1.45482       -0.805831
LJ              -nan            -nan            -nan
LJ          0.825916          1.1801        -2.47449
LJ          -2.04392        -2.36412        -1.99567
LJ              -nan            -nan            -nan
LJ          0.426328         -2.2446         1.47308
LJ              -nan            -nan            -nan
LJ              -nan            -nan            -nan
LJ              -nan            -nan            -nan
LJ           2.37785         2.02094       -0.288038
LJ              -nan            -nan            -nan
LJ          0.405026       -0.623483        -2.47118
LJ          -2.08978          1.9067        -1.06371
LJ           1.71311         1.69955        -2.25228
LJ          0.827251        -1.97205         1.33517
LJ         -0.791056      -0.0186161        -2.00391
LJ          0.132715         1.93844        0.930873
LJ            -1.601         2.27925         1.68631
LJ          -2.01554        0.284019         2.37617
LJ          -1.74105         2.28509        0.456502
LJ          0.413139        0.859683       -0.407828
LJ           1.13141         2.02762        -1.06502
LJ           2.54763        -2.06662       -0.356396
LJ              -nan            -nan            -nan
LJ          -1.16904        0.685169       -0.995596
LJ              -nan            -nan            -nan
LJ        -0.0283645          2.0606          1.0939
LJ           2.42131          1.4189        0.245745
LJ           1.68767       -0.858247        0.241619
LJ         0.0829875       0.0407032        0.170825
LJ           1.69575        -1.52569       0.0430134
LJ         -0.567198        -1.59629        -2.41393
LJ         -0.674141       -0.537438        -2.02301
LJ          -2.21673         2.02915         1.29319
LJ         -0.832187        -1.23569         2.22282
LJ           1.44311         1.31551       -0.845122
LJ          -1.98123        -1.87508        -1.33324
LJ         -0.105672      -0.0532553       -0.787583
LJ          0.714345         1.38688         1.56516
LJ         -0.493342        0.321489        -2.56015
LJ         -0.349265         1.49168        -2.55451
LJ           2.27996       -0.144593        0.504069
LJ           1.73515       -0.125702        -1.81049
LJ              -nan            -nan            -nan
LJ           2.32096        0.204655        -2.41854
LJ          0.068264       -0.458895         1.42753
LJ         -0.749509         2.28014         1.48715
LJ          0.235477         1.73204         2.55614
LJ          -1.16693        0.588164        0.881963
LJ           1.74541        -2.29321         1.91172
LJ         -0.618583         1.68116        0.298065
LJ          0.089548        -1.18768         2.52971
LJ           1.42684        -2.23976         1.86453
LJ           1.35775         1.83469         -1.4257
LJ          0.390872       -0.930849        0.696658
LJ         -0.368313         -2.4299       0.0218585
LJ          -1.54546        -2.09204         1.17556
LJ         -0.516097         1.78586       -0.948214
LJ              -nan            -nan            -nan
LJ           1.93486       -0.581054         2.12713
LJ          0.843503         0.11647        -1.94405
LJ           0.37571       -0.282862        0.804741
LJ          -2.20362         2.18746         1.63504
LJ         -0.744736         1.71293        0.849926
LJ          -2.04068        -1.19381        -1.68997
LJ           2.12132       -0.109485       -0.825434
LJ          -1.73416         1.56638        -2.07653
LJ          -2.44614         1.19929         0.50218
LJ         -0.673977        -2.24682         -1.3906
LJ           2.46697         2.42374       -0.429334
LJ          0.227635         1.76556        -1.99536
LJ           0.39037        -2.08325         1.13411
LJ          -1.72166        -1.22372       -0.981726
LJ           1.81097         1.01815         1.06828
LJ         -0.117692         -1.1918         2.20979
LJ           2.27842        0.404278      -0.0465862
LJ         -0.661476         2.53381        -2.00054
LJ         -0.839808        -1.21773       -0.155122
LJ           2.54078        -1.28367        -2.04719
LJ          -1.42684         -2.5297        -1.25572
LJ           1.69974        -2.00011        -1.19306
LJ              -nan            -nan            -nan
LJ          -1.68307        0.941295        -2.19992
LJ          0.877233         1.30563        0.402712
LJ         -0.105135       -0.367918        -1.66353
LJ         -0.644375       -0.519974        -1.04685
LJ         -0.130712       -0.698993         2.41308
LJ          0.332764         2.37163        -2.01889
LJ           1.34736        -1.54165         2.25967
LJ              -nan            -nan            -nan
LJ        -0.0300391        -1.46064         1.88746
LJ           1.64997        0.189756       -0.685334
LJ          0.331883        -1.10936       -0.242292
LJ          -2.43742        -2.38094        0.432007
LJ          -2.21739       -0.292887         1.09681
LJ              -nan            -nan            -nan
LJ           2.45821        -2.17114        -2.25143
LJ           1.82337         1.31871         2.45087
LJ              -nan            -nan            -nan
