108
#Comment!
LJ          -1.84326         1.08313       -0.530354
LJ          -1.20757        -1.76418         2.37808
LJ          0.465632         2.01883       -0.327397
LJ         0.0509053        -1.38114        0.951993
LJ           2.08602       -0.536494         2.49052
LJ            1.0656        -1.94892        -1.10698
LJ           2.13911        -2.06745         1.61944
LJ          -1.10076        0.135302        0.920422
LJ           2.38922        0.816841          1.7899
LJ            1.4914        0.506751       -0.467939
LJ              -nan            -nan            -nan
LJ        -0.0455942        -2.25979        0.354126
LJ           2.10711       -0.264182        -1.78166
LJ           1.29043        -2.23557         2.21041
LJ           2.12407          1.7243         1.95948
LJ           -2.0082       -0.937129           2.075
LJ              -nan            -nan            -nan
LJ              -nan            -nan            -nan
LJ           1.80403         2.24137        0.482844
LJ              -nan            -nan            -nan
LJ          0.353236       -0.705508         2.11018
LJ         -0.472523        0.965426        -0.83126
LJ          -2.16724        -2.12275        0.657195
LJ         -0.350967        -2.26735         0.73119
LJ          -1.64756        -2.50013       -0.564031
LJ           2.41558        -2.52165       -0.546311
LJ          0.460364        -2.11679         2.35667
LJ          -1.10211       -0.321466        -2.12971
LJ          0.251948        -2.24349        -1.38034
LJ          0.948379        -1.03205         2.24318
LJ         -0.279379       -0.027886        -2.44712
LJ          -1.44917        0.643278        -2.33874
LJ              -nan            -nan            -nan
LJ           1.55188        -2.45041         1.77869
LJ              -nan            -nan            -nan
LJ         -0.337379       -0.357641        -2.32055
LJ          -1.79515         2.48883        -2.50809
LJ           2.02201         1.79484          1.1947
LJ          -0.99039        0.625115        0.671066
LJ          0.568938          1.4593        0.226114
LJ         -0.679044        -2.35811         2.31437
LJ          -2.18016         1.20683        -2.27063
LJ          -2.40211         1.40447        -2.39149
LJ          0.533398         1.77749         2.17422
LJ          0.133344         1.95191         0.60014
LJ          0.265168         0.53874       -0.937309
LJ          0.915267        -1.70347         1.65658
LJ           2.37445          1.3691         2.48113
LJ          -2.43057         1.14484         1.81482
LJ           1.52917         1.82194        0.305386
LJ           1.15646        -0.80176         1.91199
LJ         -0.512643         2.24994        0.212475
LJ              -nan            -nan            -nan
LJ          -2.52329        0.347226        -2.07354
LJ          -1.05752       -0.823322         1.93971
LJ        -0.0438673        -2.04441         1.96294
LJ         -0.164712        -1.51631       -0.660367
LJ         -0.634898        -2.11257       -0.802651
LJ          -2.52536       -0.191828        -0.93081
LJ          -1.73461        -1.48652         1.67522
LJ           1.50329       -0.552552        -2.47982
LJ           1.65707       0.0608206        -1.79084
LJ           2.17582        0.099878         -0.3278
LJ           1.96948        -2.46886        0.133363
LJ           1.47199       0.0786386        -1.97116
LJ           0.93351        0.929516         1.84416
LJ          0.341246         2.53972        -1.08446
LJ              -nan            -nan            -nan
LJ         -0.467395         1.62032         1.04832
LJ           1.41534        0.821157         1.14982
LJ           1.34201        0.218793         2.37757
LJ          -2.35945         1.01149        -2.11471
LJ         -0.332335        0.341824        -1.69666
LJ           1.13374         1.38138        -1.77894
LJ         -0.074726       -0.168821       -0.123058
LJ         -0.106183        0.296758        -2.14152
LJ          -1.22305        0.210903      0.00141586
LJ          0.722182         1.85283         2.04791
LJ           1.98113         2.48099       0.0493343
LJ         -0.506071        -1.02979      0.00266293
LJ          0.813174         2.33224        0.968797
LJ          0.418645       -0.852833         2.49302
LJ           2.47609        0.597684         1.99121
LJ          0.396321         1.98436        0.323753
LJ          -1.84383        0.082273        -2.36645
LJ           2.12491        -2.22227        0.200574
LJ          0.426213       0.0287987        0.998319
LJ          0.817556         -1.8321        0.631905
LJ          -1.78384        0.234705         1.01781
LJ            -1.796       -0.141774       -0.919115
LJ              -nan            -nan            -nan
LJ          0.822481        -1.22252         1.70753
LJ          -2.44754        -1.41202         1.80317
LJ           2.40467         -2.0165        -2.42195
LJ         0.0397589       -0.239196        0.528663
LJ         -0.582341        -1.81522       -0.160087
LJ         -0.374214        -1.67324       -0.148316
LJ          0.425649         2.27224        -1.85067
LJ         0.0477257         -1.5513         1.83871
LJ          0.233163        -1.26816        -0.48999
LJ          0.452511         1.02266         2.45099
LJ           -2.3342        0.866857         2.02295
LJ           1.87826         2.31638        0.582047
LJ         -0.367926        -2.22262         1.41203
LJ           1.00459        0.597028         1.71092
LJ         -0.626503         1.84123        0.635936
LJ          -1.70311       -0.715661        -1.08233
LJ              -nan            -nan            -nan
