108
#Comment!
LJ         -0.402173        -2.20525         1.22479
LJ       -0.00664174         1.81125        -1.88601
LJ           1.38467         1.90525        0.927731
LJ        -0.0557839        -1.96066         2.55666
LJ         -0.667093         2.36042         2.49254
LJ          -1.96526       -0.274368         1.57327
LJ          -2.52412       -0.871961         2.21827
LJ          0.934001        -2.48332         1.33079
LJ          0.446059         1.61155         -1.1095
LJ           1.77853        -1.65011        0.351901
LJ              -nan            -nan            -nan
LJ          -1.71427        -2.29414        0.971101
LJ           2.02187        -1.75577         1.62796
LJ           1.08984        -2.47369        -1.56742
LJ           1.61932       -0.806564      -0.0430224
LJ         -0.756615        -2.18887         1.94441
LJ              -nan            -nan            -nan
LJ              -nan            -nan            -nan
LJ           1.00892         2.20343         1.90407
LJ              -nan            -nan            -nan
LJ           2.53275        0.224422        -1.66502
LJ          -1.87401        -1.35997        0.355728
LJ          -1.13584        -2.06719        0.366244
LJ           1.14013        -1.29054         1.71941
LJ          -1.51343        0.280004         1.13689
LJ          0.454608        0.417791        0.517098
LJ          0.118064         2.35992         -1.4924
LJ          -2.36644         1.14483        -2.33683
LJ          0.496609          2.1428       0.0451647
LJ          -0.98592        0.412013      -0.0245245
LJ          -1.92604        -1.94662        0.496528
LJ            1.2582         1.60329       -0.943666
LJ              -nan            -nan            -nan
LJ          -1.07304        -2.41703        -0.29443
LJ              -nan            -nan            -nan
LJ           1.96014        -1.35478        -0.82679
LJ         -0.477739        -1.55054         1.48779
LJ           1.48966         1.36721        -2.05671
LJ          0.317631        -2.50286        0.365941
LJ          -2.18614         1.56548       -0.807126
LJ          0.758134       -0.600353         1.60232
LJ           1.29744         -2.2929        -2.48784
LJ          -0.81487        -1.99801        -1.55602
LJ          -0.75214         0.39622        -1.09821
LJ          0.835603      -0.0587404         1.53307
LJ          0.819628        -0.27618        -2.47559
LJ         -0.964962          -1.236        -1.44655
LJ         -0.283235         1.21357         2.42626
LJ           2.33758         1.48627         -2.0753
LJ          -1.39319        -1.83094      -0.0296928
LJ           1.63904        -2.28949        0.193754
LJ          -1.21131          2.3127         -1.7252
LJ              -nan            -nan            -nan
LJ         0.0295574       -0.365133         1.67964
LJ            1.9275         1.07211         1.97225
LJ          -1.46971         1.08212        -1.90956
LJ          0.353118        0.921281         2.21531
LJ         -0.921381        0.890575         2.17912
LJ         -0.546861         1.10723        -1.03144
LJ           2.45811       -0.142769        -1.23888
LJ           2.47161        -1.30475         1.30638
LJ          -2.06534        0.164811         2.44033
LJ          -2.29942        0.448819        -2.06048
LJ           1.14063       -0.988032         -2.3733
LJ          -1.01582        -2.01043         2.20854
LJ           1.97412          2.3843         0.21451
LJ          0.452345         1.14664        0.573181
LJ              -nan            -nan            -nan
LJ          0.697308        0.542801         1.41834
LJ          -2.28893        -2.14481        -1.40869
LJ         -0.777457         1.56002         2.25984
LJ          0.556556         -2.1363       -0.286084
LJ           1.61737        0.248217          -1.432
LJ           -2.1226       -0.317349       0.0264785
LJ          0.575957        -2.50555       -0.539192
LJ        -0.0319291      -0.0523475        0.997487
LJ          -2.47795      -0.0970539        -1.32278
LJ         -0.362754        -0.78226        -1.79673
LJ          -2.15629      0.00487294        0.684915
LJ           2.12443        -1.60827         2.37546
LJ         -0.314565       -0.718475        -2.52965
LJ         -0.717513         2.34601         1.16965
LJ       -0.00394191        0.825676        0.455327
LJ          0.249117        -2.39796         1.67621
LJ           1.79028        0.835266        0.352854
LJ          -1.62934        0.272885        -2.42158
LJ           2.37589        0.445474       -0.133211
LJ          0.684383        -1.37851         0.51361
LJ        -0.0404094         1.82288         2.21058
LJ          -1.76157       -0.836892        -1.68586
LJ              -nan            -nan            -nan
LJ           1.86898        -2.28941       -0.209198
LJ           2.21808        0.933238         2.13934
LJ           1.36532        -0.69927         2.42171
LJ            1.7976        -1.58623         1.35717
LJ           1.66171        -2.53254      -0.0661788
LJ           2.49381        -1.36454       -0.288122
LJ          -1.02176       -0.330448        -0.48657
LJ           1.00299       -0.677087         1.77979
LJ         -0.571272        -2.32705        0.339672
LJ          -1.64125        -2.26883        -1.69181
LJ           1.03716         0.84778       -0.819374
LJ          -1.49597        0.391476         1.96436
LJ         -0.902791        -1.04374        0.132315
LJ          -1.11915        0.140296      -0.0896193
LJ          0.544136       0.0320926         1.41871
LJ          -1.31759        -0.55467      -0.0198423
LJ              -nan            -nan            -nan
