108
#Comment!
LJ          -1.11362        0.261496        0.174868
LJ          0.100857        -2.16594          2.3407
LJ         -0.733628         1.24623        -1.14515
LJ          -1.19221        -1.80941         2.43893
LJ           2.21437        0.372867         1.18429
LJ         -0.717702          1.7569        0.868913
LJ           1.78728         1.77161         1.10137
LJ           1.32588        0.977615        -2.54509
LJ          -1.91121         1.05473         2.40651
LJ         -0.358184        0.773991       -0.954634
LJ              -nan            -nan            -nan
LJ          0.365136         2.19382       -0.507391
LJ           1.27659       -0.965976         1.65646
LJ           -2.4522         1.92778         1.35972
LJ           1.41827        0.592695         2.20118
LJ          0.995948        0.566388        -2.12424
LJ         -0.629979         1.92156       0.0963763
LJ          0.851416         1.32945        -2.05104
LJ          0.570004       -0.129687        -2.07988
LJ           -1.9846        -2.30691         1.67052
LJ          -1.29324       -0.243448         0.87497
LJ          -1.10781         2.09795        -1.34229
LJ           1.25468        -1.26184        -1.03589
LJ           -2.5502         1.99621        0.901507
LJ           1.80916        -2.53749         -1.1571
LJ           1.55854       -0.868227         1.06789
LJ           2.32102        0.670112       -0.654754
LJ           1.88382        -1.31843        0.804388
LJ          0.882947         1.18784         2.17488
LJ          -1.84863        -2.11874        -2.21149
LJ           1.95492         1.89798         1.37387
LJ          0.986968         1.76526        -1.44287
LJ              -nan            -nan            -nan
LJ          0.533538        -2.43102        -2.12584
LJ              -nan            -nan            -nan
LJ         -0.262673         1.49078        -1.28698
LJ          -1.37406         2.32355        -1.56352
LJ         -0.274947        0.625052         2.11165
LJ         -0.834939        0.571177        -2.47635
LJ          -1.13442         1.77266        -1.07698
LJ          -2.44078        -2.03783       -0.256539
LJ           1.90018       -0.727836        0.655528
LJ           2.23242        -2.42704        0.161289
LJ          0.213151        -1.46707       0.0953135
LJ          -1.82338        -1.28362        -1.58966
LJ          -1.19859        0.209877        -2.35835
LJ          0.727981        -1.72245        -2.32066
LJ         -0.301084        -1.25904        -2.37742
LJ          0.263104       -0.809401       -0.497306
LJ           1.30246        -2.05005        0.819352
LJ          -2.12784       -0.033228         2.12376
LJ          -1.06935       -0.153028           1.011
LJ         -0.551944        -1.75652         1.99572
LJ            0.5235       -0.131888        0.763522
LJ         -0.636581         2.28534         1.07352
LJ          -2.55468         1.72056        -1.88584
LJ         0.0322385         1.43478         1.21463
LJ           1.23317        0.996983        -1.53678
LJ           -0.4007         2.42212        -1.17546
LJ           -2.0406         1.08987         2.38293
LJ          0.520349        -1.04919        0.443126
LJ         -0.207917        0.263838        0.130745
LJ          -1.50328        0.593138        -2.18585
LJ           2.34058       -0.280979         0.34374
LJ          -2.50061        -2.21023         2.36733
LJ         -0.276673        -1.35886        -1.80399
LJ           1.09149        -2.20476        0.780648
LJ              -nan            -nan            -nan
LJ         -0.510774        -2.45528       -0.523454
LJ          -1.52721         1.44099        -1.56791
LJ          -2.14373         -1.2324         -1.2073
LJ           1.93258        0.852146         1.39123
LJ           1.77575         1.61396         1.72784
LJ           1.00868         1.53011        -2.54079
LJ          -1.76544       -0.516453        -0.48274
LJ          -1.41492        -1.49112          1.4525
LJ          -1.39762        -2.07964       -0.803607
LJ         -0.674003        -2.37085        -2.41959
LJ          -2.46128        0.590005       -0.750162
LJ           1.07312         1.11178         1.58836
LJ          -1.69929       -0.289532        -1.83901
LJ         0.0638876        0.041908        0.465219
LJ           1.58866        -2.48955        -1.41249
LJ          0.595833       -0.443339          1.2695
LJ         0.0317569       -0.966568        -1.59527
LJ           -0.3029         1.09794       -0.974774
LJ          -1.64304          1.8999        0.924564
LJ            2.0361       -0.863138        -1.31337
LJ          0.297964        -1.56881       -0.290788
LJ           2.42053       -0.612084       -0.390129
LJ           0.62822       -0.217891        -1.97141
LJ           -0.1225      -0.0653876        -1.94138
LJ          -1.09538        -1.07071        -1.20196
LJ         -0.665327        -1.83086         1.66664
LJ          0.324637         2.32351        0.634084
LJ           1.94704        0.708341       -0.163299
LJ            1.7419         1.83511        0.705713
LJ          -1.31923       -0.256803        0.408488
LJ          -2.34339        -2.41252       0.0229095
LJ          0.534005       -0.723045        0.460854
LJ          -1.28712        0.615082        -1.77883
LJ           2.12857       -0.194449       -0.987559
LJ          -1.48267        -2.49235         1.30464
LJ          -1.28706        -1.47664        -1.12208
LJ           1.19032       0.0896619         1.60656
LJ          -1.03024          1.9647           2.422
LJ           1.41434        -1.90719        -2.53786
LJ           1.35541         2.08679         1.63774
