108
#Comment!
LJ          -1.87768       -0.407715        -1.34023
LJ           0.19725        0.131659        -2.51991
LJ          -1.43254         1.07502       -0.701465
LJ          -1.53564      -0.0828884       -0.706903
LJ          -2.29769       -0.687743        -0.59325
LJ          -1.59697       -0.545608        -2.08723
LJ          -1.21191         -2.4945       -0.411593
LJ         -0.377056        -1.39397         1.35113
LJ           1.66504        -1.90798       -0.836226
LJ          0.908959         1.79043       -0.786574
LJ              -nan            -nan            -nan
LJ          -1.23779      -0.0976076        -2.10271
LJ          -2.54749         -2.2244        -1.81821
LJ          -1.25233          2.2441         1.96116
LJ          -1.20392        -1.50647       -0.375096
LJ              -nan            -nan            -nan
LJ              -nan            -nan            -nan
LJ              -nan            -nan            -nan
LJ          -2.23414       -0.537658        0.350644
LJ              -nan            -nan            -nan
LJ          -2.22852         1.54884          1.4201
LJ           2.53606        0.526304       -0.890954
LJ          0.795893         2.06108        -1.19971
LJ          -1.57535        -2.43048       -0.959565
LJ           1.24796       -0.460235        0.849807
LJ          -1.11712       0.0711968        0.361515
LJ           2.50099       -0.183887        0.795764
LJ           1.58574        0.616883        0.710909
LJ         -0.798657         1.47755        -1.12833
LJ         -0.786768         1.77582        0.158557
LJ          -1.18051        0.628744        -1.33759
LJ          -1.86444         1.30354        -1.51905
LJ              -nan            -nan            -nan
LJ           1.51492          1.4072        0.509577
LJ              -nan            -nan            -nan
LJ          -1.15579        -1.50858        -1.22017
LJ          -2.40846        0.353086         2.51677
LJ          -1.47758        -0.84764        -1.63874
LJ          -2.13047        -1.23702         1.01106
LJ           2.20529        0.870615       -0.893643
LJ           1.53216        -1.14656         2.42174
LJ          0.635527         2.02449        -1.43592
LJ          -2.52395       -0.381292         1.71223
LJ           0.50967         2.05736       -0.293303
LJ          -1.98656         -1.5493       -0.781419
LJ         -0.866842       -0.461098         1.49665
LJ          0.992578        -2.50305        -1.15415
LJ           0.83091       -0.506086       -0.809195
LJ           1.07287        -1.45208        -1.96914
LJ          -2.31996        -1.96444       -0.619548
LJ          -1.79887       -0.032719        -2.27208
LJ           1.32714         2.53872        0.597384
LJ              -nan            -nan            -nan
LJ          -2.23417         1.55862        -2.49848
LJ         -0.608829         1.99475         1.70936
LJ           2.47445          1.9144       -0.238636
LJ           2.20943        0.878702         2.06771
LJ         -0.464303        0.353208        -1.01274
LJ          -1.40663         2.10222       0.0194377
LJ          0.829544         2.30711         1.87384
LJ          0.656843         2.13278        -1.60235
LJ           1.61392        -1.99365        -2.23479
LJ          -1.76251        -0.16086        -1.93871
LJ          0.448683        -1.52037        -2.12961
LJ           1.81338        -1.55666         1.85809
LJ           1.47533         2.48515        0.187589
LJ            -2.039        0.598995        0.990235
LJ              -nan            -nan            -nan
LJ          -2.01293        0.787793         2.18033
LJ           2.19257          2.0441         2.31916
LJ           2.13176          2.3891        -1.11991
LJ           0.57061       -0.423023        -1.58294
LJ          -1.06995         1.20785         1.60294
LJ           1.29541         1.55577        -2.32297
LJ          0.746023       -0.990627         2.48556
LJ           1.77031         1.06555       -0.486178
LJ         -0.358675         1.95762          1.4678
LJ         -0.957695        -1.55478          1.1142
LJ         -0.664421        -2.47903         1.05829
LJ        -0.0501303          2.2329        0.135372
LJ          -2.27572        -1.44459        -1.14667
LJ             1.353        -1.87846       -0.605926
LJ          0.267535         1.59576        -2.25268
LJ          0.876476        -1.74512       -0.226505
LJ          -1.46647         1.85154        -1.17858
LJ            1.5049          1.5086         2.01044
LJ           1.18243         1.66889       -0.722592
LJ            2.4919        -1.69306        -2.32626
LJ           2.42694       0.0337097        -1.33443
LJ           -1.0932        0.283441        -1.79016
LJ              -nan            -nan            -nan
LJ          -1.73295         1.28341       -0.902302
LJ          0.661368         1.95789        -2.14533
LJ           2.15406         2.28477        -1.64732
LJ           2.08768        -0.96317         2.15929
LJ         -0.486119        -2.30416        0.134337
LJ           2.02867          1.7211       -0.658676
LJ          0.348802         1.34232       -0.132783
LJ              -nan            -nan            -nan
LJ          0.415059         1.14981         1.67187
LJ           2.02964        -1.90709         2.33125
LJ           1.95275        -1.63136         2.24551
LJ         -0.370193         2.00235       -0.810586
LJ          -1.19268         2.19177        -1.40482
LJ           2.26244         1.04034        -2.07356
LJ           1.60578         1.83032         1.68524
LJ          -2.03536         1.40325        -1.63325
LJ              -nan            -nan            -nan
