108
#Comment!
LJ          0.666507       -0.538774        -1.73253
LJ           2.01621        -1.56984        -1.82255
LJ          -2.23315        -1.35878       -0.439115
LJ          -1.57798         1.98612        -1.46144
LJ          0.233034         1.20973         1.98112
LJ         -0.983588        -1.34267        0.389055
LJ         -0.971024         1.00349         2.30805
LJ         -0.185116           2.272       -0.877966
LJ          -2.44554         2.26469         1.60636
LJ          0.362511         2.01027        -1.72101
LJ              -nan            -nan            -nan
LJ          -1.80662         2.02826         2.03017
LJ          -1.87674       -0.185669         1.44644
LJ         -0.069024        -1.40679        0.832423
LJ          -1.24551        -2.19481         2.26412
LJ          -2.13564        0.237394        -1.20303
LJ              -nan            -nan            -nan
LJ              -nan            -nan            -nan
LJ          -1.38334        -2.24916        0.434549
LJ              -nan            -nan            -nan
LJ          -1.76674        -2.06512        0.602379
LJ           1.51662       -0.599834        0.466838
LJ          0.299762        -2.46936         1.98655
LJ          -1.83372         1.27511        0.332158
LJ           1.77919       -0.622728         1.57372
LJ          0.637548         2.08103        -1.25061
LJ           2.25809        0.922951       -0.622548
LJ           1.67663        0.822988          1.8441
LJ           1.41875        -1.13233        -1.73584
LJ          -0.36673       -0.309606        -2.47929
LJ           1.96489        0.908105        -1.38407
LJ           2.27531         2.32092         1.43103
LJ              -nan            -nan            -nan
LJ          0.669356        -1.84133        -1.30198
LJ              -nan            -nan            -nan
LJ           1.09721        -1.36191       0.0363051
LJ          -0.92974        0.416865         1.66593
LJ          -2.14896         1.56279         1.29577
LJ            2.0338        -1.35948         2.30953
LJ         -0.808493        0.207327       -0.359272
LJ           0.63415         1.47183         1.94628
LJ           -2.0084         -1.4692       -0.354023
LJ           1.25049         1.78687          2.0297
LJ           1.65868       -0.487526        -2.18552
LJ         -0.489849        -2.55417        -1.16878
LJ          -1.50327       -0.912196        -1.00958
LJ           1.74052        0.762509         1.92476
LJ          -2.38475         1.42533        0.125354
LJ          0.747761         1.15402        0.834927
LJ          0.379057         1.23777         1.76462
LJ           0.42304         2.37698        -1.60701
LJ          0.767815         1.49839        0.089883
LJ              -nan            -nan            -nan
LJ          -2.46944        -1.51751         -1.9331
LJ          0.514564         2.32245        0.644657
LJ          -1.82722        0.939324        0.153182
LJ           2.18269        -2.54981         1.87232
LJ          -2.50342         2.17643       -0.473631
LJ           -1.2132         1.32353        -2.17246
LJ         -0.791404         1.00727        -1.86432
LJ          0.465237        0.712426         -2.3754
LJ          0.585685        0.773904         0.70015
LJ          -2.50415        -2.28172        0.367587
LJ          -1.09621        -1.32237        0.576272
LJ          -0.39102        -0.74538         1.10079
LJ          -0.33138       -0.828568        0.921596
LJ         -0.222873         2.12933         1.04066
LJ              -nan            -nan            -nan
LJ          -1.99396         1.55147     -0.00980929
LJ          0.683232       -0.689399        -1.44615
LJ           2.32032        -2.18039         1.63754
LJ          -1.19702         1.03473         1.19265
LJ           1.04916        -1.86456       -0.371013
LJ         -0.587345         2.53161        -1.80995
LJ          0.202396       -0.662007          2.3822
LJ          -1.82164         2.49454         1.59684
LJ          -1.40729         1.12809       -0.314139
LJ         -0.935818       -0.257977         2.48831
LJ           2.49104        -1.14612        -1.54771
LJ           0.43209         2.16457       -0.262529
LJ          -1.19157        0.093916        -1.18342
LJ          -1.63652         2.19925       -0.146362
LJ           1.45616         2.10909           1.011
LJ           1.62516        -2.05462        -1.93455
LJ          -1.78931        -2.09179       -0.541085
LJ           1.08685       -0.917408         2.13187
LJ          -2.20403       -0.985568         1.16133
LJ         -0.862981         1.05275        -0.70682
LJ            2.4776        -1.02583        -1.60925
LJ         -0.559602        -1.47422         2.41633
LJ              -nan            -nan            -nan
LJ          0.460312        -2.19372         1.21616
LJ          -2.27163          1.2904        0.146855
LJ           1.24584        -2.33722        -2.39866
LJ          0.367285        -2.41983        -1.43291
LJ        -0.0212693        0.127142        -2.50328
LJ          -1.97585       -0.759636         1.06111
LJ            1.4927        -1.24216        0.871626
LJ          -1.48318         2.18489        -1.89166
LJ           -1.2694        -0.28486       -0.631821
LJ          -1.01748        -2.34908         2.44023
LJ           1.11743         2.08556         1.79879
LJ           1.09039        -1.53572        -2.11148
LJ         -0.884963         1.69899        -1.86059
LJ           2.07096       -0.346734         1.66744
LJ           1.39164         2.35282       -0.340558
LJ          0.724154        0.225845        -2.01567
LJ              -nan            -nan            -nan
