108
#Comment!
LJ         -0.935115         2.35548        -1.64588
LJ            1.2043         0.85141        0.799273
LJ         -0.390421        -1.81191         1.29629
LJ          -1.71651         0.40529         2.48489
LJ           1.10117       -0.538195          0.6423
LJ           2.43611         1.17345         2.39329
LJ         -0.719609         -1.4793        0.319207
LJ           1.45734         2.23425        -2.26083
LJ           1.58177       -0.189523        -2.11495
LJ          0.360879         1.09053         2.01979
LJ              -nan            -nan            -nan
LJ          0.851393         -1.4259         1.76869
LJ         0.0972554        -1.88642        -2.08499
LJ          -1.00574        0.959375       -0.444557
LJ          -2.32689        -2.05674        0.421942
LJ          -1.13376        0.375565        0.475781
LJ              -nan            -nan            -nan
LJ              -nan            -nan            -nan
LJ          -1.45621        -2.28979       0.0915681
LJ              -nan            -nan            -nan
LJ        -0.0835039         1.91763         2.48624
LJ          -2.48233         1.62122       -0.679004
LJ           2.52067       -0.141713        -1.21274
LJ          -1.62404        -1.37326         1.50459
LJ         -0.133298         1.27756         1.89491
LJ           2.34514       0.0309975      -0.0021109
LJ         -0.117718        0.463929        -1.63813
LJ          -1.13047         1.92758         1.82782
LJ          -1.74201       -0.568018        -1.14724
LJ          -1.49709        0.815723        -1.89314
LJ         -0.243646       -0.877104       -0.307266
LJ           1.43331         1.03271       -0.591531
LJ              -nan            -nan            -nan
LJ           1.12859         1.78598       -0.839119
LJ              -nan            -nan            -nan
LJ           1.58802         1.82947       -0.932118
LJ         -0.627928       0.0478071       -0.698074
LJ         -0.800797         1.25626        -1.11761
LJ         -0.374874        -2.11312        -1.44108
LJ           2.34083          -2.432         0.99869
LJ          -1.69716        -2.50108       -0.700906
LJ         -0.210026         2.48277        -1.92129
LJ         -0.849926       -0.736482       -0.178471
LJ           0.31854        -2.36913      -0.0865726
LJ          -2.17728         2.54217        -1.23428
LJ           1.74928        0.429804        0.135396
LJ          -2.28916         2.43115       -0.867114
LJ           -2.3621         1.98667       -0.420561
LJ           1.46793         1.19576        -1.27421
LJ          -2.02995        0.657572         1.66411
LJ          0.065915        0.165172        -1.87342
LJ          0.919429        -1.25111       -0.290134
LJ              -nan            -nan            -nan
LJ         -0.907255        -1.80468         2.05843
LJ          -2.20563       0.0660428        0.541893
LJ           1.58023     -0.00803105        0.924295
LJ          -1.71766       0.0981572         2.28738
LJ         -0.475674       -0.388264       -0.967769
LJ          -1.75544       -0.857366        -2.50555
LJ           2.15005         1.09069       -0.532023
LJ           0.78742        0.322377        -1.45982
LJ           1.90679         1.06872        0.311066
LJ           1.74237         1.78106        -1.87564
LJ          0.185541         2.09635         1.86055
LJ           1.60809        -1.75964        -1.48543
LJ         -0.599816        0.606742        -1.94539
LJ          -2.47547         1.60932       0.0200352
LJ              -nan            -nan            -nan
LJ          -2.15162        -1.07702       -0.315351
LJ          -1.88019       -0.566739        -1.84084
LJ         -0.229385         2.34401       -0.459174
LJ          0.709063         2.54479        0.718044
LJ           1.03304        -1.68559         1.76796
LJ          -1.30984       0.0918829      -0.0645977
LJ          -1.70561         2.17766         2.16354
LJ           2.49449        0.246379         2.48296
LJ         -0.281002        0.921119        -1.89118
LJ          0.967822       -0.401749         2.54752
LJ          0.270914        -0.40508      -0.0615458
LJ           2.55133         1.85703       -0.523059
LJ           1.32542         1.12159        -1.75203
LJ          0.882775        0.514467        -1.30484
LJ         -0.857456        0.751923         1.32896
LJ          -1.27348        -2.41797         1.47547
LJ          -0.08939        -2.06914         1.55853
LJ         0.0521666        0.519213       -0.899744
LJ          -2.35675        0.555202         -1.5059
LJ          -1.73011         -1.2816        0.972209
LJ          -1.31738       -0.831278         2.45179
LJ          -2.54784       0.0527833        -1.08018
LJ              -nan            -nan            -nan
LJ           1.63088       -0.115057        -1.13888
LJ           1.83328        -1.41389        -2.25541
LJ          -2.53902       0.0468194          0.1815
LJ          0.386225       -0.914613         1.55293
LJ           1.15369       -0.962904        -2.08454
LJ          -2.01811         1.95551          -2.265
LJ          -1.93049        -1.45882         1.93372
LJ          -0.74918        0.777257         1.83772
LJ          -2.10375        -1.32973       -0.618258
LJ          -0.74241          2.0747         1.16862
LJ           -2.4841        -1.56253        0.284956
LJ           1.52888        0.722386        0.542207
LJ            2.3585        -2.01412        -1.13416
LJ          0.911887         1.18918          0.4638
LJ          -1.79642       -0.670023        -1.24282
LJ        -0.0658344         1.72957        -1.11848
LJ              -nan            -nan            -nan
