108
#Comment!
LJ          -1.50405        -1.14833       -0.330889
LJ           1.74442         1.07027         1.22437
LJ            0.9001         2.06946        -2.10297
LJ           1.44364       -0.585745        0.891156
LJ            1.9475        -2.44083        0.131404
LJ          -1.53555        -2.04365        -1.87729
LJ           1.78277         0.29318        0.659308
LJ           1.82236        0.373678         1.03506
LJ          0.351539         2.35857       -0.622914
LJ          -1.21552       -0.229037        0.513173
LJ              -nan            -nan            -nan
LJ          0.373621         1.98995          0.9657
LJ          -0.03888         2.03474         2.54267
LJ          -1.61139         1.02375       -0.205732
LJ         -0.744409       -0.656445        -1.79084
LJ          0.423663       -0.217805         1.25278
LJ              -nan            -nan            -nan
LJ              -nan            -nan            -nan
LJ           2.10165       -0.428634        -1.87621
LJ              -nan            -nan            -nan
LJ          -2.21948         1.51706        -0.23812
LJ          0.172143         1.18282         0.26742
LJ         -0.662807        -0.79089       -0.460371
LJ           1.51051        -1.27198        -2.19703
LJ           2.27143       -0.147602        -1.94608
LJ          0.220165        0.532239       -0.439467
LJ          0.343657         -1.9644        -1.36542
LJ          -2.40921          2.0501        0.552232
LJ           2.30262        -2.29181        0.187585
LJ          -1.96549        -1.04166          1.5318
LJ         0.0271186        0.684505        -1.84133
LJ          -1.25324        0.958805        0.670898
LJ              -nan            -nan            -nan
LJ           1.36579         1.53146        0.601014
LJ              -nan            -nan            -nan
LJ           1.10211         1.12088        -1.27669
LJ          0.357987         1.12388        -1.80878
LJ          -1.15898        -1.95157        -1.32925
LJ          -1.63974         1.72934         1.91016
LJ          -1.67247       -0.271899         2.37597
LJ           1.96185       0.0669894         1.61047
LJ         -0.198531       -0.197872       0.0287262
LJ           2.25643         2.18222         2.27288
LJ          -2.30703        0.617486        0.120956
LJ          -1.38816         1.47105         2.21189
LJ           2.20082       -0.802366        0.350991
LJ           1.71394         1.54312        -1.74905
LJ           1.42151         0.53382       -0.627672
LJ          -1.07098        -1.89608        -1.82463
LJ           1.04834       -0.269794         2.06502
LJ         -0.570422       -0.608977        -1.05187
LJ         0.0220251         1.47371        -2.55322
LJ              -nan            -nan            -nan
LJ         0.0861644       -0.724617          1.2312
LJ         -0.670436        -1.51219        -2.08253
LJ          -2.53705        0.229033         -1.6043
LJ          0.307404       -0.979261         2.32844
LJ          -1.46883       -0.756259        0.529769
LJ           -2.3502         2.29378         1.14861
LJ          0.444523       -0.398986        -1.46753
LJ           1.46313        -1.04234       -0.891666
LJ          -1.71673        0.660404       -0.674221
LJ          -1.31497         1.91674         2.33483
LJ           2.24199       -0.452896        -2.13055
LJ           1.21232         2.15614        0.731963
LJ           1.54461         1.77781         1.81794
LJ        -0.0321901        -0.48451        -1.12923
LJ              -nan            -nan            -nan
LJ          -0.81473         1.71408        -2.12203
LJ           2.06005        -1.44501         1.59698
LJ           2.06024        -2.46608          1.3594
LJ           2.04317        0.485885       -0.644282
LJ          -1.38993         2.02214        -1.72359
LJ          -1.20746        -2.23866       0.0102698
LJ           1.39255         1.73526        -2.44678
LJ           1.32121        -1.60469        0.225023
LJ         -0.988568        -2.07459         2.28228
LJ           2.51495       -0.386901          2.1411
LJ          -1.06677         1.29458        -1.52127
LJ           1.34406        -0.83941        0.626376
LJ           1.02421        -2.53999         2.14276
LJ          -1.88613        -2.33611       -0.882325
LJ         -0.143438        -2.38879        0.552627
LJ          -1.50492       -0.456129         1.74086
LJ          -1.23623       -0.132622        0.250986
LJ          -1.63584        -2.18719         1.95249
LJ       -0.00398254         1.67259         -1.3969
LJ           1.21075          1.1473       -0.438489
LJ           2.03994       -0.488545        0.295905
LJ          0.869007        -1.71347          2.1031
LJ              -nan            -nan            -nan
LJ         -0.131204        -1.61586         1.41393
LJ           1.72849        -1.05242        0.328003
LJ          0.787547        -2.17412        -2.03649
LJ           1.90651        -2.06805         -1.8494
LJ           2.38237         1.86453        0.908226
LJ          0.259779        -2.09855         0.34902
LJ          -0.45315       -0.173943         2.22628
LJ           2.17323        -1.10549         2.14774
LJ           1.92575       -0.875163          2.5256
LJ           1.99873          1.3414         1.50295
LJ           2.08653        -1.23139       -0.259543
LJ         -0.883758         2.49214        -1.07363
LJ          -2.55928         2.20502       -0.523762
LJ        -0.0673451         2.31649         1.63825
LJ         -0.345509        -0.25194        -1.30243
LJ           1.10613        -1.93987        0.399336
LJ              -nan            -nan            -nan
