108
#Comment!
LJ          -1.47812        -1.01761        -1.03269
LJ          -2.30973        -1.64148         1.70898
LJ          -2.36406        0.146954       -0.484869
LJ           1.01004         1.63289        -1.35249
LJ          0.290947         1.00966         1.54873
LJ           1.43012      -0.0543746       -0.462282
LJ          -2.13465        0.715899        -2.18171
LJ          -2.38501        -1.12073       -0.906399
LJ          -2.06623       -0.587359         1.91515
LJ          0.512147        0.350984         1.54604
LJ              -nan            -nan            -nan
LJ          0.600588        -1.93603        0.896668
LJ          -1.27045        -1.67318       0.0463911
LJ              -nan            -nan            -nan
LJ          -2.01701        0.104083        -1.21935
LJ              -nan            -nan            -nan
LJ              -nan            -nan            -nan
LJ              -nan            -nan            -nan
LJ          -0.93388        -2.42094        -1.42938
LJ              -nan            -nan            -nan
LJ           2.50296        -1.97571       -0.663467
LJ        -0.0299743        0.406489        -1.97096
LJ           1.11463        -2.11151       -0.789923
LJ              -nan            -nan            -nan
LJ           -1.3581        -1.73152         2.22297
LJ           2.14549         1.88045          1.4805
LJ         -0.349577       -0.416478         1.50338
LJ          -1.71093       -0.507583         -2.3395
LJ           2.34101        -1.84413       -0.457903
LJ           2.56093        -1.37439        -1.50425
LJ              -nan            -nan            -nan
LJ          0.702171       -0.643469         1.39127
LJ              -nan            -nan            -nan
LJ            2.0451        0.935755         1.17618
LJ              -nan            -nan            -nan
LJ           2.45158       0.0102014         2.14473
LJ           2.04418        0.559138        -1.40047
LJ           1.95995        -1.47689         2.02142
LJ           1.84764       -0.921752       -0.785911
LJ          0.903571         2.49182        0.473625
LJ         -0.213011         2.25639        0.267924
LJ          0.498081         1.13379        0.226858
LJ         -0.288306         -2.0113        -2.26263
LJ          0.686063        -1.34062        -2.51434
LJ          -2.25589         2.10207         2.02568
LJ         -0.973486        -1.13251         2.32816
LJ          -2.37414         2.31753         1.94191
LJ          -1.01131         -1.9827        -2.45661
LJ         -0.889282        0.220411        -1.03498
LJ            2.1089         2.40198         1.76889
LJ           2.35514         1.32322        -2.32359
LJ           2.11698         1.51713         0.50501
LJ              -nan            -nan            -nan
LJ           1.12767        -1.03969       -0.534398
LJ          0.744994         1.51421        0.767204
LJ          -2.48649       -0.765978        -1.76216
LJ           1.20569         2.08726        -1.19165
LJ          -1.22254          2.2615        0.238319
LJ          -2.24497         1.56085        -0.30322
LJ          0.242923          2.0442        -1.91662
LJ         -0.697682          -2.368        0.858012
LJ          -0.20808         2.38948        0.232529
LJ           1.13552        0.374969         1.55858
LJ              -nan            -nan            -nan
LJ              -nan            -nan            -nan
LJ           1.00554        -2.39417        0.785658
LJ         0.0738446         1.47409         1.39813
LJ              -nan            -nan            -nan
LJ          -1.10361         0.80138      -0.0980897
LJ          -2.00643         1.21032        -1.05102
LJ          0.339527        -1.78981        0.548468
LJ          -1.80321       -0.870811         2.00383
LJ           1.62644        -1.30218         1.13308
LJ           1.28772        -1.64731       -0.593083
LJ          0.492639        -1.58718        0.869922
LJ         -0.489059       -0.494348       -0.740035
LJ           2.25885         1.03676         1.77478
LJ           1.57443        -1.67224       -0.645485
LJ         -0.152832         2.40902        -1.88571
LJ          -2.22808         -1.8076        0.394332
LJ           1.44717      -0.0604765       -0.122968
LJ           1.97236        -1.55857         2.24544
LJ           1.53991         1.51964         1.32631
LJ           2.31333         1.92716         2.19458
LJ          0.986571        -2.13094       0.0589805
LJ           1.20581         1.55772         2.52048
LJ          -2.31629        -2.34236        -2.07203
LJ         -0.874595        0.925027       -0.929369
LJ          0.786513         1.68906        0.396431
LJ           2.40855        -2.28899         1.55954
LJ              -nan            -nan            -nan
LJ          -2.35516        -1.04907         1.95702
LJ           1.17341       -0.840667       -0.897624
LJ          -1.80364        -1.51933         1.96964
LJ          -1.90366         0.25252        0.774131
LJ          -2.08684           1.641         1.95468
LJ           1.30425        0.969272        -2.52059
LJ           1.17952       -0.975324       -0.661436
LJ              -nan            -nan            -nan
LJ           1.90029         2.06636         2.23098
LJ         -0.823495         1.30887         2.27064
LJ           2.46294        -1.70764         1.35466
LJ          -1.84194        -2.04487        -2.11811
LJ          -2.27766         1.01549        -2.31578
LJ              -nan            -nan            -nan
LJ         -0.923266        -0.86521       -0.334968
LJ         -0.980217       -0.444004        -2.21817
LJ              -nan            -nan            -nan
