108
#Comment!
LJ          0.579043        0.222102          1.1562
LJ          -2.36754        0.620146         -2.2986
LJ           1.90476        0.305278          1.9412
LJ         -0.811685         1.63707         1.52745
LJ          0.612733        0.275006         1.46383
LJ         -0.420623         1.46514        -1.07028
LJ          -1.94945       -0.100428        -1.71242
LJ           2.51942         2.46889        -2.38293
LJ          -1.56923       -0.655985         1.71938
LJ           1.28895         1.50152       -0.373816
LJ              -nan            -nan            -nan
LJ           1.09481         2.41784        -1.54852
LJ          -1.07129       -0.983355       -0.489474
LJ          -1.92821         1.40203         2.48712
LJ          0.117393         2.41801         -2.1781
LJ              -nan            -nan            -nan
LJ              -nan            -nan            -nan
LJ              -nan            -nan            -nan
LJ         -0.857825         1.03838         1.01451
LJ              -nan            -nan            -nan
LJ           1.47597       -0.233072         1.14622
LJ           2.30505        -1.44198       -0.981129
LJ          -1.29681         1.93027        -2.35707
LJ          -0.84515        0.444513        -1.56981
LJ            1.5706        0.175206        0.906683
LJ         -0.549326        -1.88187       -0.237277
LJ           1.42153        -1.90989         1.61427
LJ          0.155712       -0.824802        -1.74771
LJ           2.42659         1.56447         1.95404
LJ           2.22863         2.11104       -0.183217
LJ           1.96185         1.75381        0.231918
LJ          -1.10162       -0.056275        0.153004
LJ              -nan            -nan            -nan
LJ         -0.604476         1.40704         2.17548
LJ              -nan            -nan            -nan
LJ             -1.61         1.24065         2.55227
LJ          -2.43581       -0.319604       -0.602887
LJ          0.303882       -0.935092        0.967395
LJ          -1.68048        0.470325       -0.395614
LJ         -0.513942        -1.65972          1.8901
LJ          -1.24563        0.869447       -0.647065
LJ           1.74327       -0.656228         1.74754
LJ         -0.902847        0.262177        0.945154
LJ           1.10914         1.70352        0.919196
LJ          -1.99135         1.05071       -0.505927
LJ          -1.86452        -2.35589         2.31003
LJ         -0.985946       -0.906671         2.03794
LJ          -1.20704         2.26568         1.38243
LJ           1.95497         1.71026         2.17214
LJ         -0.589443          -1.264        0.169289
LJ          -1.40747         1.93187        -2.44612
LJ          -1.87714        -2.26616        -1.54774
LJ              -nan            -nan            -nan
LJ          0.516344        0.676414         1.94079
LJ          0.865251        -1.65331        -2.40683
LJ           0.61757         -2.2866        -1.04395
LJ        -0.0812689         1.91012        0.782986
LJ         -0.362975        0.763174         1.57222
LJ           1.56183         2.52203        -2.43364
LJ         -0.685568        0.841154        -2.06049
LJ           -2.3641         2.20524        0.711942
LJ          -1.05867         2.47603       -0.968332
LJ         0.0262126         1.09875         1.18701
LJ           1.61652         1.00872        0.699799
LJ           2.01129         -1.7694       -0.982002
LJ           1.84201          2.4793        -1.28151
LJ         -0.597329        -1.89325        -1.31704
LJ              -nan            -nan            -nan
LJ          0.678607         0.47757       -0.247461
LJ           1.49404       -0.771075         1.92766
LJ         -0.281641        -2.34689        -2.15553
LJ           1.95657       -0.135768         1.39686
LJ           -1.1503        0.893093       -0.183002
LJ         -0.200634       -0.223349       -0.434004
LJ           1.69706         2.21339        0.830652
LJ         -0.687528       -0.383166        0.604635
LJ           2.38654        -1.59991        0.935044
LJ          0.705751       -0.782519         1.60345
LJ           1.71514        0.782549        -1.71703
LJ          -1.91847         2.05454           1.472
LJ          -1.16839        0.799528        -2.56306
LJ          -1.94354        -1.12715           2.104
LJ           2.53192       -0.940795         1.00818
LJ           1.20538         1.72114         1.87292
LJ           2.04461         2.38732         1.23857
LJ          0.777248        -2.47631       -0.572843
LJ           1.70411        0.229996        -1.70999
LJ          0.462278         1.99177        -2.16075
LJ           1.09473         1.01447        -1.41363
LJ          -2.49733        -2.49113        0.221059
LJ              -nan            -nan            -nan
LJ          -1.40622         0.69434       -0.354149
LJ           1.04948        -2.50963          1.5877
LJ         -0.542252        0.611775        -1.01956
LJ           2.15192         1.55844         1.20764
LJ           2.25241        0.261057        -1.97909
LJ           1.93066        0.889423        0.242829
LJ          0.290479         2.43275       -0.490563
LJ              -nan            -nan            -nan
LJ          -2.37805         1.54464        0.608487
LJ           1.59499        0.159509       -0.981745
LJ           1.46846       -0.397361         1.13363
LJ           1.26586         1.67878        0.719871
LJ          -2.52471        0.081297        -2.03742
LJ            1.9695        0.145443        -1.55204
LJ           1.49167         1.41667        -1.04579
LJ          0.779771         1.88095         1.81083
LJ              -nan            -nan            -nan
