108
#Comment!
LJ       -0.00804307        0.133352        0.726875
LJ          -1.27576        0.830028        -1.35587
LJ          0.356496       -0.731589         1.30731
LJ          0.563541        0.588099        0.894961
LJ          -2.51751        -2.27073       -0.387891
LJ           2.20525         2.03446         1.22034
LJ          -2.26708        0.553725         1.88487
LJ           1.91405       -0.341276        -1.45716
LJ           1.17621       -0.240416       -0.128838
LJ          0.976971        -1.36259         1.44957
LJ              -nan            -nan            -nan
LJ          0.931332         1.75153        -1.51169
LJ         0.0189608       0.0803841         2.26122
LJ              -nan            -nan            -nan
LJ           1.16992        -0.89516        -1.68909
LJ              -nan            -nan            -nan
LJ              -nan            -nan            -nan
LJ              -nan            -nan            -nan
LJ         -0.172061         -1.2583       -0.507122
LJ              -nan            -nan            -nan
LJ          -1.87307         2.23493         0.26206
LJ          0.673101         1.71697        -2.22163
LJ           1.77748        -2.31343        -1.39837
LJ              -nan            -nan            -nan
LJ           1.99591       -0.797188       -0.546706
LJ          -1.92512        0.255143        -1.01655
LJ          0.987439         1.25427        0.681519
LJ           1.26687        -2.53972         1.63204
LJ          0.831131         1.53414         2.10923
LJ         -0.227791       -0.937636         2.48993
LJ              -nan            -nan            -nan
LJ            -1.211        -2.52735       -0.294261
LJ              -nan            -nan            -nan
LJ          0.645488          1.6436        -1.39853
LJ              -nan            -nan            -nan
LJ           2.17994       0.0561382        -1.40902
LJ           1.39259         2.27447         1.55654
LJ           1.94159        -1.34419       0.0149089
LJ           1.46918        -1.15695         1.20572
LJ          0.603195        -1.27588        -1.45681
LJ           1.77833        -1.14804         2.28779
LJ           2.11847         -1.0733        -1.74879
LJ          0.302248         1.37395        -1.03756
LJ          -1.23199        -1.82786         2.55001
LJ          -1.40764        0.879663       -0.329746
LJ         -0.523498        -1.26517         1.79014
LJ           2.43502         2.50671        0.781882
LJ           1.60842     -0.00168018         1.28278
LJ          -1.68793        -2.55585       -0.450061
LJ           1.31107        0.170899        0.969373
LJ          -1.02904          1.0275         1.70891
LJ           1.96029     -0.00792481         2.21822
LJ              -nan            -nan            -nan
LJ         0.0198768        -1.87691          2.0189
LJ         -0.539338        -2.55854        -2.51947
LJ            1.5005        -1.79129       -0.702128
LJ          -1.17881       -0.407602         1.39541
LJ          -1.84046        -1.64936         2.48853
LJ           -1.5121         -1.1389        -1.17273
LJ           1.79193       -0.672661         1.32827
LJ         -0.784348       -0.340341        0.942694
LJ         -0.954882        -1.35258       -0.863467
LJ          -1.72434        -1.40151         1.86474
LJ              -nan            -nan            -nan
LJ              -nan            -nan            -nan
LJ          -1.41641         1.17879         2.52912
LJ          -1.48795        -2.27639        -0.37603
LJ              -nan            -nan            -nan
LJ         -0.310713        -2.33982        0.377311
LJ           2.52466        -1.04731       -0.514908
LJ         0.0767806        0.572712        -2.48365
LJ          -1.42998          1.3851         1.84353
LJ          -1.53962         -1.6932         2.53986
LJ           1.50342        -1.35577        0.371741
LJ           1.14607         1.36229        0.222094
LJ           1.75812        0.315837          1.2432
LJ          -1.74838       -0.553303        -1.83601
LJ           1.81983        0.344578        -1.26655
LJ          -2.12731       -0.637196         2.24672
LJ           1.42965         1.14654       -0.650556
LJ           2.38409         1.75677        -2.45858
LJ           -1.0319        -2.45046         2.08405
LJ          -2.42909        -2.09693         1.12438
LJ           2.32043         1.63502           1.805
LJ           2.32246        -1.86778       -0.532594
LJ         -0.765041        -1.99411        -1.56095
LJ          -2.53899       -0.769514         2.43481
LJ           2.36382        -2.03779      -0.0764504
LJ         -0.391578        -2.35592        0.418131
LJ          -1.50658       -0.812623        0.737632
LJ              -nan            -nan            -nan
LJ           1.43098         -1.9117         2.49701
LJ          -2.46544        0.666239        -2.02745
LJ           1.70462        0.509594         1.44182
LJ          -1.69774         1.49129        0.101529
LJ           1.67726          1.3477        -0.89907
LJ           2.12155        -1.20147       -0.309975
LJ          0.594748         1.38961         2.09842
LJ              -nan            -nan            -nan
LJ           2.51056         1.07436      -0.0795061
LJ          0.733355       -0.745838         2.55753
LJ           2.02703        -2.00584         1.05457
LJ           1.84015        -1.55769       -0.486064
LJ          0.168918       -0.367372        0.203496
LJ              -nan            -nan            -nan
LJ         -0.525518         1.46209        -2.17507
LJ          -2.32656        -1.15378       -0.864174
LJ              -nan            -nan            -nan
