108
#Comment!
LJ          0.251485       -0.717699         2.08059
LJ           -2.0272         0.25125         1.32685
LJ          -1.47806         1.49233         2.52001
LJ           1.37057       -0.479954        -1.43552
LJ         -0.437993         2.09744        -1.45565
LJ           2.00307         1.31413        -2.03882
LJ         -0.392424         1.72797         -1.3232
LJ          -1.37519       -0.379542         1.30247
LJ           1.92559        -1.03341        -1.98566
LJ           2.35309         1.63706          -1.775
LJ              -nan            -nan            -nan
LJ         -0.913315       -0.752759       -0.845711
LJ          -1.33253        0.845194        0.546905
LJ          0.108404       -0.730239         2.49141
LJ             0.301        -1.33125         1.28252
LJ          0.647306        -1.21013       -0.778025
LJ           2.36863         2.29233        -1.79054
LJ         -0.256648         -1.3142        0.343517
LJ           2.01121        -1.89615        -1.46808
LJ           2.41643        0.364221          2.3547
LJ          -1.25544       -0.887353         2.30867
LJ         -0.258271         2.42215         2.45631
LJ           1.74806         1.92132          2.2224
LJ           0.34927          1.2986        -1.39763
LJ           1.53738        -1.79932        -1.55227
LJ           2.11577        -1.76258        -0.42099
LJ          -2.41778        0.193416       0.0947331
LJ         -0.908917         2.55508        0.395021
LJ           2.50978         -1.4253        0.390249
LJ           2.23546       -0.617345        0.871187
LJ         -0.171279        0.964277        0.374591
LJ          -1.22296         0.39722        0.777714
LJ              -nan            -nan            -nan
LJ           2.42593         1.10169       -0.855035
LJ           1.78953       -0.158085         -2.1265
LJ           0.11519       -0.614428         2.47778
LJ           2.17759       -0.168229         1.23024
LJ         -0.390713         1.40435        -1.35515
LJ          -1.90033         1.39872         2.24738
LJ         -0.273401         1.36353        0.851951
LJ           1.63272         -1.6455         1.23632
LJ        0.00220556         2.04225        -1.52789
LJ          -1.06809         1.60019         1.82369
LJ         -0.578705         2.51201         2.25806
LJ          0.740794        -2.15441         1.38524
LJ          -2.41872        0.547163        -1.54877
LJ           -1.6651         1.19276       -0.526194
LJ           2.40488          1.7338       -0.666502
LJ           1.50387       -0.217548         2.44048
LJ           2.52254       -0.718361        -1.82811
LJ          -1.79842        -1.21336        0.674322
LJ          -2.17677        0.981522         1.16414
LJ          0.333066        0.376733        0.759157
LJ          -1.90732        -1.62066        0.126989
LJ          -1.17522        -1.61848        -1.20248
LJ          -1.46109       -0.982855        0.092721
LJ          -2.55726        -2.26592        -1.60302
LJ          -2.45022       -0.409435         1.26578
LJ         -0.862019        0.260349         1.01612
LJ          -2.25169       0.0301053        0.200809
LJ          0.224392         2.41012         1.75272
LJ          -1.02396        -1.38376       -0.704437
LJ          0.859641        -2.51903         1.54452
LJ          0.987307        -1.27668         -2.2847
LJ           -2.5346        -1.99061        -1.64176
LJ         -0.570089       -0.262874        0.699312
LJ           1.21831        -1.74723         1.70958
LJ          -1.87277        -1.74414        0.220594
LJ          -2.27578      -0.0824658         2.26835
LJ            1.4971       -0.779629        -2.31845
LJ         -0.256954         2.20797        -1.26213
LJ           2.26445         1.02688         1.44868
LJ          -1.87586        -2.51797        -1.27722
LJ         -0.946061        0.883335        0.992524
LJ          0.192762        -1.24888       -0.640462
LJ           1.28342        0.192062        -2.21019
LJ          0.297633         1.31849        -2.22087
LJ          0.112849       -0.291056       -0.633211
LJ         -0.689132        0.461385       -0.193786
LJ           2.29824         2.32559       -0.392432
LJ           2.39955          0.3549         1.84943
LJ          -2.10023        -2.40268        0.306568
LJ          -2.38828         1.69418       -0.442973
LJ          -2.12901         2.31027       -0.178956
LJ         -0.853684         1.82519         1.21026
LJ          -1.08118         1.77615         2.32448
LJ          -1.11184       -0.294794       -0.273272
LJ           2.24888       -0.469599        -1.30032
LJ          0.792758        0.945373         1.94343
LJ          -1.72607       -0.997323        -2.29094
LJ          -1.76246         1.86538        -2.37366
LJ          -1.80911         1.90917      -0.0514528
LJ          -1.23852          1.8031       -0.971902
LJ         -0.981871        -1.75389      -0.0982767
LJ         -0.801597       -0.784221        0.980404
LJ          0.482875       -0.863631        -2.24668
LJ          0.984917         1.90122         2.34129
LJ           1.04162        -1.11089         -1.6758
LJ          0.258798       -0.739367         1.40202
LJ         -0.226201         1.30902        -1.96355
LJ           2.01648         2.02912          -1.995
LJ          -1.74207         2.06671         0.93865
LJ         -0.934433         2.06742        -1.09243
LJ           1.95104        -1.43641         1.96956
LJ          -1.84679        0.173122         -1.3787
LJ          -1.32375       -0.766511       -0.879986
LJ         -0.644346         2.34801        -1.91259
LJ           1.45727        0.184453         1.48941
