108
#Comment!
LJ          0.724163         -1.3532        -1.81281
LJ          -2.24616        -0.28026       -0.205688
LJ          0.684714        -1.52017       -0.205808
LJ        -0.0229211         1.77509        -1.81708
LJ         -0.556851         1.38323        -2.49674
LJ           1.92274        -1.65234        -1.15477
LJ           2.15897       -0.506079       -0.602926
LJ          -1.15415        -1.77176         2.03266
LJ           1.00143        0.160073         1.37369
LJ          -2.08079        0.661384         -0.8031
LJ              -nan            -nan            -nan
LJ           -2.3998        0.116103         2.50626
LJ           1.91216         2.52356          1.6762
LJ           2.47825         2.30595        0.201826
LJ          -1.97772         1.34559        0.877095
LJ           -1.3783       -0.640672        -1.50062
LJ              -nan            -nan            -nan
LJ              -nan            -nan            -nan
LJ        -0.0713906        -1.63778         1.03825
LJ              -nan            -nan            -nan
LJ            1.5859       0.0981364        -1.64107
LJ           2.00494        -1.30776       -0.470402
LJ          0.366301        -1.14608         1.37999
LJ         -0.204753        -1.13943        -1.82397
LJ           -2.4284        -2.49083        -1.79898
LJ           2.27198         1.36908         2.02823
LJ           1.62847       -0.539543       -0.562208
LJ          -2.49791         1.19213        -1.08409
LJ         0.0997907         2.30008        0.256428
LJ          -2.20368       -0.242642         1.78132
LJ           2.54733        0.920706        -2.54389
LJ          0.398509        0.687886        -1.31838
LJ              -nan            -nan            -nan
LJ            2.5376        0.327291        -2.07782
LJ              -nan            -nan            -nan
LJ          0.188255        -2.05519        0.750394
LJ           2.52495         1.08658        -2.19823
LJ          0.213895       -0.720897        0.177859
LJ          -1.52504         2.54436       -0.834433
LJ           1.09783          1.0029        0.716804
LJ          -0.84478        0.732579       -0.548278
LJ           2.32868       -0.124195         1.11894
LJ           1.55136         2.19966       -0.134918
LJ           1.54993         1.75595        -1.18458
LJ          -2.06372        -1.36276         1.72593
LJ            -1.218         1.69647        -0.35275
LJ          -0.37873        -2.51594       -0.431741
LJ           1.31124        0.168076        -2.32598
LJ          -2.06324       -0.377124        -1.35907
LJ          0.832207       -0.110687        -1.13998
LJ          0.435077       -0.282724        -2.42256
LJ          -1.18296        -2.15553        0.148552
LJ              -nan            -nan            -nan
LJ           1.71451        -2.29572         2.42184
LJ         -0.745131        -1.69371       -0.230977
LJ          0.857926        -2.25133        -1.56075
LJ          0.991329        -1.97131        -2.15196
LJ          -1.27316        -2.56258        -1.27452
LJ           2.50331       -0.641064         1.26021
LJ         -0.164075        -1.41162        -2.00246
LJ          -1.35561         0.64833       -0.744773
LJ           1.34146       -0.805304        0.659914
LJ         -0.134512        -1.73095        0.361945
LJ           1.45546         1.03097        -2.49348
LJ           2.35242        -1.26339         1.10383
LJ        -0.0919377         1.41831        -1.77999
LJ          0.331547        0.401072         2.09665
LJ              -nan            -nan            -nan
LJ         -0.832683        -2.45535         2.14082
LJ           2.14915        -2.16148         2.12859
LJ           2.16272        -1.25199         2.27087
LJ          -0.14897        -1.08902         1.85418
LJ           1.27432        -2.38431         1.43284
LJ         0.0830056        -1.80827        -1.23272
LJ           1.41435        -1.57143       -0.987148
LJ         -0.888784         -1.6269         1.80553
LJ           2.26713        -2.24047        -2.33325
LJ         0.0478761       -0.678087          1.0709
LJ          -1.51913         1.80637        -1.53301
LJ         -0.712982         1.15474        -2.07628
LJ          0.518812         1.62767        0.467808
LJ         -0.645125         2.42889       -0.307099
LJ           1.21206       -0.251012         2.32446
LJ          -1.80012        -2.41305         2.53043
LJ          -1.00343        -1.57053        0.482574
LJ           2.31624       -0.793944        -1.16551
LJ          0.442342        -2.36419         1.43885
LJ          0.712423         1.81225      -0.0560702
LJ         -0.232426         1.46303       -0.759072
LJ          0.947076        -2.55151       -0.350071
LJ              -nan            -nan            -nan
LJ          -1.30358        -1.33642        -1.35899
LJ          0.128467        -2.05464        0.843837
LJ           2.19528        -1.05991          2.2422
LJ          -1.21592         1.66031       -0.352484
LJ           2.33582          2.1472         2.45337
LJ           2.50926        -2.09411        0.801619
LJ          -2.28139        -1.89619         1.84792
LJ          -1.36809        -0.64375        -1.49297
LJ         -0.499261         1.25734         2.13091
LJ         -0.516104        0.446198        0.960512
LJ        -0.0727663         1.48258        -1.79405
LJ         -0.733267       -0.854896         2.29734
LJ           1.57261         2.54279        -2.44282
LJ          -1.84387        -2.34369         1.84655
LJ           -2.4529         -2.4949        0.608395
LJ            -1.833         1.13774        -1.22141
LJ              -nan            -nan            -nan
