108
#Comment!
LJ        -0.0683865        0.498911        -1.61669
LJ          -1.98254         2.07249        -1.96292
LJ          0.734469        -1.48538        -1.09157
LJ          0.288257         1.47123        0.750917
LJ          0.263988         2.24835         1.94472
LJ          0.923668         2.41523       -0.179747
LJ         -0.346409        0.120522        0.728602
LJ          0.359542         1.79908       -0.331601
LJ          0.540562         1.33053         2.54105
LJ         -0.801681        -1.93217        -1.80683
LJ              -nan            -nan            -nan
LJ           1.35423         1.61629        0.948843
LJ            2.3358        -1.51248        -2.05032
LJ              -nan            -nan            -nan
LJ          -0.62552         2.12106        -1.99865
LJ              -nan            -nan            -nan
LJ              -nan            -nan            -nan
LJ              -nan            -nan            -nan
LJ           2.52441        0.217327         -2.5353
LJ              -nan            -nan            -nan
LJ           0.50213         0.38463         -2.4161
LJ          -0.73029         1.04365        -1.01527
LJ          -2.38122         1.85215         2.53457
LJ              -nan            -nan            -nan
LJ         -0.703037         1.28543       -0.630323
LJ          0.825233        -1.59424        0.050373
LJ           0.75282       0.0670357      -0.0173185
LJ           1.23843        -2.19219          0.6647
LJ          0.390282      -0.0396583       -0.204641
LJ          -2.38588        -2.18537       -0.513146
LJ              -nan            -nan            -nan
LJ           1.56085          2.2865       -0.784256
LJ              -nan            -nan            -nan
LJ           1.58993        0.425686        -1.79208
LJ              -nan            -nan            -nan
LJ         -0.975023        -2.02027        0.085474
LJ          -2.11732        -2.41405         1.42984
LJ          -1.61177        0.746308      -0.0678788
LJ         -0.269431        0.535549        -1.19953
LJ           2.09247       -0.740832         -1.9513
LJ         -0.996616        -2.27792        0.744269
LJ         -0.486718         1.61483         2.46176
LJ          0.260905         -1.8248        0.569941
LJ          -2.15346       -0.737743       -0.178899
LJ          -1.58275         1.63974         0.34649
LJ          -0.85692        -2.24383       -0.937835
LJ          0.667604        0.861367        0.777512
LJ         -0.757217        -2.10169         2.42811
LJ          -2.54765         -1.3891         1.85836
LJ          -1.36255       -0.423815        -1.11735
LJ           2.20662        -1.13609        -1.93163
LJ          -1.22065        -1.62249        -2.01165
LJ              -nan            -nan            -nan
LJ          0.749758        0.477141          1.1959
LJ           1.31691         -1.6148      -0.0757794
LJ           1.26409       -0.210441         1.95729
LJ           1.91992         1.73759        -1.43759
LJ          0.976287       -0.827422         1.70303
LJ           -0.1596         -2.2204         -1.9808
LJ           0.97134        -2.45319        -1.08332
LJ           0.94074        -1.87934       -0.960057
LJ          -1.12813       -0.471725       -0.253181
LJ            1.8043          2.5131         2.14915
LJ              -nan            -nan            -nan
LJ              -nan            -nan            -nan
LJ           2.17426        0.255013         2.22941
LJ          -1.29575        0.808133         1.44923
LJ              -nan            -nan            -nan
LJ           -1.7531       -0.448352         1.96147
LJ           -0.8669        -0.80638         -2.3945
LJ          0.322187       -0.887102        -1.65639
LJ          -1.10574         1.90788        0.611717
LJ         -0.347917        -1.71755          1.1951
LJ          -1.12571        -1.17272       -0.851104
LJ          -1.37147      -0.0420486       -0.278495
LJ         -0.465706        -2.44384        0.898423
LJ          -1.55503        -2.17791        -1.60955
LJ          -1.11478        -2.40397        0.236215
LJ         -0.254874        -1.82658        -1.18669
LJ          0.571997         1.20498         1.68529
LJ          -1.49524         -1.8251         1.95657
LJ         -0.296514        0.904669        -1.72119
LJ          0.283056        0.706341       -0.483472
LJ         -0.998322        -2.17856        -2.40702
LJ            1.9388         1.31881        -1.77856
LJ          -1.71376        0.987856        -0.33765
LJ          -1.58516        -1.11587         1.38785
LJ         -0.270882       -0.439344        0.186878
LJ          -0.26976        0.486078         2.17667
LJ           1.55359        -1.50002         2.27193
LJ              -nan            -nan            -nan
LJ           2.49293         -1.7593        -1.96404
LJ          0.926576        0.544079         2.53642
LJ         -0.836308         -1.7563        0.149492
LJ          -1.73203         1.91226        -1.08664
LJ           1.44664        0.700319        -2.18827
LJ          -1.44227         1.14033         2.29483
LJ           1.52377         2.14985        -1.36905
LJ              -nan            -nan            -nan
LJ          -2.41784         0.96104        0.761059
LJ           1.03324        0.618083         1.12175
LJ           1.34179         0.12883       -0.644289
LJ          0.625915        -1.72205        0.198487
LJ           1.03658       -0.142371          1.3996
LJ              -nan            -nan            -nan
LJ            1.2839         2.00435    -0.000484687
LJ          -1.88791       -0.638848         1.97395
LJ              -nan            -nan            -nan
