108
#Comment!
LJ           1.52162       -0.791976         1.41506
LJ          -2.02872        -2.25125       -0.119136
LJ         -0.448393         2.52441         1.39574
LJ           1.49416         1.30823       -0.290567
LJ         -0.153313        0.566787        -1.34734
LJ          -2.16252        -1.29748        -0.27932
LJ         -0.882776         2.18587        -1.22655
LJ           1.67356         2.26287        -1.58981
LJ          -1.04163         2.37554         2.19807
LJ          0.435988       -0.842215       0.0246848
LJ              -nan            -nan            -nan
LJ         -0.633221         -1.7135        -0.67927
LJ          0.886567        -0.79402        -1.96442
LJ              -nan            -nan            -nan
LJ          -2.21085        0.695633       -0.602383
LJ              -nan            -nan            -nan
LJ              -nan            -nan            -nan
LJ              -nan            -nan            -nan
LJ           1.98189        0.823241       -0.104641
LJ              -nan            -nan            -nan
LJ           1.46302         1.41968        -2.29928
LJ           1.01826         1.25051      -0.0219025
LJ         -0.203694       -0.121969         1.05866
LJ              -nan            -nan            -nan
LJ         0.0720236        0.592214      -0.0464472
LJ          -0.75671        0.582427        0.270043
LJ           -2.3214           2.303        0.709435
LJ           2.17393        -2.52771       -0.899097
LJ           2.09269        -2.54554         2.36299
LJ          -2.25765        -1.66883        -1.93189
LJ              -nan            -nan            -nan
LJ          0.998543       0.0126501         2.30292
LJ              -nan            -nan            -nan
LJ          0.799455         1.16514         1.45441
LJ              -nan            -nan            -nan
LJ         -0.570382        0.777493        0.516135
LJ          -2.06598        0.844363         1.34452
LJ          -1.87138       -0.936253         0.48642
LJ          -2.17738         1.38562      -0.0345579
LJ            1.7312        -1.76978         2.13776
LJ          -1.45323        -1.35963      -0.0191397
LJ          0.707239         1.75797         0.69675
LJ          -1.87514       -0.418731         1.64891
LJ          0.653922        0.907073         1.26657
LJ          0.998627        0.162035        0.658117
LJ         -0.562835        0.554069       -0.301604
LJ          0.158122        -2.37512        -1.59239
LJ          -1.27566         2.42361        0.327521
LJ         -0.837416       -0.893183        0.698412
LJ          -1.21006        0.319654         1.84251
LJ           1.27786        0.950492        -2.09577
LJ          -2.27802           1.736       -0.305978
LJ              -nan            -nan            -nan
LJ          -1.00093       -0.635382      -0.0925699
LJ        -0.0281259        -2.38844         1.30569
LJ          -2.52988        -2.16836        0.128285
LJ          -2.49159      0.00885308        -2.55774
LJ         -0.459057         1.89467        -2.13957
LJ           1.54295          2.2117       0.0342229
LJ        -0.0224287       -0.784159        0.304347
LJ           1.24898         1.81049       -0.590134
LJ         -0.200239       -0.220288        0.468135
LJ          -2.01454        -1.30061         2.55682
LJ              -nan            -nan            -nan
LJ              -nan            -nan            -nan
LJ           1.24773         1.78378        0.989148
LJ          -2.45504          1.6545        -1.81581
LJ              -nan            -nan            -nan
LJ          -1.95236       -0.863695       -0.119607
LJ          0.752019       -0.566648       -0.723192
LJ         -0.291726       -0.872629         2.26959
LJ          -2.55834         1.62034        -2.04948
LJ         -0.422953         1.33017       -0.390513
LJ          -2.15416       -0.336195       -0.813799
LJ        -0.0816412       -0.824921        -2.54368
LJ           2.52128        0.704698        -2.08827
LJ           1.36262         1.46905       -0.034701
LJ          -1.21345         1.18992        -1.14015
LJ          0.892762        -1.84735         1.40168
LJ         -0.491347        -1.41291         1.16301
LJ           2.26785         1.64917        -1.96431
LJ          -1.23663        0.555565        -1.74254
LJ          -1.76908         0.33024       0.0388073
LJ          0.962723         1.54855        -1.73178
LJ          -2.40839        -2.51968       -0.916952
LJ           1.77831         1.92627        -2.29335
LJ          -2.41605        0.384475        -1.54982
LJ          -2.07286         2.44969        -1.16895
LJ         -0.478516         2.44064        -1.55951
LJ         -0.466166        -2.10452       -0.274281
LJ              -nan            -nan            -nan
LJ          -2.27136         1.78272         1.21947
LJ          -1.36604       -0.184277       -0.826227
LJ          0.389176          1.8079        -1.02841
LJ          0.759665       -0.448078       -0.188657
LJ           1.89213         1.32097        -2.25395
LJ         0.0943952        -2.34129         1.42151
LJ           1.82398         -1.3152         1.75492
LJ              -nan            -nan            -nan
LJ        -0.0402569         1.72607         2.47148
LJ          -1.02798         1.28488        0.373762
LJ          -2.40553        0.639189        -1.72462
LJ           1.40698         1.90318          1.9452
LJ           1.76039        -1.17055        -2.30997
LJ              -nan            -nan            -nan
LJ         -0.346049       -0.288443         -1.0183
LJ           1.17681        -1.09676         2.03054
LJ              -nan            -nan            -nan
