108
#Comment!
LJ          0.139785        0.516171         1.19672
LJ           2.15779       -0.465604         2.07972
LJ          0.469274        0.186066        0.836209
LJ           1.53595        -1.73675         1.51882
LJ           1.73866         2.49953        0.980092
LJ           2.41486         2.01035        -1.00284
LJ            1.8203       -0.606654      -0.0611636
LJ         -0.338761           1.179        -1.00603
LJ           2.31135       -0.066389        0.176587
LJ          -2.22888         1.94037       -0.989606
LJ              -nan            -nan            -nan
LJ             1.672        -1.28261         1.50489
LJ          -2.16208         0.52583         1.74061
LJ          -1.91712        0.101407       -0.156592
LJ           2.13877         1.43771        -1.72296
LJ         -0.845826        0.381071          1.9391
LJ           1.92419       -0.334931       -0.404774
LJ          -1.02981        -1.40103        0.984042
LJ          -1.46966         1.70419        -1.29708
LJ          -2.35845        -1.52865          -2.177
LJ           2.56489        -2.40767          1.6281
LJ          -2.53038        0.130648       -0.344345
LJ           1.17459         -1.3784        -1.81314
LJ         -0.775038         -1.5017      -0.0932912
LJ        -0.0172343        -2.23384         -2.0285
LJ        -0.0291971         2.52564        0.466639
LJ          -1.89265        -2.06157         1.44397
LJ           0.80088        0.983468        -1.94197
LJ           1.57623         1.84105       -0.696251
LJ          -1.52484        0.411753         -1.5739
LJ          -2.49143        -1.58299         1.62166
LJ           1.37738        -1.41383       -0.261538
LJ              -nan            -nan            -nan
LJ           1.17017       -0.612534         1.26549
LJ              -nan            -nan            -nan
LJ          -1.27726       0.0832253        -1.44369
LJ           1.47124          1.9744        -1.65389
LJ           1.21951        0.922824        0.909678
LJ          -1.18904        -1.26998       -0.427254
LJ           1.40636       -0.204581        -1.58841
LJ          -0.30193       -0.151702       -0.113608
LJ           1.32498         1.77913        0.159125
LJ          -1.83468        -1.07178           1.466
LJ           -0.3491        -1.16934          1.8268
LJ        -0.0325124        0.348418       -0.506126
LJ         -0.557481         1.57017         0.81296
LJ         -0.157522        -1.08674       -0.869011
LJ           1.73373         1.38409       -0.367145
LJ         -0.434897         0.40114       -0.282019
LJ           1.23371         1.27247         1.79849
LJ          0.124512         2.37379         1.92752
LJ          -1.91864        -1.38722       -0.338494
LJ           1.73649       -0.664655         1.13856
LJ           1.73568        0.985607        0.981768
LJ         -0.901508         1.28243          1.5238
LJ          -1.96508        0.297687        -1.14117
LJ         -0.197145       -0.125824        0.221855
LJ          0.403225       0.0903766        0.689394
LJ          -2.50192        -1.03281        -1.76665
LJ           1.32238        -1.54308         2.35465
LJ         0.0501154        -1.06281        -1.88523
LJ          0.681999         -2.3658        0.696293
LJ         -0.551075        -1.90336        -2.16915
LJ        -0.0445763        -2.35456        0.348275
LJ        -0.0754303        0.945117       -0.447581
LJ          0.711685        0.589223       -0.452318
LJ          0.642571         1.75306        -1.80789
LJ              -nan            -nan            -nan
LJ           2.14838        -1.82863         1.88068
LJ          0.984031        -2.41244        0.604442
LJ            1.5954         2.52736         1.01187
LJ          -1.28862       -0.116703       -0.795014
LJ           -1.8473        0.431391        -1.50658
LJ         -0.127273        -1.29125       -0.021174
LJ          0.171046        -1.47698        0.349112
LJ         0.0824693        -2.39381        -1.33969
LJ           1.59903        -2.13415         2.16872
LJ           1.00121        0.593447         1.06677
LJ            2.1613       -0.718412        0.190053
LJ          -2.02094         1.76439         2.38704
LJ         -0.133754        0.945007         1.96895
LJ          -2.20683        -2.15817       -0.794776
LJ          0.100307          1.1052        -2.09305
LJ           -0.8186         2.38265       -0.220792
LJ          -1.41348         1.19972       -0.317785
LJ         -0.827176        0.873881        -2.51869
LJ           2.07169         1.03733         1.04683
LJ          -1.06017       -0.321208       -0.206425
LJ          -0.07967       -0.233049       -0.257852
LJ          0.306205        0.385769         1.45493
LJ          -1.44958       -0.568277         1.51002
LJ          -1.64143        0.649189        -2.06556
LJ         -0.539453        0.976959        -1.53125
LJ          -1.50532        -2.25971      -0.0020039
LJ         0.0780628         2.31659      -0.0622172
LJ            -1.955        -1.28416        -0.47012
LJ           2.50286       -0.148132         2.56124
LJ          0.866394        -2.25561        -0.64527
LJ          -1.52628         2.02128         0.83889
LJ          0.368335         1.44898         -1.0514
LJ        -0.0992891       -0.907212         1.01674
LJ           1.35737       -0.426633         1.40383
LJ          -1.60164        0.719862        -1.56867
LJ             2.361         0.97747        0.876117
LJ           1.14975        -1.83605        0.162509
LJ         -0.536865        -2.41398        -1.90195
LJ            1.6296        -0.58233        0.776028
LJ           0.23498         -1.9575          2.3976
