108
#Comment!
LJ           1.20879         1.35053       -0.237458
LJ           1.03365         -1.5071         0.49303
LJ           1.67151         2.03055        0.936087
LJ           -2.4331        -1.24767       0.0708473
LJ         -0.169586         1.40444         1.26233
LJ           -2.2219        -1.07437        0.778735
LJ         -0.771237         2.21164       -0.769964
LJ          -1.14888        -2.02089        -2.32165
LJ         -0.749624         1.29429         1.85751
LJ         0.0234382         -2.4916       -0.594279
LJ              -nan            -nan            -nan
LJ         -0.373005        -2.07647       -0.548469
LJ          0.763371         1.98767         2.18362
LJ              -nan            -nan            -nan
LJ         -0.718153         1.52552         2.55897
LJ              -nan            -nan            -nan
LJ              -nan            -nan            -nan
LJ              -nan            -nan            -nan
LJ          -0.69946       -0.149799        -1.50819
LJ              -nan            -nan            -nan
LJ          0.741516        0.057659         1.76906
LJ          0.569094         2.01963        -0.96779
LJ            2.3911       -0.382983        -1.51891
LJ              -nan            -nan            -nan
LJ          -1.69086        -2.31426        -1.10662
LJ          -1.74693         1.57207        0.327939
LJ         -0.613347        -2.43817        0.706848
LJ           1.82849        0.735542         1.66123
LJ          0.280617        -1.32732        0.690354
LJ         0.0664848       -0.741925        -2.00135
LJ              -nan            -nan            -nan
LJ          0.421802        0.486454         2.40701
LJ              -nan            -nan            -nan
LJ          -1.50633       -0.161943       -0.627868
LJ              -nan            -nan            -nan
LJ          0.156702       -0.163625        -1.17427
LJ          -2.55883        -1.15457        -1.68419
LJ         -0.898811         -2.0895        0.666025
LJ          -1.28193         2.44318       -0.236727
LJ          -1.17389         1.33789       -0.961598
LJ           1.86195         1.13562         1.61625
LJ            2.3548       -0.713974       -0.693846
LJ           2.55983         2.47552          1.4952
LJ          -1.96427         2.30091         1.38037
LJ          -1.87699         1.17445       -0.327734
LJ          0.711538        0.628352        -2.43202
LJ          -1.26427       -0.482379         0.89988
LJ           1.97095         1.55715         2.28347
LJ           2.10873        0.507316        -1.36943
LJ           2.03167         -1.7293      -0.0629479
LJ           2.54358        0.150196       -0.135973
LJ         -0.232079         1.63183         1.18705
LJ              -nan            -nan            -nan
LJ          -0.54399         -1.2089        0.391812
LJ            1.8868       0.0762932        -1.99444
LJ          -1.37885         2.07355         2.00812
LJ          0.443418        0.526029        0.693425
LJ         -0.513763       -0.632921        0.429212
LJ          -2.36088        0.467947         1.71748
LJ          -1.82009        -2.17959         2.10653
LJ           1.43125          -1.658        0.532603
LJ         -0.532885        -0.90305        -1.97477
LJ          0.752586        -1.82421       -0.945365
LJ              -nan            -nan            -nan
LJ              -nan            -nan            -nan
LJ         0.0752722        0.458659       -0.669217
LJ         -0.328435         2.28043       -0.964752
LJ              -nan            -nan            -nan
LJ          -2.49014         2.02179       -0.345846
LJ          0.802696        -2.50675       0.0879584
LJ          -1.44418         2.31205        -2.55295
LJ          0.019804        -0.21325         2.51191
LJ          0.236919       -0.752268        -1.96632
LJ         -0.840326         -1.4187        0.373442
LJ           2.44425         2.36336       -0.947853
LJ           1.49332         1.91404        -1.42133
LJ          -1.45793        -2.17844        -1.90069
LJ            -2.365         1.95302        -1.14255
LJ            2.5533         1.89446        -1.27167
LJ        -0.0383936        -1.71689        0.147719
LJ           1.42208         2.53219        0.647808
LJ          -1.73613        -1.40873        -2.37701
LJ           0.60107       -0.371059         1.05234
LJ          0.918942        -1.79924         1.98517
LJ           1.66744         2.00089          2.1156
LJ           2.36563         2.16493         1.47017
LJ         -0.103044        -1.29924        -2.52578
LJ           2.08415       0.0942331          1.2571
LJ           1.60091         1.23397        -1.29005
LJ          0.182301         1.42516       -0.293166
LJ              -nan            -nan            -nan
LJ         -0.356187       -0.758032       -0.168603
LJ          -1.16272         1.31167         0.85916
LJ          0.418429        -2.14046        -1.57454
LJ         0.0148107        -1.15437        0.507434
LJ          -2.00929         2.23237        0.018371
LJ           1.88274        0.118158         1.41697
LJ         -0.414513         1.69134         1.74717
LJ              -nan            -nan            -nan
LJ         -0.265683         1.68865        -1.18105
LJ           1.67718       -0.294263        -1.79481
LJ           1.16144         1.30101        0.877069
LJ         -0.536099        -2.21635        -2.52513
LJ           -1.0537       -0.891964          1.5244
LJ              -nan            -nan            -nan
LJ         -0.366897        -1.90551         1.81699
LJ          -2.07181       -0.961998       -0.711448
LJ              -nan            -nan            -nan
