108
#Comment!
LJ          0.868221       -0.595097          1.8513
LJ         -0.717977         1.55995         1.36922
LJ          0.705105         -2.3402         1.45875
LJ         -0.346224        0.806369        -1.34113
LJ          -2.25907        -1.59203        0.172406
LJ           2.03417         1.67316        -1.73972
LJ          0.636077        0.881649       -0.610777
LJ          -0.83655         1.40138       -0.656468
LJ          -1.16466         1.33715        -2.20203
LJ         -0.632813          1.4531        -1.84032
LJ              -nan            -nan            -nan
LJ         -0.452317       -0.663075       -0.651073
LJ         -0.714475       -0.296768        0.540428
LJ        -0.0132648       -0.737867         1.47655
LJ         -0.517051          1.0503        0.785594
LJ          -2.35869         2.00991         0.59918
LJ              -nan            -nan            -nan
LJ              -nan            -nan            -nan
LJ          -2.07761        -2.32645        -1.94379
LJ              -nan            -nan            -nan
LJ           2.10399        0.698443        0.982248
LJ           2.51464       -0.664574         2.16409
LJ           1.17258        -2.21103        -2.37178
LJ           2.38898       -0.584034         1.35912
LJ         -0.172062        -1.52573         2.36238
LJ           2.01519          1.7441        -2.38485
LJ           2.12701        0.746771         2.00505
LJ         -0.107186        -1.46779         1.57871
LJ           2.09153        -1.38454         1.58136
LJ           1.14945         2.41645       -0.481966
LJ         -0.158385        -1.50384         1.06446
LJ           2.22289          2.0466        -2.53992
LJ              -nan            -nan            -nan
LJ           2.27012         1.64855       -0.604205
LJ              -nan            -nan            -nan
LJ          -1.69992         1.79569        0.688676
LJ         -0.337324        -2.01515       -0.876685
LJ          -1.58375        -1.03509        -0.73933
LJ          0.795251        -1.31727       -0.716844
LJ         -0.220273         1.50767         2.30899
LJ          0.715079       -0.656881        0.507741
LJ         0.0977179         1.84672       -0.282865
LJ          0.402751        0.102126        0.748172
LJ          0.824297        -2.41875       0.0010483
LJ          -1.36006        -1.09428        -1.88032
LJ           1.44364       -0.871524         1.19297
LJ         -0.558218         2.07828         2.42339
LJ         -0.410422       -0.731649       -0.508214
LJ          -2.23592        -2.53704         1.01144
LJ          -1.24412        -2.18483        0.825805
LJ          -1.74662        -1.18025       -0.323708
LJ         -0.390145         2.25575        -2.12633
LJ              -nan            -nan            -nan
LJ          -1.53357         2.24272        -1.84377
LJ           1.69018        -1.52207       0.0167735
LJ          -1.54713      -0.0636447        0.909679
LJ          0.475377         2.02529         0.90097
LJ          0.581632        0.483091        -2.47825
LJ          -2.20084         1.83495         1.00186
LJ         -0.987548       -0.782377        -0.60694
LJ         -0.366109        0.329624         -2.0144
LJ          0.690186       -0.730152       0.0485284
LJ         -0.556396        0.425617         1.97017
LJ          -2.56281        -2.36723         2.42381
LJ           1.40071        0.740445        -1.59004
LJ           2.14927         2.41257        -1.88438
LJ           1.68081       -0.120445       0.0164527
LJ              -nan            -nan            -nan
LJ          0.427629          1.8469        -2.54554
LJ          -1.26105         2.11213        -1.26967
LJ         -0.200435        -1.83029         2.35869
LJ          0.944206        0.214012         1.51081
LJ         -0.960441        -2.45929        -0.19366
LJ          -1.73737        0.988944        -1.79895
LJ          -1.49153        -2.49755           1.203
LJ         -0.913046        -2.16696        0.488371
LJ          -1.21085          2.4163         1.95169
LJ           1.90558        -1.63056        -2.19365
LJ         -0.126157        0.400397         2.46506
LJ            1.7638        -2.29063        -2.46464
LJ          -2.16379        -2.13146        -0.96141
LJ           1.15932       -0.131748       -0.218752
LJ          -1.42341        0.395588        -2.08111
LJ          -1.65484         1.99554         1.90085
LJ          -2.08577         -1.2991        -1.42787
LJ           1.85222       -0.437444         1.86591
LJ        0.00712166         2.36938        -1.62925
LJ         -0.704205       -0.709407        -2.12998
LJ           1.12575     0.000358069        0.184047
LJ           -2.3027         1.35112        -2.02808
LJ              -nan            -nan            -nan
LJ        -0.0819278       -0.785769        -1.10722
LJ           2.55224        0.622116        -1.72846
LJ         -0.211787        -1.57467       -0.807437
LJ           1.48475         0.76273        -2.00035
LJ          -1.60692        0.519678        -1.86197
LJ          -1.52884        -0.12026         2.41706
LJ         -0.696705        -1.61205       -0.829885
LJ             -2.32         1.98861         1.91119
LJ         -0.468086        -2.49944        -2.39311
LJ         -0.782198        -1.06788       -0.155614
LJ           2.42619        0.613375        -1.31995
LJ         -0.924031       -0.139751         2.30061
LJ          -1.29912        0.235523        -2.00694
LJ          -1.31175        -1.30889        0.575289
LJ          -1.23468        -1.72151         1.26672
LJ         -0.344211       -0.872946        -1.75939
LJ              -nan            -nan            -nan
