108
#Comment!
LJ            1.4276         1.10066        -1.64544
LJ           0.54142        0.399642        -1.50852
LJ           2.25796        -1.92602         1.24993
LJ          0.480135        -1.89751         1.97313
LJ           2.56393         2.44402         2.10463
LJ          0.778518        -2.35536          2.1262
LJ          -2.04494        -2.16097        -2.53275
LJ         -0.764629        -2.32527       -0.487448
LJ           1.79152        -1.08341         1.24998
LJ          -2.40417        -1.53812        -1.78871
LJ              -nan            -nan            -nan
LJ          0.740453        0.696213        -1.73391
LJ          -1.42464        -1.48415        0.996609
LJ              -nan            -nan            -nan
LJ         -0.729902          1.3596         2.20077
LJ              -nan            -nan            -nan
LJ              -nan            -nan            -nan
LJ              -nan            -nan            -nan
LJ         -0.348281        -1.49965         1.34345
LJ              -nan            -nan            -nan
LJ           1.66998         1.91856        -2.46127
LJ           -2.3587         2.49928         1.26138
LJ          -2.24913       -0.418649        0.824722
LJ              -nan            -nan            -nan
LJ         -0.142462       -0.167639       -0.299007
LJ          -0.45983         1.13243        0.547474
LJ          0.252376         1.15134         1.21788
LJ          -1.74599        0.290964       -0.160029
LJ          0.049511        -1.25293        0.781084
LJ           -1.9586        -1.73853         1.98121
LJ              -nan            -nan            -nan
LJ           -2.0848          2.2489        0.353358
LJ              -nan            -nan            -nan
LJ          0.111283         1.86241        -1.90688
LJ              -nan            -nan            -nan
LJ          0.745259        -1.59869      -0.0578312
LJ          0.705908         1.00208        0.136122
LJ          0.452803        0.854907       -0.516902
LJ           1.02443        -1.43267        -1.95091
LJ           2.32801          2.3026        -1.92549
LJ           1.73523        -1.12582         1.39621
LJ           2.21574      -0.0496393        -1.35975
LJ          -1.27007        -1.33803        -2.15533
LJ          0.592868       -0.601717        0.487843
LJ         -0.375802        0.934187       -0.708664
LJ          0.174659        -0.96158        0.508882
LJ         -0.536348       -0.159551         0.89419
LJ          -1.95784       -0.908961         1.99438
LJ          -1.54542         1.45088        0.695546
LJ            2.1606        0.842173       -0.566785
LJ          0.667465        -1.05025         2.52063
LJ          -2.55221        0.531679       -0.265123
LJ              -nan            -nan            -nan
LJ         -0.107755         1.82088        0.480407
LJ          0.363891        -2.51187        -2.44665
LJ          -2.34174         1.48981         1.24713
LJ         -0.637046         1.07938        -1.94802
LJ          -2.27795        0.407526        -1.63656
LJ          -1.16441         2.45795         1.54465
LJ           2.37295         1.90261         1.32495
LJ           1.13289        -1.85348        -2.34053
LJ          -1.59089         1.86129       -0.347111
LJ          -2.42953         1.25577      -0.0139568
LJ              -nan            -nan            -nan
LJ              -nan            -nan            -nan
LJ          -1.63695        -1.75553        0.901814
LJ          0.889142         2.08487       -0.279963
LJ              -nan            -nan            -nan
LJ            1.5548        0.255316        -1.44478
LJ           2.55321         0.83498       -0.157714
LJ         -0.623343       -0.427883         -2.1833
LJ         0.0993821      0.00376317        0.965054
LJ           1.81145       -0.554737        -1.83848
LJ           1.76731        -1.32205        -1.06693
LJ          -1.08365         0.12917        0.457345
LJ          -2.16606        -1.72462        -0.45434
LJ          -2.21949         2.22965         1.82095
LJ        -0.0532778        -2.49132      0.00412171
LJ          -1.42384         2.55311         -1.8891
LJ            2.1009         1.75132       -0.135394
LJ           2.34026        -2.53714        -2.48842
LJ          0.316159         2.10123        -1.87934
LJ         -0.396954         2.13329        0.963095
LJ           1.13709         2.55818        -1.99903
LJ          0.186975        -1.36405        -1.95776
LJ          -0.75534         2.44503         1.64954
LJ          0.784986        -0.20043          -2.269
LJ          -2.12201         2.12829        0.673592
LJ          -1.61564         1.16785       -0.224443
LJ       -0.00901358        0.185561        0.482296
LJ              -nan            -nan            -nan
LJ           2.33528         1.26384        -1.91053
LJ           1.76209        -2.12863        -1.08919
LJ           2.51864        -1.84414        0.596189
LJ         -0.364765         1.48102         2.33687
LJ           1.27988        -2.38954        -1.72397
LJ          -2.19149        -1.97959        0.256764
LJ            2.2059         1.29979        0.407319
LJ              -nan            -nan            -nan
LJ         -0.841303         1.54134       -0.617764
LJ          -1.06762        0.554274       -0.213187
LJ          -1.38352        -2.27468        -2.46237
LJ           0.35547        0.965626         1.71306
LJ          -2.18303      -0.0851174          1.9953
LJ              -nan            -nan            -nan
LJ          -2.42354         2.29402         2.19817
LJ         0.0604061       -0.644994       -0.966883
LJ              -nan            -nan            -nan
