108
#Comment!
LJ          -1.72593         1.50033         1.86682
LJ          0.801778        0.618373        -2.45294
LJ          -2.48895        0.275836        0.886434
LJ          -1.36163        0.721793         2.06014
LJ          -1.61023        0.102536         1.14837
LJ          0.469797       -0.447356         1.14762
LJ         -0.112011       -0.904732        -2.25128
LJ          0.240131         1.08159       -0.235084
LJ          0.492129        -2.31163        -2.17062
LJ          0.760829        0.311231         2.09468
LJ              -nan            -nan            -nan
LJ           1.55595         0.92557         1.91421
LJ          -2.13449         2.23073        -2.41164
LJ              -nan            -nan            -nan
LJ           1.84648     0.000718521        -0.67245
LJ              -nan            -nan            -nan
LJ              -nan            -nan            -nan
LJ              -nan            -nan            -nan
LJ           1.13246          0.7474       -0.181991
LJ              -nan            -nan            -nan
LJ          -1.42175       -0.730002        -1.74116
LJ          -1.85712         1.61345        -1.78963
LJ           1.46029         2.32688         2.14197
LJ              -nan            -nan            -nan
LJ         -0.914912         2.43846       -0.783612
LJ          0.776432       -0.131507        0.269014
LJ          0.817046        -1.11839        -2.37973
LJ           1.68191        0.725492        -1.74127
LJ         -0.444977        -2.46835       0.0254697
LJ         -0.651905        -1.31757        -0.55871
LJ              -nan            -nan            -nan
LJ          -2.52725       -0.879938        -0.42193
LJ              -nan            -nan            -nan
LJ           2.17085       -0.832351        0.411736
LJ              -nan            -nan            -nan
LJ          -2.23829         -1.7498      0.00529747
LJ          -1.24705        -0.50167         1.34117
LJ          -2.32818        0.535177        -2.12994
LJ          -1.85759        -1.38994       -0.594799
LJ          0.126329       -0.428832         1.53082
LJ           1.24911         2.26245         2.48883
LJ            1.9667         1.44608        0.765719
LJ          -2.22518         1.62994        -1.68887
LJ          0.608766         1.22936         1.96934
LJ          0.516444       -0.365842         1.25917
LJ           1.09371        0.823377        -1.86602
LJ           -1.3224         1.60069        -2.01959
LJ           2.05468       -0.680962       -0.603715
LJ           0.92565         0.91502       -0.148122
LJ           -1.6062        0.148001         1.25573
LJ           1.14825       -0.511464       -0.236051
LJ         -0.380674         1.09169        -2.21297
LJ              -nan            -nan            -nan
LJ           2.27619         2.12097         2.56242
LJ           0.44291         2.00884        0.372033
LJ         -0.189531        0.928134         1.12418
LJ          0.803998      -0.0642896        -1.69599
LJ           2.54424         1.56034         2.51007
LJ         -0.252953      -0.0934012       -0.175416
LJ         -0.647448         1.09026        -2.44891
LJ           0.21515        -2.33705       -0.779233
LJ          -1.65869         2.55005       -0.410351
LJ           1.15878         1.41903        -2.16627
LJ              -nan            -nan            -nan
LJ              -nan            -nan            -nan
LJ         -0.788452         1.87498        0.252954
LJ          -2.09638        0.826373        -1.22376
LJ              -nan            -nan            -nan
LJ          0.545213         1.16571         2.53173
LJ          -1.96578       -0.189686        0.667988
LJ           2.48705         2.48123        0.373848
LJ           2.16288        0.308124        -1.73361
LJ           1.00309       -0.490682        -1.63329
LJ         -0.403282        0.421742       -0.312852
LJ          -2.17475         2.10302         1.40661
LJ          -1.88692        0.325542      -0.0368304
LJ          0.607601       -0.743817        -1.56054
LJ         -0.835161        -2.27591         0.33137
LJ           1.67266         -1.8273       -0.978388
LJ          0.951528         0.98943        -1.85565
LJ          -2.06232        -0.79756         2.01678
LJ          -2.40871         1.04007        0.808115
LJ           0.73866        -1.48568        -1.18202
LJ          0.101475         1.98561         1.21813
LJ          -2.18283        -1.99836         1.12217
LJ          -1.01668         1.78144        -2.04257
LJ          0.562487         1.14785        -0.77875
LJ         -0.494315        0.464943        -1.77799
LJ           2.16291        0.216684        -1.64069
LJ          0.162312         1.72771        -1.39024
LJ              -nan            -nan            -nan
LJ          -1.31686       0.0111323         1.20354
LJ           1.85615         1.31607        0.900251
LJ          -1.52322       -0.833754        -0.91583
LJ           1.86246        -1.33362      -0.0421663
LJ          -1.43342        -1.21201         1.03662
LJ         -0.550526         0.70864        -2.46265
LJ          0.852669        -1.27706       -0.904135
LJ              -nan            -nan            -nan
LJ          -1.75157        -0.41787         2.42015
LJ           2.42698        -1.21093        -1.54714
LJ          -1.81809        -0.40565         2.48553
LJ           2.26564        0.046711       -0.820786
LJ          -2.16492        0.194378        -1.95795
LJ              -nan            -nan            -nan
LJ           1.89412      -0.0623892         1.85251
LJ          0.945943         2.53494         2.35447
LJ              -nan            -nan            -nan
