108
#Comment!
LJ         -0.862642         2.15139         1.58075
LJ        -0.0845988         1.29731         1.42608
LJ          -2.34962        -0.43614         1.97117
LJ         -0.515302          2.2372        -1.13797
LJ          0.622494        -2.38958       -0.357908
LJ         -0.674591        0.989428        0.235073
LJ          -2.37038         2.34129        -2.34873
LJ           1.42003        0.427429        -1.34897
LJ           1.95624       -0.542536       -0.175897
LJ           1.37238       -0.486621         2.18153
LJ              -nan            -nan            -nan
LJ          -0.64449         1.64782        0.566282
LJ           0.25135        -1.55109       -0.324749
LJ          0.243477         1.96959         1.62517
LJ          -1.05201       -0.788497        -1.92764
LJ          0.979082        -1.49724        -1.76317
LJ           1.60606       -0.943438        -2.33405
LJ           0.99051        -1.10118      -0.0301746
LJ          -1.32723         1.10056         1.08252
LJ           2.39506        -1.12805        0.498809
LJ           -1.3226       -0.281721        -2.53564
LJ          0.960718        -1.14511       -0.200336
LJ         -0.197554        0.746279        -1.50819
LJ         0.0975118         0.56024        0.632989
LJ          -1.37652        0.689167         1.05814
LJ        0.00385056         0.89406         1.66172
LJ           1.96562         2.32276        -2.08871
LJ         0.0838685         -1.3609         2.03872
LJ           2.03554         1.01031        0.918996
LJ         -0.518465         2.28649         1.87482
LJ          -1.92005        -1.40398        0.438253
LJ          -1.54931       -0.659433         -2.5226
LJ              -nan            -nan            -nan
LJ          -0.51459        0.740527         1.04268
LJ          -1.18127         1.86254         2.22759
LJ          -1.51657        0.153882        -1.67566
LJ         -0.217309        -0.46982         2.32585
LJ         -0.858625         2.15272         1.90516
LJ            1.1522        0.949839        0.197636
LJ         -0.262787       -0.202046         1.49645
LJ           1.45338      -0.0399179         -2.2738
LJ          -1.17233         1.64329        0.074072
LJ           1.17691       -0.753816         1.56501
LJ          -1.56099        -1.81453        -1.77856
LJ          0.517509         2.26619      -0.0251311
LJ           -2.1933         1.14625        0.910529
LJ          0.265969       -0.780918         0.38177
LJ          0.840407       0.0489256        -1.66666
LJ           1.44828       -0.734922         1.00932
LJ          -1.78095        0.538752       -0.825532
LJ         -0.146097       -0.586931       -0.306127
LJ           0.53082         2.22203         1.32556
LJ           2.10907       -0.548576        -2.49016
LJ          0.316028        -1.40327        -1.03468
LJ         0.0383857         1.87038         1.55514
LJ          -2.05404         2.52726         1.01344
LJ          0.740571         1.17823        -2.20404
LJ           1.66184        -1.75238        -2.11553
LJ          -1.62226         2.21728         2.04108
LJ           -1.5647         0.91392         1.53039
LJ            1.0545        0.382559          2.1135
LJ         -0.777252        0.049751         1.99153
LJ         -0.947063        0.110695        0.197144
LJ          -1.07905       -0.847236        0.729109
LJ           1.64261       -0.100364         1.22038
LJ          0.461133       0.0244216        0.396497
LJ         0.0405902       -0.742244         2.15208
LJ           -2.1322         1.77315        0.102348
LJ           1.98842         1.90043        -1.72757
LJ         -0.757115        -2.41893         2.29875
LJ          -1.05607        0.304575        -1.57916
LJ            2.0403        0.328807         2.08097
LJ           -1.4225        -1.70902        -1.89949
LJ             1.383        -1.29572         1.53382
LJ           1.25181       -0.670716          1.3743
LJ           1.55176        0.159504        -1.75971
LJ          0.901503         1.90743        -2.15841
LJ         -0.168438       -0.917178         1.12718
LJ         -0.193645        -1.91319        -1.69248
LJ           1.97798        -1.78036         1.83549
LJ          -2.53294        -2.29583       -0.832356
LJ          0.086531        -1.91272         2.06235
LJ          0.699699         1.34121        0.665323
LJ         0.0321252        0.405836          2.4152
LJ          0.147858        0.553473         0.41681
LJ          0.771529        0.227925         2.50507
LJ          -1.83408       0.0441449         2.16073
LJ          -1.21967        -0.54105        0.028999
LJ          -2.19325       -0.707096         1.84302
LJ         -0.253315        -0.46189      -0.0527179
LJ           1.10746        -2.11282        -2.00682
LJ          -1.61293         1.96856        -1.97211
LJ         -0.559136        0.648414        0.312666
LJ           -2.0811      -0.0551636         1.04752
LJ          -1.71449         2.03649       -0.241788
LJ          -1.50194        -1.23593         2.51113
LJ          -0.96561        -1.09959         1.98952
LJ          0.721345         1.58494         1.26051
LJ          -1.80515         2.17644        -1.25758
LJ           2.43032        -1.00374        0.104045
LJ           2.29053        -1.66632         1.06847
LJ          -2.14968         0.91471       -0.510387
LJ           1.09164      -0.0299883         1.84581
LJ         -0.770558         1.06717         1.96477
LJ           1.91412         -1.5729         -1.4078
LJ          -0.53009       -0.499571         2.21195
LJ           -1.0399       -0.018332        -2.39653
LJ         -0.986866        -2.41947         -1.9606
