108
#Comment!
LJ           1.48168        0.899174        0.834425
LJ          0.432446        0.815745        -2.40056
LJ          -1.82596        0.492183        -1.10027
LJ          0.760743        0.125418         1.76196
LJ          -1.97199         1.84201        -1.17527
LJ           2.41411        0.860967        0.255276
LJ           -1.0684         -1.7067         2.21097
LJ           2.02517       -0.698642        0.602444
LJ          -1.15017         2.24493        -1.37294
LJ          0.295207          2.4882        -1.11646
LJ              -nan            -nan            -nan
LJ           1.39078       -0.922562          1.8195
LJ          -2.46495         1.66067        -2.28452
LJ          -1.96514        0.235973        0.802345
LJ            1.1533        -1.23654         1.30639
LJ          -2.12133        -1.30161        0.139474
LJ          0.807167        -0.29503        -1.07027
LJ           1.43977         1.69379    -0.000290081
LJ           2.31557        0.277846        -2.23454
LJ          -2.50394         1.51141        -2.31649
LJ          0.598923         1.27445         1.33575
LJ           1.11629       -0.916148         1.63859
LJ         -0.016604        -1.01872       -0.842479
LJ           2.15266         1.83639        0.115971
LJ           1.30046        -1.94082        -1.21948
LJ          0.327114       -0.360766        -1.57146
LJ           2.52818       -0.232085         1.02435
LJ           1.23749        -1.81097         1.88635
LJ           1.67294       -0.548126        0.500513
LJ            1.9016       -0.104497        -1.54287
LJ          -1.07016       -0.794611         1.77553
LJ         -0.177988        -1.28664        0.518038
LJ              -nan            -nan            -nan
LJ          -1.24733        0.787672         -2.2461
LJ              -nan            -nan            -nan
LJ          -2.29294         2.26697        -2.55261
LJ         -0.961442         -1.0224         1.53581
LJ           1.00835       -0.346518        -2.56204
LJ           1.48953         1.89825         1.24211
LJ           1.91328      -0.0950596        -1.07408
LJ           2.43417        -2.53679        -1.18761
LJ           1.68823       -0.813674        -1.40081
LJ          0.928382         1.74326         1.21508
LJ          -2.38087         1.98892         2.55502
LJ           2.32078        -2.12645        0.450041
LJ          -1.32944        0.241623       0.0981835
LJ          -1.40711        -1.44548        -2.13349
LJ          -2.00466       0.0594133        -1.57675
LJ          0.734514        -2.33726        -1.64009
LJ         -0.128902         2.02397       0.0599527
LJ          -2.32126        -2.37129        -1.88868
LJ           1.98409        0.485642        -2.09136
LJ         -0.752808       -0.521539        -2.47251
LJ          -2.47893        -1.56746        0.685237
LJ           0.33007        0.138834      -0.0590205
LJ          -2.55259       -0.163494        0.381941
LJ         -0.110866         1.04506          2.1775
LJ          -2.29711       -0.707948       -0.457413
LJ          -2.39749        -1.75868         -2.1604
LJ           1.82619       -0.167497       -0.433985
LJ          -1.13998        -1.65427       -0.786103
LJ           1.20358         2.17882        -1.02844
LJ          -1.36399        -1.70224        -1.33042
LJ          -1.42553          1.9527         1.31569
LJ           0.70304       -0.350545         1.12429
LJ         -0.725943        -1.87898        -1.55279
LJ          -1.71384       -0.503832       -0.980036
LJ              -nan            -nan            -nan
LJ          -2.50256        -1.30118        -1.99593
LJ         -0.640429        -2.09394        -1.79951
LJ          -0.07429       -0.575885        0.719154
LJ         -0.294572         1.64695       -0.032869
LJ         -0.700594         1.20645         2.38901
LJ          0.893791         2.17619       -0.691263
LJ          -2.18243        -2.11709      -0.0235772
LJ          0.739855         2.17908         2.09762
LJ          0.386786       -0.574712         1.30055
LJ         -0.877282         2.13555         1.94206
LJ          -1.91879         -0.6619        -2.31596
LJ         -0.620387        0.281388         1.24313
LJ        -0.0922705         2.03956         1.56887
LJ            2.1935         1.66309        0.386411
LJ          -1.11051        -2.40665        -1.22144
LJ          0.938241         2.54841         1.55063
LJ            1.5245       -0.212793       -0.178507
LJ           2.48207        -1.79455       -0.719757
LJ           1.30314         1.29272        -0.69811
LJ          -2.06123       -0.541201         1.98374
LJ          -0.76354        -1.10756        -2.19527
LJ          -2.23067       0.0741412         2.30738
LJ          -2.39683        -2.05772      -0.0119429
LJ           2.16876        -1.21203       -0.197885
LJ           1.81699       0.0158584         1.78993
LJ          0.680337        -1.54484        -2.31905
LJ           1.20231         2.11136        -1.14369
LJ          -0.54831        0.743086        0.944746
LJ          0.245448         2.17306         2.26661
LJ          -1.52746         2.36307         2.26294
LJ         -0.380713       -0.201032        -1.41298
LJ           1.62068         2.44231         1.47086
LJ         -0.404686       -0.478917        0.193473
LJ          -1.06431        0.374554         2.36203
LJ           2.23828         1.29533        0.256901
LJ          -1.34966        0.330625        -1.00903
LJ          -1.37697         -1.3278        -1.91165
LJ          -2.32684       -0.580005        -1.44608
LJ          -2.37261       -0.586495        -2.15589
LJ          -1.12883        -2.48533         2.13228
