108
#Comment!
LJ          -2.08441       -0.443701       -0.484488
LJ          -1.08552         0.52192        -2.28852
LJ          -1.41374         -1.9297        -0.11493
LJ           1.99848          1.1849        0.546609
LJ         -0.165451         2.41467        -1.64914
LJ            2.0977        -1.13512          1.4953
LJ        -0.0665634         1.92131       -0.444315
LJ          -1.64141         1.49245        -1.58035
LJ          0.529344         -1.7882         1.27066
LJ          0.984995        0.201144        -1.07588
LJ              -nan            -nan            -nan
LJ       -0.00987394       -0.306369        -2.37252
LJ          -1.73398        0.995835        -2.21678
LJ         -0.359221         -2.4764         -2.2651
LJ         -0.648437         1.24497        -1.54298
LJ           1.34916        -1.85515        -1.89108
LJ         -0.618056       -0.916372        0.807322
LJ           1.54362         1.10433        -1.35668
LJ           1.35316         -2.4334         -1.4727
LJ            1.2213        0.586797          2.5082
LJ           1.83922        0.587338         1.15709
LJ          -1.12404        0.663437         1.10539
LJ         -0.327752        0.526357        0.261488
LJ         -0.697989        -1.54185        0.903868
LJ         -0.978793        -1.96695        -0.46144
LJ           2.27387        -1.14909        0.634375
LJ           1.21628        0.486381        0.548303
LJ         -0.723896         0.65291        -2.07241
LJ         -0.912461       -0.771852           1.326
LJ          -2.09036         1.08144         -1.9634
LJ         -0.637834        -1.56492        0.501112
LJ          -1.19143         1.34015        -1.24543
LJ              -nan            -nan            -nan
LJ          0.737373         2.27964        -1.54436
LJ              -nan            -nan            -nan
LJ           1.53947         -2.3732         1.86115
LJ          0.447034        0.786528         2.07968
LJ           1.49256       -0.806289         0.10105
LJ          0.689132         -2.0816        0.701267
LJ           1.92366        -2.34534        0.422456
LJ           2.53863        0.348209        0.768308
LJ          -2.22878         2.15334       -0.422816
LJ           0.59338         1.24627        -1.39417
LJ          -1.28864         1.54639       -0.697319
LJ         -0.224499        0.557932       -0.535375
LJ          -1.99598       -0.544464         -2.4881
LJ           0.39276       -0.505672         1.61479
LJ         -0.922369      -0.0712602         1.01518
LJ          -2.19975         1.35398         2.56433
LJ          -2.24794        -2.37858        -2.09217
LJ          -1.38578       -0.539429        -1.95874
LJ         -0.930221        0.744868          1.7567
LJ          0.787284         2.19788        -1.28824
LJ          -2.31742        -2.22805        -1.41578
LJ          0.164138       -0.765842         1.08853
LJ         -0.918909        0.935842        -2.46519
LJ          -1.26954        0.855346        -1.36232
LJ          0.170846         -1.9563        0.989886
LJ           2.31811         1.96098         0.09492
LJ            1.0164        -2.38683        -1.61881
LJ           1.27583       -0.351798        0.738869
LJ           1.32014        -1.97043         1.27495
LJ           -2.3147        -2.27807         2.19127
LJ          -1.72825           1.904        -1.70717
LJ          0.397367        -2.48077         1.50236
LJ         -0.569759         -2.3917        -0.81452
LJ       -0.00205236         1.83954         1.46174
LJ              -nan            -nan            -nan
LJ         -0.165879        -1.90914        0.520042
LJ          -1.81352       -0.715622       -0.296518
LJ         -0.523351        0.793848       0.0061333
LJ         0.0842791       -0.369786        -1.51631
LJ         -0.305603         1.48968        -2.51299
LJ           1.93621       -0.350978         1.04138
LJ          -2.54942          1.9072       0.0942966
LJ          0.398652        -1.50789        -1.61327
LJ          0.330487       -0.215077       -0.205913
LJ          0.819074        -2.24052         2.03797
LJ           2.17802        0.413659        -1.15691
LJ           1.56857         2.50992        0.313774
LJ          -0.29939        -1.17424        -2.46412
LJ          0.963367        -1.88107        -1.92682
LJ          -1.95129        0.573059        -1.32466
LJ           1.42044        0.282536        0.499096
LJ         -0.479567       -0.381366        0.201503
LJ           2.46292        -1.78259       -0.695759
LJ           2.11714        -1.34551       -0.245274
LJ           1.93111       -0.363249        0.793824
LJ         0.0126477         1.33468         -1.8143
LJ           1.36253       -0.818161       -0.576886
LJ         -0.787764        -2.49081        -2.49078
LJ          -1.27575         2.40578        0.509712
LJ        -0.0452331       -0.186148         -1.2794
LJ          0.188916         1.21189        -1.63229
LJ         -0.816504         1.20352         1.04997
LJ          -2.56265        -0.95815       -0.819177
LJ          -2.52053       -0.656761         -1.5379
LJ          -1.24434         1.59246         1.12097
LJ          -0.29178         -2.3012          1.5073
LJ         -0.644972        -0.33379         1.93607
LJ          0.380737       -0.931899        -1.73107
LJ          -1.98871        -1.58767         0.65515
LJ          0.449381       -0.797491         1.45737
LJ          0.629574        -2.41048       -0.493511
LJ           2.55112        0.549659       -0.261196
LJ          -2.13006        0.299462         -2.2832
LJ          -1.75386        0.706594      -0.0809673
LJ          0.392288         1.36729       0.0345005
